time,ASR_ext,ASR_strain,ASR_strain_xx,ASR_strain_yy,ASR_strain_zz,disp_x_101,disp_x_102,disp_x_103,disp_x_104,disp_x_105,disp_x_106,disp_x_p1_neg,disp_x_p1_pos,disp_x_p2_neg,disp_x_p2_pos,disp_x_p3_neg,disp_x_p3_pos,disp_x_p4_neg,disp_x_p4_pos,disp_x_p5_neg,disp_x_p5_pos,disp_x_p6_neg,disp_x_p6_pos,disp_y_101,disp_y_102,disp_y_103,disp_y_104,disp_y_105,disp_y_106,disp_y_p1_neg,disp_y_p1_pos,disp_y_p2_neg,disp_y_p2_pos,disp_y_p3_neg,disp_y_p3_pos,disp_y_p4_neg,disp_y_p4_pos,disp_y_p5_neg,disp_y_p5_pos,disp_y_p6_neg,disp_y_p6_pos,disp_y_p7_neg,disp_y_p7_pos,disp_y_p8_neg,disp_y_p8_pos,disp_z_101,disp_z_102,disp_z_103,disp_z_104,disp_z_105,disp_z_106,disp_z_p1_neg,disp_z_p1_pos,disp_z_p2_neg,disp_z_p2_pos,disp_z_p3_neg,disp_z_p3_pos,disp_z_p4_neg,disp_z_p4_pos,disp_z_p5_neg,disp_z_p5_pos,disp_z_p6_neg,disp_z_p6_pos,humidity,ndof,nelem,strain_xx,strain_yy,strain_zz,temp,thermal_strain_xx,thermal_strain_yy,thermal_strain_zz,vonmises,vstrain
2419200,0,0,0,0,0,0,0,0,0,0,0,0,0,0,0,0,0,0,0,0,0,0,0,0,0,0,0,0,0,0,0,0,0,0,0,0,0,0,0,0,0,0,0,0,0,0,0,0,0,0,0,0,0,0,0,0,0,0,0,0,0,0,0,0,0,0,0,0,0,0,0,0,0,0,0
2619200,0.019564757416561,0.0004013437530584,0.00013378125101947,0.00013378125101947,0.00013378125101947,-3.4620812051885e-05,3.4622155724546e-05,6.1799785760121e-10,7.1548391405912e-10,-1.8777470779893e-09,3.3019102724757e-09,-3.4242067872163e-05,3.4241665767217e-05,-3.4241983489907e-05,3.42416462808e-05,-3.4240388740701e-05,3.4243368172666e-05,-3.4240354502416e-05,3.4243398758094e-05,-3.5036117559846e-05,3.503907107742e-05,-3.5036010878031e-05,3.5039155625763e-05,1.688234917299e-09,-3.4748036106956e-09,-1.1535753140973e-08,9.8300472784632e-09,-3.5864781819637e-05,3.5863066227447e-05,-3.5276124159768e-05,3.5269119014525e-05,-3.5269304501026e-05,3.5276283963888e-05,-3.5277766788453e-05,3.5267394786583e-05,-3.5270947254445e-05,3.5274559703855e-05,-3.5951515554818e-05,3.5927132421224e-05,-3.5930865112282e-05,3.5948420403748e-05,-3.633157934867e-05,3.6341984663977e-05,-3.6336602905167e-05,3.633681459347e-05,-2.063547390587e-09,-2.1611484450192e-09,-3.2751535431931e-05,3.2747272427506e-05,8.2555890834911e-09,-1.2877854135199e-08,-3.2592406876285e-05,3.2595286135685e-05,-3.2599408407423e-05,3.258827859879e-05,-3.2592444678866e-05,3.2595258907894e-05,-3.2599445117024e-05,3.2588250199418e-05,-3.4016210824745e-05,3.4004849082309e-05,-3.4016100086661e-05,3.4004929166515e-05,0.81992966732265,128566,2924,0.00014424571539236,0.00014942178198386,0.00013644654179116,31.545911912126,1.236729529701e-05,1.236729529701e-05,1.236729529701e-05,609001.20467112,0.00043020678160932
2819200,0.04115656418532,0.00084164733529252,0.00028140515699944,0.00028332108915605,0.00027692108913703,-7.1783031984469e-05,7.1779273774355e-05,-1.8878802229365e-09,-1.8524329032933e-09,4.0002892110287e-09,-7.9468527990064e-09,-7.1893617310818e-05,7.1893798128464e-05,-7.1893519255559e-05,7.1893723488385e-05,-7.1897380267219e-05,7.1889775036967e-05,-7.1897363773352e-05,7.1889782210453e-05,-7.2205609036066e-05,7.2197884794967e-05,-7.220551944294e-05,7.2197865288613e-05,-3.5178782593479e-09,8.4522047545275e-09,-1.5656978437924e-08,2.0412157490479e-08,-7.491324846051e-05,7.4918018074059e-05,-7.4364683369221e-05,7.4353668535728e-05,-7.435307601482e-05,7.4365746943882e-05,-7.4360896078119e-05,7.4357665549283e-05,-7.4349288729591e-05,7.4369744212708e-05,-7.4540515519835e-05,7.4513834262234e-05,-7.4505632788335e-05,7.4549736862893e-05,-7.5471620361313e-05,7.5476634826367e-05,-7.5459978939051e-05,7.5488621419333e-05,-2.4267656925003e-09,-2.4645109554964e-09,-6.6891433665569e-05,6.68864473908e-05,1.5046719903407e-08,-2.0621791772433e-08,-6.7659891882454e-05,6.7666912388875e-05,-6.76717401204e-05,6.7655070288788e-05,-6.7659894194748e-05,6.7666889377411e-05,-6.7671744691442e-05,6.7655049775857e-05,-6.9357015452894e-05,6.9340177667559e-05,-6.9357002501647e-05,6.9340237907137e-05,0.82138490433108,128566,2924,0.00029904321132697,0.00031209948946235,0.00027866537100795,32.739105884833,2.1912847078664e-05,2.1912847078664e-05,2.1912847078664e-05,908865.40471497,0.00089020460484916
3019200,0.062603191019478,0.0012765035208823,0.00042836376209378,0.00043530495061077,0.00041283480817777,-0.00010597915999126,0.00010597460825811,-2.2432296518721e-09,-2.2771900942466e-09,7.0080423167873e-09,-1.1840043639919e-08,-0.00010672877115926,0.00010673047473026,-0.00010672869679114,0.00010673037627111,-0.00010673476581406,0.00010672413228104,-0.000106734775987,0.00010672412094153,-0.00010609629974457,0.00010608555075086,-0.00010609628363122,0.00010608547214211,-6.5536646185629e-09,1.2210670883508e-08,-1.8738957722473e-08,2.4090853088905e-08,-0.0001117386912796,0.00011174408620501,-0.00011126758314527,0.00011125265642758,-0.00011125368320634,0.00011126697174475,-0.00011126156907626,0.00011125892414196,-0.00011124766787851,0.00011127324076167,-0.00011045783250278,0.00011042739162666,-0.00011041637345576,0.00011046996813557,-0.00011251199701202,0.0001125132340051,-0.00011249373164022,0.00011253201209058,-2.5422917733502e-09,-2.5288162666164e-09,-9.6762284061943e-05,9.6757118531155e-05,1.8309181014584e-08,-2.4174111226559e-08,-9.8341742483997e-05,9.8350872822041e-05,-9.8355888621053e-05,9.8336786517258e-05,-9.8341716321027e-05,9.8350854180364e-05,-9.835586204933e-05,9.8336770151787e-05,-0.00010084814058983,0.00010082887871193,-0.00010084822409532,0.00010082893165773,0.82013324767463,128566,2924,0.00044147236681618,0.00046548001760722,0.00040308524810543,32.491784216703,1.9934273733625e-05,1.9934273733625e-05,1.9934273733625e-05,1229201.5390267,0.0013108972480638
3219200,0.083813694146142,0.0016977770696034,0.00057095203471846,0.00058614543443328,0.00054067960045169,-0.00013900526787399,0.00013900097732477,-2.0852110965984e-09,-2.1780493951156e-09,7.8251142609382e-09,-1.2417801457064e-08,-0.00014069978502261,0.00014070224569373,-0.00014069973183634,0.00014070212897617,-0.0001407062487674,0.00014069543037395,-0.00014070628191041,0.00014069540228851,-0.0001384240010753,0.00013841308633541,-0.00013842406012456,0.00013841296710207,-7.391182625459e-09,1.2780009392508e-08,-2.0281372069659e-08,2.5330248213716e-08,-0.00014821836090245,0.00014822346438349,-0.00014816621380939,0.00014814955814245,-0.00014815133743194,0.00014816478314039,-0.00014815969281875,0.00014815629262816,-0.00014814481534288,0.00014817151866776,-0.0001454491578048,0.00014541617492911,-0.00014540499021392,0.0001454614839023,-0.00014891477249275,0.00014891528156048,-0.00014889513555962,0.00014893544411609,-2.432566532427e-09,-2.3573487168331e-09,-0.00012467648577072,0.00012467161187021,1.9790855100969e-08,-2.5424114966582e-08,-0.00012733921003526,0.00012734954818803,-0.00012735428023986,0.00012733456255158,-0.00012733916422098,0.00012734955071889,-0.00012735423277028,0.00012733456640422,-0.00013033151290666,0.00013031166692352,-0.00013033166108444,0.00013031166352677,0.80675913752315,128566,2924,0.00057901103636505,0.00061739497125896,0.00051934302145551,32.203857834625,1.7630862677003e-05,1.7630862677003e-05,1.7630862677003e-05,1489402.3682355,0.0017172235852171
3419200,0.10476394717509,0.0021015631966981,0.0007073435828267,0.00073454547634678,0.00065967413752465,-0.00017050431785016,0.00017050045840879,-1.8422462661944e-09,-1.995110415472e-09,7.95953783391e-09,-1.2130954335996e-08,-0.00017352503662868,0.0001735279119856,-0.00017352500406502,0.0001735277758361,-0.00017353146556502,0.00017352114375696,-0.00017353151998216,0.00017352109675559,-0.0001687906953678,0.00016878030752267,-0.00016879082783769,0.00016878014384363,-7.4172908919282e-09,1.2614519310116e-08,-2.095376320591e-08,2.5804192908487e-08,-0.0001841108814329,0.00018411578946109,-0.00018498931188816,0.00018497209712847,-0.00018497401897168,0.00018498769049177,-0.00018498280535189,0.00018497878138005,-0.00018496751139459,0.00018499437567412,-0.00017910359973278,0.0001790692584921,-0.00017905831790354,0.00017911569173965,-0.00018423806076465,0.00018423891004832,-0.00018421856719913,0.0001842589211182,-2.2846534078786e-09,-2.1488443826284e-09,-0.00015053121355666,0.00015052670536672,2.0510284246483e-08,-2.5816879860999e-08,-0.0001546152426843,0.00015462631535444,-0.00015463068530978,0.00015461096051327,-0.0001546151784294,0.00015462633978746,-0.00015463061920233,0.00015461098608296,-0.00015750764172082,0.0001574878334204,-0.00015750784248907,0.00015748776405896,0.78589836758981,128566,2924,0.00071017279892261,0.00076684211298379,0.0006270129267409,31.914374183382,1.5314993467058e-05,1.5314993467058e-05,1.5314993467058e-05,1716212.4560131,0.002106245203785
3619200,0.12597481134084,0.0025003191542974,0.00084144195290184,0.00088467380153078,0.00077420339986476,-0.00020210194828814,0.00020209876963019,-1.467334094731e-09,-1.6945414691336e-09,7.77728384709e-09,-1.1262522629819e-08,-0.00020682960290302,0.00020683284367689,-0.00020682959805494,0.00020683268245829,-0.00020683570071774,0.00020682642431068,-0.00020683577690719,0.00020682635278994,-0.00019883387578517,0.00019882457540278,-0.00019883408334527,0.00019882435072043,-6.9965538405313e-09,1.1948638999266e-08,-2.087221233413e-08,2.5495777283733e-08,-0.00022115269963269,0.00022115738004794,-0.00022358565561444,0.00022356868785912,-0.00022357045801298,0.00022358413800716,-0.00022357948490478,0.00022357500167669,-0.00022356428301023,0.00022359045597059,-0.00021310907441742,0.00021307452594799,-0.00021306415948075,0.0002131205644889,-0.00022015370049071,0.00022015526081508,-0.00022013526712689,0.00022017418091658,-2.0344902513931e-09,-1.8523811535253e-09,-0.00017599777293629,0.00017599382008735,2.0610047946197e-08,-2.5371361079093e-08,-0.00018169308737333,0.00018170459196451,-0.00018170841386745,0.00018168934597381,-0.00018169300979274,0.0001817046307565,-0.00018170833157211,0.00018168938951305,-0.0001842305265458,0.00018421142679055,-0.0001842307690028,0.00018421129893758,0.77011575380724,128566,2924,0.00084172805329046,0.00092105064851834,0.00073305711665827,31.993860413993,1.5950883311947e-05,1.5950883311947e-05,1.5950883311947e-05,1968662.1405871,0.0024989558715764
3819200,0.14778822687686,0.0029087173273772,0.00097810443428296,0.001041084658578,0.00088952823451625,-0.00023471590241434,0.00023471327247376,-1.1724782040736e-09,-1.4437613790612e-09,7.5063166977942e-09,-1.0436269067607e-08,-0.00024133101642647,0.00024133445923201,-0.00024133102454047,0.00024133428501662,-0.00024133676295692,0.00024132841072216,-0.00024133685403342,0.00024132831972816,-0.00022967586729376,0.00022966752561469,-0.00022967612707086,0.00022966725295518,-6.6493386967965e-09,1.1249283888871e-08,-2.0569493573966e-08,2.4859413404521e-08,-0.00026022927608766,0.00026023361969774,-0.00026467710940302,0.0002646604616683,-0.00026466220642713,0.00026467559324061,-0.00026467127507149,0.00026466642432808,-0.00026465637176656,0.00026468155600788,-0.0002485944030803,0.00024856010223696,-0.0002485504022801,0.0002486051982744,-0.0002577663374631,0.00025776827548908,-0.00025774893437675,0.00025778614883971,-1.8310744083028e-09,-1.5722679512023e-09,-0.0002020930280994,0.00020208956440448,2.0363302146472e-08,-2.4631535028981e-08,-0.00020935373386428,0.00020936537270562,-0.00020936872791397,0.00020935045353058,-0.00020935362834271,0.00020936543842241,-0.00020936862239477,0.00020935052025182,-0.00021187830085072,0.00021186008100379,-0.00021187860748976,0.0002118598801035,0.77140161012782,128566,2924,0.00097749583788404,0.0010837032113029,0.00084170965039147,32.325236451167,1.8601891609334e-05,1.8601891609334e-05,1.8601891609334e-05,2226779.7104731,0.0029071299183883
4019200,0.17019258665918,0.0033270076462299,0.0011174943411627,0.0012038114583744,0.0010057018466928,-0.00026790651575994,0.00026790429090831,-9.4021008084782e-10,-1.2737893621641e-09,7.3382865907904e-09,-9.8566681136874e-09,-0.00027659854666631,0.00027660216347682,-0.00027659857730794,0.00027660197039679,-0.00027660404614452,0.00027659636973812,-0.00027660415655186,0.00027659625699072,-0.00026097061559986,0.00026096298584463,-0.00026097093804951,0.00026096265541474,-6.3830059952983e-09,1.0765270686958e-08,-2.0182980514226e-08,2.4267344984857e-08,-0.00030095005292659,0.00030095418776266,-0.00030773652573237,0.00030772024032777,-0.0003077219342859,0.00030773504165574,-0.00030773093342626,0.00030772595032388,-0.0003077163419596,0.00030774075164889,-0.00028537444784987,0.0002853406494052,-0.00028533139148941,0.00028538477500025,-0.0002967010560489,0.00029670318431266,-0.00029668437827003,0.0002967203161676,-1.6733521111608e-09,-1.3559804906491e-09,-0.00022836812523806,0.00022836504024769,2.0074734873946e-08,-2.395528569249e-08,-0.00023731414690287,0.00023732582192008,-0.00023732881846099,0.00023731122390877,-0.00023731402170419,0.00023732590671878,-0.00023732869163245,0.00023731130920613,-0.00023995898516419,0.00023994152044247,-0.00023995934855724,0.00023994125983773,0.77299485127545,128566,2924,0.001115644377002,0.0012531705202016,0.00095110197543138,32.662745873542,2.1301966988339e-05,2.1301966988339e-05,2.1301966988339e-05,2463597.6949947,0.0033254389120235
4219200,0.19316385259747,0.0037553228348396,0.0012596595420578,0.0013729497740674,0.0011227135187143,-0.00030167667636587,0.00030167475053309,-7.6169955766662e-10,-1.155969760767e-09,7.2261901855923e-09,-9.4397406132569e-09,-0.00031279528868146,0.00031279904883101,-0.00031279534266944,0.00031279883862765,-0.00031280062099981,0.00031279343629944,-0.00031280075070639,0.00031279330270921,-0.0002929151497162,0.00029290805081774,-0.00029291553319537,0.00029290766326651,-6.1911492026269e-09,1.0426792359018e-08,-1.9817524674577e-08,2.3763141805991e-08,-0.00034356998371865,0.00034357397794697,-0.00035284973881768,0.00035283377539086,-0.00035283542529579,0.00035284828326771,-0.00035284431761962,0.00035283930582853,-0.00035283000400687,0.00035285381378294,-0.00032375670178729,0.00032372343795852,-0.00032371448294931,0.00032376670139974,-0.00033755779949708,0.000337560011955,-0.0003375416318909,0.00033757661739835,-1.5684407739996e-09,-1.1909045881104e-09,-0.00025471537607558,0.00025471256546277,1.978826207803e-08,-2.3383333217144e-08,-0.00026581543392096,0.00026582707435337,-0.00026582981853184,0.00026581276134884,-0.00026581528778201,0.00026582717821253,-0.0002658296702595,0.00026581286546582,-0.00026817946667261,0.00026816261923484,-0.00026817988723266,0.00026816229758499,0.77488673084664,128566,2924,0.0012561848204833,0.001430509454809,0.0010607864276283,33.000484798283,2.4003878386266e-05,2.4003878386266e-05,2.4003878386266e-05,2669165.4965061,0.0037545182513996
4419200,0.21707428373956,0.004200667052186,0.0014067563141313,0.0015517784588864,0.0012421322791683,-0.00033699742770169,0.00033699571458777,-5.8401606916034e-10,-1.1237336197794e-09,7.1576734770271e-09,-9.1533096862457e-09,-0.0003507829536479,0.00035078686808587,-0.00035078307073804,0.00035078660268192,-0.00035078818782998,0.00035078136704974,-0.00035078835484421,0.00035078119587664,-0.00032634390033349,0.00032633723801534,-0.00032634439560867,0.00032633674176876,-6.0364747136352e-09,1.010594983489e-08,-1.9389480450814e-08,2.3177089455562e-08,-0.00038924500252867,0.00038924883715832,-0.00040120825752367,0.00040119263602214,-0.00040119427756551,0.00040120679058796,-0.000401202999177,0.0004011979942052,-0.00040118899740698,0.00040121217059143,-0.00036479956494988,0.00036476694472217,-0.00036475828441394,0.00036480922600761,-0.00038145241245284,0.00038145455934877,-0.00038143666828364,0.00038147071900732,-1.4533226408466e-09,-1.1004892529133e-09,-0.00028198110547271,0.00028197850393241,1.9472051224495e-08,-2.2841507689489e-08,-0.00029565126340049,0.00029566283959261,-0.00029566537209055,0.00029564879913613,-0.00029565113531085,0.00029566292366659,-0.00029566522006606,0.00029564890508773,-0.000297443431288,0.00029742708387499,-0.00029744385784431,0.00029742675238668,0.77612068057316,128566,2924,0.0014031565080537,0.0016205238130639,0.0011742863518364,33.594591257823,2.8756730062582e-05,2.8756730062582e-05,2.8756730062582e-05,2865504.0099588,0.0042068001480468
4619200,0.24206239927088,0.0046654810573123,0.0015595755624819,0.0017415186400939,0.0013643868547365,-0.00037375845045935,0.00037375688666778,-4.3072264669491e-10,-1.1302508444803e-09,7.1322409254134e-09,-8.9751003220812e-09,-0.00039040366824726,0.00039040773727671,-0.00039040385782828,0.00039040740867516,-0.00039040886118393,0.00039040229053898,-0.00039040907004427,0.00039040207914362,-0.00036103954264079,0.00036103321198862,-0.00036104015942622,0.00036103259698441,-5.9497845028293e-09,9.8771228755143e-09,-1.9042509257928e-08,2.2695065332362e-08,-0.00043785629671271,0.00043785999518228,-0.00045278836068184,0.00045277300130936,-0.00045277466377054,0.00045278685920857,-0.00045278322044934,0.00045277823478927,-0.00045276947119834,0.00045279214331709,-0.00040830482849825,0.0004082727428376,-0.00040826430090775,0.00040831422861015,-0.00042800134096235,0.00042800334538507,-0.00042798585990675,0.00042801922329644,-1.3638822422827e-09,-1.0504875443055e-09,-0.00031003157358878,0.0003100291137629,1.9215080800604e-08,-2.2425387145735e-08,-0.00032661921835766,0.0003266307344845,-0.00032663311679883,0.00032661690005252,-0.00032661911559026,0.00032663079094723,-0.00032663296609961,0.00032661700398792,-0.00032761005265417,0.00032759406453985,-0.00032761047470705,0.00032759373477113,0.77693646560869,128566,2924,0.0015560975871101,0.001822711771708,0.0012910452797626,34.29244130731,3.4339530458483e-05,3.4339530458483e-05,3.4339530458483e-05,3057552.8780751,0.0046807886337738
4819200,0.26809679838612,0.0051492085629394,0.0017178895574375,0.0019419658882235,0.0014893531172784,-0.00041170112626314,0.00041169967031012,-3.6321283348512e-10,-1.0919156087998e-09,7.0988233802303e-09,-8.8316935010612e-09,-0.00043137303014929,0.00043137716444647,-0.0004313732338059,0.0004313768312633,-0.0004313781744944,0.00043137177774188,-0.00043137840112238,0.0004313715527602,-0.0003967145857576,0.00039670846046198,-0.00039671524913632,0.00039670780438957,-5.9182585367789e-09,9.7597204123143e-09,-1.8815019298414e-08,2.2386903245164e-08,-0.00048910655520413,0.00048911017189316,-0.00050733087008397,0.00050731566302312,-0.00050731735158154,0.00050732934010789,-0.00050732577930142,0.00050732084405312,-0.00050731221142998,0.00050733456660498,-0.00045393169678595,0.00045390002770147,-0.00045389170632589,0.00045394096060527,-0.00047679055293064,0.00047679245860701,-0.00047677523208743,0.00047680817013506,-1.3806223192842e-09,-9.7656139635709e-10,-0.0003386841365288,0.00033868173383753,1.8970241201462e-08,-2.2109394226823e-08,-0.00035844707200149,0.00035845842492399,-0.00035846078206439,0.00035844477473064,-0.00035844693657571,0.00035845851291989,-0.00035846060758129,0.00035844490358544,-0.00035846766652441,0.00035845199717036,-0.00035846816062076,0.00035845158898443,0.77792179394321,128566,2924,0.0017139294458975,0.0020358289622356,0.0014103036610606,34.992854744529,3.9942837956231e-05,3.9942837956231e-05,3.9942837956231e-05,3243860.6932128,0.0051734158624994
5019200,0.2951282551372,0.0056494529020884,0.0018806675930413,0.0021522499902054,0.0016165353188418,-0.00045056829807136,0.00045056692030215,-2.972314128965e-10,-1.0809356025567e-09,7.0692961124896e-09,-8.7218341943346e-09,-0.00047347917801916,0.00047348336488809,-0.00047347940472661,0.00047348301634747,-0.00047348428172684,0.00047347802707194,-0.00047348453084225,0.00047347778326998,-0.00043316265335261,0.00043315670828184,-0.00043316337641957,0.00043315599473432,-5.8768236681886e-09,9.6778258097999e-09,-1.8635906475173e-08,2.2171240395031e-08,-0.00054279185695174,0.00054279543581533,-0.00056467112396148,0.0005646560510033,-0.00056465773471694,0.00056466959860606,-0.00056466607162645,0.00056466118967145,-0.00056465263639281,0.00056467477968053,-0.0005013997889669,0.0005013684347619,-0.00050136018730211,0.00050140897025247,-0.00052758671382634,0.00052758857960697,-0.00052757152104428,0.00052760415889966,-1.4094656684669e-09,-9.4066134622006e-10,-0.0003678472173917,0.00036784482047593,1.8780854997213e-08,-2.1902585158295e-08,-0.00039103974760897,0.0003910509503819,-0.00039105332634644,0.00039103742879894,-0.00039103959219024,0.00039105105846856,-0.00039105313113613,0.00039103757863483,-0.00038983006975224,0.00038981460372917,-0.0003898306250819,0.0003898141295988,0.77677326049726,128566,2924,0.001875579992264,0.002259019558246,0.0015316815827241,35.693364520395,4.5546916163158e-05,4.5546916163158e-05,4.5546916163158e-05,3421348.6744665,0.0056823882286062
5219200,0.32245978942162,0.0061551366585888,0.0020440759886725,0.0023675791612417,0.0017434815086747,-0.00048872448005164,0.00048872312807678,-2.4589284529861e-10,-1.1072875468269e-09,7.0882295402702e-09,-8.7153358835742e-09,-0.00051498781672194,0.00051499206240708,-0.0005149880727819,0.00051499168563121,-0.00051499292794513,0.00051498672005079,-0.00051499320168739,0.00051498645212188,-0.00046890078662565,0.00046889493380893,-0.00046890157785999,0.00046889414569186,-5.8756595724862e-09,9.6871995778495e-09,-1.8798737504826e-08,2.2346343539985e-08,-0.00059700454819438,0.00059700813836625,-0.00062282865518221,0.00062281348396807,-0.00062281516403372,0.0006228271461217,-0.00062282360227853,0.00062281862156154,-0.00062281006218418,0.00062283232974766,-0.00054896879028661,0.00054893711288462,-0.00054892886266707,0.00054897799748805,-0.00057856638132527,0.00057856835803291,-0.00057855117635719,0.0005785839494468,-1.5002051321463e-09,-9.8912756873523e-10,-0.00039626241211862,0.0003962598731185,1.8881497497683e-08,-2.2150530215086e-08,-0.00042302137782645,0.0004230325414385,-0.00042303507257885,0.00042301890188895,-0.0004230212109864,0.00042303266127364,-0.00042303486161656,0.0004230190676779,-0.00042039932515793,0.00042038365458823,-0.00042039992596991,0.00042038313115817,0.77855552599689,128566,2924,0.002034246755798,0.0024843476362377,0.001649943934187,36.022880706115,4.8183045648922e-05,4.8183045648922e-05,4.8183045648922e-05,3576654.6726393,0.0061876330656309
5419200,0.34988683037387,0.0066554463486285,0.002204415886691,0.0025834528139241,0.0018675776480134,-0.00052600186514646,0.00052600055479853,-2.4016706654994e-10,-1.0719453712937e-09,7.0698990626995e-09,-8.6546048446745e-09,-0.00055591280885417,0.00055591705153284,-0.00055591304620278,0.00055591669242087,-0.00055591788383065,0.00055591174476597,-0.00055591815784898,0.00055591147683881,-0.00050372242319286,0.00050371663830275,-0.00050372321227105,0.00050371584852883,-5.8512757396309e-09,9.6941467386479e-09,-1.8950071886518e-08,2.2529193877121e-08,-0.00065135123867905,0.00065135485996595,-0.0006814295707928,0.00068141431800738,-0.00068141596420967,0.00068142810340385,-0.00068142451489933,0.00068141945695974,-0.00068141087791496,0.00068143326979874,-0.00059629824898359,0.00059626629767172,-0.00059625803222264,0.00059630749106967,-0.00062925134058756,0.0006292535080715,-0.00062923618327262,0.0006292690526774,-1.6209305534379e-09,-9.6022134520126e-10,-0.00042389072432898,0.00042388809072122,1.8956861459395e-08,-2.2325435091735e-08,-0.00045449108456925,0.0004545021771402,-0.00045450485213715,0.00045448846363913,-0.00045449085951415,0.00045450235597576,-0.00045450460138371,0.00045448866987464,-0.00045004892508063,0.0004500332008625,-0.00045004964368392,0.00045003255650866,0.76958003584254,128566,2924,0.0021892340359979,0.002710176487768,0.0017649303695888,36.275749794961,5.0205998359685e-05,5.0205998359685e-05,5.0205998359685e-05,3711492.6262584,0.0066866352301484
5619200,0.37732882662541,0.0071326478266792,0.0023559451791662,0.0027926283001022,0.0019840743474108,-0.00056147703950472,0.00056147574740956,-1.9301299562591e-10,-1.1013588431001e-09,7.0318323712661e-09,-8.5957800026743e-09,-0.0005958783610437,0.00059588261218959,-0.00059587862305255,0.00059588222684029,-0.00059588340130199,0.00059587733730247,-0.0005958836986354,0.00059587704700945,-0.00053651639122818,0.00053651072569439,-0.00053651725047417,0.00053650986797815,-5.7922495469288e-09,9.6544209165681e-09,-1.9001950901885e-08,2.2600612466303e-08,-0.00070462651965639,0.00070463016059178,-0.00073936859937169,0.00073935335248697,-0.00073935494667539,0.00073936718167704,-0.00073936357114525,0.00073935845747874,-0.00073934989200356,0.00073937231512662,-0.00064215078036922,0.00064211868651755,-0.00064211043879767,0.00064216001073904,-0.00067835504249569,0.00067835736693883,-0.00067833997828326,0.0006783728147377,-1.6673217392751e-09,-9.6293402332483e-10,-0.00044985762783945,0.00044985494372884,1.89969821595e-08,-2.2418484832589e-08,-0.00048501760067808,0.00048502867155997,-0.00048503141265376,0.00048501491327748,-0.00048501736243145,0.00048502886452937,-0.0004850311445756,0.00048501513728668,-0.00047764445823767,0.00047762869112166,-0.00047764522645436,0.00047762799540754,0.73637048914946,128566,2924,0.0023367046236741,0.0029314965277554,0.0018730059241353,36.526661939897,5.2213295519173e-05,5.2213295519173e-05,5.2213295519173e-05,3827279.7050138,0.0071668146301
5819200,0.4047042007658,0.0075914103443379,0.0025004563885409,0.0029960805593997,0.0020948733963974,-0.0005956929658932,0.00059569172032108,-1.3985698064355e-10,-1.1090024368593e-09,6.9998014812235e-09,-8.5139449153565e-09,-0.0006353626580282,0.00063536693797773,-0.00063536293961184,0.00063536653207238,-0.00063536766147107,0.0006353616998525,-0.00063536797859942,0.00063536139024138,-0.00056804248097836,0.00056803695748605,-0.00056804339808742,0.00056803604007626,-5.727483802919e-09,9.5978615320067e-09,-1.8968087107165e-08,2.25727107143e-08,-0.00075722455944682,0.00075722820660586,-0.00079682130241536,0.00079680611990146,-0.00079680766843458,0.00079681992886452,-0.00079681631127125,0.00079681118313196,-0.00079680264974733,0.00079682502172641,-0.00068701737100835,0.00068698530035005,-0.00068697708653474,0.00068702656737094,-0.0007267783843723,0.00072678081191362,-0.00072676343249307,0.00072679613990587,-1.7133671311614e-09,-9.4933748887528e-10,-0.0004744514814265,0.00047444876448274,1.8951223188846e-08,-2.2407552385818e-08,-0.00051477232549597,0.0005147833235467,-0.00051478611753153,0.00051476958447262,-0.00051477206712213,0.00051478353770127,-0.00051478583008436,0.00051476982886397,-0.00050356817546458,0.00050355245168617,-0.0005035689996422,0.00050355169775235,0.71317584129277,128566,2924,0.0024789187997218,0.0031499470793453,0.0019753725342944,36.777499988424,5.4219999907391e-05,5.4219999907391e-05,5.4219999907391e-05,3920387.277281,0.0076332860291812
6019200,0.43152975522986,0.0080324772803179,0.0026386856289745,0.0031931007734782,0.0022006908778652,-0.00062834754482998,0.00062834635891226,-6.886263256958e-11,-1.1218351000591e-09,7.0946554408089e-09,-8.5445148000557e-09,-0.0006735159466596,0.00067352035950826,-0.00067351625866661,0.00067351992089087,-0.00067352099669178,0.00067351507411274,-0.00067352133763502,0.00067351474103123,-0.00059800759919845,0.00059800216212255,-0.00059800858693407,0.00059800117371588,-5.7812460844299e-09,9.6605889282866e-09,-1.9136597741545e-08,2.2748550213406e-08,-0.0008084290067093,0.00080843266143471,-0.00085289369163335,0.00085287836629694,-0.00085287994941249,0.00085289228767046,-0.00085288866245301,0.00085288346357608,-0.00085287488498804,0.00085289742233246,-0.00073044904515079,0.00073041667086809,-0.000730408418236,0.00073045829623095,-0.00077365791864515,0.00077366034114012,-0.00077364283312869,0.0007736757899125,-1.7767298777551e-09,-9.7580883684037e-10,-0.00049728550007181,0.00049728269210672,1.9076831312634e-08,-2.2632843971513e-08,-0.00054309290134031,0.0005431039180116,-0.00054310681311347,0.00054309005873757,-0.00054309263533828,0.00054310414163768,-0.00054310650994986,0.0005430903204109,-0.00052757634393998,0.00052756046289512,-0.00052757721292804,0.00052755965837062,0.70261523470926,128566,2924,0.002614624540865,0.0033625567655055,0.0020704215551148,36.77549145975,5.4203931678001e-05,5.4203931678001e-05,5.4203931678001e-05,3972990.4154694,0.0080801513102999
6219200,0.45773687089895,0.0084658138129603,0.0027745211070559,0.0033868066666433,0.0023044860392611,-0.00066057822009596,0.00066057704263565,-3.839674421538e-11,-1.1446516032852e-09,7.167560968903e-09,-8.6071026728333e-09,-0.00071094588367067,0.00071095036836707,-0.00071094621252759,0.00071094991157348,-0.00071095098000231,0.00071094503811154,-0.0007109513406647,0.00071094468554906,-0.00062767284392421,0.00062766742591386,-0.00062767388840988,0.00062766638100843,-5.8574101737281e-09,9.7177893705876e-09,-1.9223207774315e-08,2.2815211662239e-08,-0.00085900760902331,0.0008590112436903,-0.0009084255407171,0.00090841009856192,-0.00090841174772174,0.00090842407262155,-0.00090842046571425,0.0009084152409058,-0.00090840663777788,0.00090842925128736,-0.00077315813796363,0.00077312564040571,-0.00077311736499128,0.00077316741640641,-0.00081950247027749,0.00081950479395974,-0.00081948725155137,0.00081952036854248,-1.8346582736568e-09,-9.6666306111162e-10,-0.00051932790653088,0.00051932504870776,1.9126084577951e-08,-2.27365021084e-08,-0.00057063607737362,0.00057064707372944,-0.00057065003868755,0.00057063316425726,-0.00057063578915506,0.00057064732062673,-0.0005706497153312,0.0005706334474713,-0.00055095353363463,0.00055093761527088,-0.0005509544623461,0.00055093674809672,0.70745492023953,128566,2924,0.0027485524261659,0.0035725191122514,0.0021621788854002,36.758765972688,5.4070127781505e-05,5.4070127781505e-05,5.4070127781505e-05,3994889.4019284,0.0085194348812329
6419200,0.48328510465503,0.0088850546061633,0.0029062997976902,0.0035746347171819,0.0024041200912912,-0.00069189049366289,0.00069188928933893,-2.2250497575072e-11,-1.1876405201689e-09,7.1998957666284e-09,-8.6668434442643e-09,-0.00074738941801345,0.00074739392607718,-0.00074738976653136,0.00074739345060825,-0.00074739454618449,0.00074738856567522,-0.00074739492785969,0.00074738819362752,-0.00065614349053098,0.00065613807513188,-0.00065614459441398,0.00065613697130206,-5.9142774325606e-09,9.752888919497e-09,-1.9236668981055e-08,2.280656868854e-08,-0.00090827496089854,0.00090827857345575,-0.00096271133088838,0.00096269583237949,-0.00096269753383006,0.00096270980907072,-0.00096270622458072,0.00096270100645059,-0.00096269239364794,0.00096271501853223,-0.00081455498956709,0.00081452249855672,-0.00081451421372418,0.00081456427636198,-0.0008638234951114,0.00086382570860824,-0.00086380818800049,0.00086384137307787,-1.8776486249561e-09,-9.4812794832684e-10,-0.0005403051207507,0.00054030223823192,1.9116381483021e-08,-2.2752372815779e-08,-0.00059722820248609,0.00059723915625345,-0.0005972421654809,0.00059722524445458,-0.00059722789392222,0.00059723942392026,-0.00059724182233777,0.00059722554832304,-0.00057307698319313,0.00057306109947714,-0.00057307797161846,0.00057306017066813,0.70210892983451,128566,2924,0.002878648645449,0.0037769917446494,0.0022495061141848,36.741605814896,5.3932846519166e-05,5.3932846519166e-05,5.3932846519166e-05,4020114.0029378,0.0089450380240266
6619200,0.50854969418312,0.0093235909695785,0.0030449372504055,0.0037690246607146,0.0025096290584584,-0.00072464666532694,0.00072464541827682,-2.3871541733433e-12,-1.2496956433416e-09,7.1612977634382e-09,-8.6732994852132e-09,-0.00078479996122053,0.00078480444695058,-0.00078480034221291,0.00078480394297075,-0.00078480508404113,0.00078479909437296,-0.00078480549084436,0.00078479870005071,-0.00068638544367187,0.0006863800683665,-0.00068638661908097,0.00068637889561858,-5.9088231726845e-09,9.7257599894142e-09,-1.8993943349216e-08,2.2542181279688e-08,-0.00095873201937811,0.00095873561027437,-0.0010179178048177,0.0010179024644736,-0.0010179041731405,0.0010179162684465,-0.0010179127134108,0.0010179076250248,-0.0010178990405746,0.0010179214714836,-0.0008573329817952,0.00085730094607033,-0.000857292685474,0.00085734222798366,-0.00091024156074739,0.00091024360474137,-0.00091022627807591,0.00091025925164628,-1.8902024236778e-09,-9.2181419160397e-10,-0.00056240791160299,0.0005624050438328,1.8874900077671e-08,-2.2490140021436e-08,-0.00062445750631816,0.00062446829900734,-0.00062447130759762,0.00062445454898915,-0.00062445718908151,0.00062446857575308,-0.00062447094803351,0.00062445487003113,-0.00059691046029229,0.00059689480614876,-0.00059691149834545,0.00059689382908362,0.74070666335853,128566,2924,0.0030147268575229,0.0039863547367282,0.0023415138958335,37.008926085123,5.6071408680982e-05,5.6071408680982e-05,5.6071408680982e-05,4029632.0643851,0.0093865181586926
6819200,0.53462549734938,0.009809603078557,0.0031996335309999,0.0039819390682082,0.0026280304793489,-0.00076172517544771,0.00076172390921744,5.9652400128873e-11,-1.3300150126796e-09,7.0847485086032e-09,-8.6173892670555e-09,-0.00082595728135211,0.00082596176282513,-0.0008259577228736,0.0008259612032659,-0.00082596237102367,0.00082595644526225,-0.00082596281563371,0.00082595601337637,-0.00072159162946842,0.00072158639246838,-0.00072159291642753,0.00072158510769,-5.8533820424906e-09,9.6422072720395e-09,-1.8225340165015e-08,2.1745987130138e-08,-0.0010137939887605,0.0010137975519075,-0.0010773543997922,0.0010773396019269,-0.0010773412837772,0.0010773528722812,-0.0010773493647339,0.0010773447067598,-0.0010773361853009,0.0010773580398937,-0.00090491811439016,0.00090488751134217,-0.00090487930291207,0.00090492726542309,-0.00096278605348641,0.0009627876573694,-0.00096277088121804,0.00096280319948508,-1.8182602806677e-09,-8.7193496811944e-10,-0.00058819285385469,0.00058819011040337,1.8167351126158e-08,-2.1640437042933e-08,-0.0006547889629555,0.00065479937786456,-0.00065480225829054,0.00065478613342483,-0.00065478866315253,0.00065479963700811,-0.00065480189609126,0.00065478645715677,-0.00062522694623699,0.00062521193621209,-0.00062522799228565,0.00062521095421603,0.79221450701463,128566,2924,0.0031687363003838,0.0042147707835702,0.0024488352838127,38.07388166864,6.4591053349117e-05,6.4591053349117e-05,6.4591053349117e-05,4070336.5076501,0.0098810012322906
7019200,0.561413700614,0.010270983587948,0.0033468585149623,0.0041871390636156,0.0027369860093698,-0.00079816151847356,0.00079816025796791,8.0316014430302e-11,-1.3450778669217e-09,7.003495999841e-09,-8.5291364294426e-09,-0.00086719866332538,0.00086720310822266,-0.00086719912167634,0.00086720253807657,-0.00086720369684992,0.00086719785007857,-0.00086720415987221,0.00086719740095482,-0.0007555013605905,0.00075549623325227,-0.0007555026957689,0.00075549490122268,-5.7857554963176e-09,9.5410467021019e-09,-1.7634054367479e-08,2.1122154743113e-08,-0.0010686121198758,0.0010686156503279,-0.0011370231332261,0.0011370087568298,-0.0011370104087724,0.0011370216216786,-0.0011370181539819,0.0011370138075026,-0.0011370053631369,0.0011370267308456,-0.00095148055498911,0.00095145106430896,-0.00095144291939286,0.0009514895929562,-0.0010138784643557,0.0010138798057221,-0.0010138634626701,0.0010138951698522,-1.8028063820485e-09,-7.7361039522518e-10,-0.00061285279937692,0.0006128501730218,1.7634443230511e-08,-2.0972176206116e-08,-0.00068475129719696,0.00068476140000742,-0.00068476419353971,0.00068474855456383,-0.00068475097103082,0.0006847616864085,-0.00068476380838993,0.00068474890183649,-0.00065156726003033,0.00065155283293839,-0.0006515683766011,0.00065155177978936,0.73335807088263,128566,2924,0.0033200533937528,0.0044421149882422,0.0025514866920696,39.158067166566,7.3264537332529e-05,7.3264537332529e-05,7.3264537332529e-05,4113528.6114675,0.010367212270088
7219200,0.58876173397136,0.010724258617578,0.0034917517547112,0.0043900274011692,0.002842479461698,-0.00083446948955331,0.00083446824967774,1.1800421460372e-10,-1.3626121915216e-09,6.9364874072807e-09,-8.4406452430523e-09,-0.00090879279259038,0.00090879722501068,-0.00090879327174059,0.00090879663979571,-0.00090879777615623,0.00090879202061819,-0.00090879825916764,0.0009087915518933,-0.00078874899500746,0.00078874399876084,-0.0007887503893384,0.00078874260778044,-5.7264871526307e-09,9.4447540534821e-09,-1.71700852268e-08,2.062229702804e-08,-0.0011233428103351,0.0011233463046345,-0.0011971457003365,0.001197131653356,-0.0011971332818027,0.0011971441948512,-0.0011971407696598,0.0011971366538297,-0.0011971282869871,0.0011971492509779,-0.00099741633762224,0.00099738771081057,-0.00099737963108302,0.00099742526652091,-0.0010643344253165,0.0010643355676817,-0.0010643195810114,0.0010643507737123,-1.7747156791469e-09,-6.8034282556676e-10,-0.00063710334134013,0.00063710083972437,1.7231248461393e-08,-2.0425540442512e-08,-0.0007145585952435,0.00071456848209114,-0.0007145711781886,0.00071455595025237,-0.00071455824851736,0.00071456879028325,-0.00071457077229509,0.00071455631892226,-0.00067719280997647,0.00067717888263991,-0.00067719399060471,0.00067717776468524,0.70718848252537,128566,2924,0.0034708136166454,0.0046690388114238,0.0026524395740316,40.242974025598,8.1943792204787e-05,8.1943792204787e-05,8.1943792204787e-05,4171142.020188,0.010850957864204
7419200,0.61567379851308,0.011155198579381,0.0036295907389598,0.0045840381514778,0.0029415696889431,-0.00086826429864186,0.00086826308126914,1.7552678175525e-10,-1.3976452154843e-09,6.9112133666812e-09,-8.3898421224057e-09,-0.00094821401349747,0.00094821847861343,-0.00094821452860746,0.00094821785932456,-0.00094821897888213,0.00094821329536195,-0.0009482194884074,0.0009482128003905,-0.00081920703013894,0.00081920215943326,-0.00081920850260555,0.0008192006889567,-5.7054574363682e-09,9.3879890329675e-09,-1.7389185442792e-08,2.0806935292174e-08,-0.0011752522732339,0.001175255733024,-0.001254702277474,0.0012546880916317,-0.0012546897277875,0.0012547007617612,-0.0012546973753426,0.0012546930614423,-0.0012546847524541,0.0012547057962178,-0.001040294188324,0.0010402650909412,-0.0010402570677469,0.0010403030538904,-0.001111881281783,0.0011118825856098,-0.0011118664950174,0.0011118977236365,-1.7868014620577e-09,-6.643308902907e-10,-0.00065908747031638,0.00065908497369577,1.7439470875312e-08,-2.062624386185e-08,-0.00074205747373436,0.00074206749607742,-0.00074207019808462,0.00074205482267171,-0.00074205712237518,0.00074206780910998,-0.00074206977802265,0.00074205520560578,-0.00070015011544792,0.00070013609811729,-0.00070015133789685,0.0007001349388694,0.6850144393597,128566,2924,0.0036111177610957,0.0048842102272946,0.0027439708934013,40.770923978659,8.6167391829273e-05,8.6167391829273e-05,8.6167391829273e-05,4218803.0875852,0.011302952611731
7619200,0.64141011872352,0.011558709443262,0.0037585699410482,0.004766327520634,0.0030338119815796,-0.00089918325290891,0.00089918204563423,1.9077021073153e-10,-1.4031677274239e-09,6.9103195861437e-09,-8.3771130767399e-09,-0.00098478035059793,0.00098478482459893,-0.00098478086677998,0.00098478419934885,-0.00098478530634267,0.00098477965057098,-0.00098478582920805,0.00098477914006421,-0.00084667530363672,0.00084667048425208,-0.00084667681047453,0.00084666897221782,-5.7140528354905e-09,9.365353680109e-09,-1.7968045003088e-08,2.1355294964633e-08,-0.0012236043828014,0.0012236078121621,-0.0013086376403883,0.0013086230514071,-0.0013086247186806,0.0013086361041069,-0.0013086327380273,0.0013086280216221,-0.0013086197506688,0.0013086411283623,-0.0010795744449718,0.0010795442229894,-0.001079536245831,0.0010795832867933,-0.0011562286856605,0.0011562303644948,-0.0011562139267298,0.0011562454663407,-1.8776382200295e-09,-6.5604994333045e-10,-0.00067871163013052,0.00067870904838883,1.7956171564784e-08,-2.1238959163525e-08,-0.00076691991306067,0.00076693019058756,-0.00076693300700826,0.00076691714725589,-0.00076691952480342,0.00076693054028073,-0.00076693256081499,0.00076691755636272,-0.00072053923725725,0.00072052484175673,-0.00072054053742969,0.00072052360457619,0.67223241130009,128566,2924,0.003739464283827,0.0050845878986834,0.0028256893937253,40.851751301629,8.6814010413034e-05,8.6814010413034e-05,8.6814010413034e-05,4248963.7826084,0.011718159762546
7819200,0.66593663947514,0.011939446245055,0.0038801882113301,0.0049385218060121,0.0031207362277128,-0.00092847189001615,0.00092847067617773,2.2015592946652e-10,-1.4391252842276e-09,6.9029615144571e-09,-8.3760037515702e-09,-0.001019238789149,0.0010192432738414,-0.0010192393220932,0.001019242624783,-0.0010192437411164,0.0010192381022793,-0.0010192442832577,0.0010192375689833,-0.00087256616348612,0.00087256140511687,-0.00087256773126923,0.00087255982463751,-5.72344162614e-09,9.3474609942477e-09,-1.8427537331795e-08,2.178783767428e-08,-0.0012695445417795,0.0012695479442352,-0.0013601726648474,0.0013601577557416,-0.0013601594509118,0.0013601711080998,-0.0013601677633575,0.0013601627233213,-0.0013601544863339,0.0013601761296461,-0.0011166932825101,0.0011166621552391,-0.001116654223403,0.0011167021101976,-0.0011977766990472,0.0011977786536397,-0.0011977619465936,0.0011977937476467,-1.9417394981213e-09,-6.6425588553241e-10,-0.00069696760570763,0.00069696494813656,1.8357663575567e-08,-2.1728087115674e-08,-0.00079021017667937,0.00079022065752809,-0.00079022356632817,0.00079020731822305,-0.00079020976891023,0.0007902210261532,-0.0007902231006332,0.00079020774662865,-0.00073945543953878,0.00073944073647681,-0.00073945680041589,0.00073943944037722,0.66655083646126,128566,2924,0.0038610285443219,0.0052749300154672,0.0029017170133747,40.921630401804,8.737304321443e-05,8.737304321443e-05,8.737304321443e-05,4261713.4188414,0.012110757689685
8019200,0.68924603199105,0.012297991440443,0.003994789291352,0.0051008667522932,0.003202335396798,-0.00095614122951734,0.00095614001027354,2.4760885138684e-10,-1.4714116816574e-09,6.891685255588e-09,-8.3701461036644e-09,-0.0010517223523741,0.0010517268456466,-0.0010517229014851,0.0010517261735851,-0.0010517272981546,0.0010517216792189,-0.0010517278585953,0.0010517211240103,-0.00089686490145383,0.00089686020427685,-0.00089686652603812,0.00089685856165936,-5.7273722275922e-09,9.3264584685075e-09,-1.878556087101e-08,2.2121219960562e-08,-0.0013129790565523,0.0013129824344461,-0.0014091121976376,0.0014090970397013,-0.0014090987567093,0.001409110624516,-0.0014091073003589,0.0014091020018541,-0.0014090937975446,0.0014091156406127,-0.0011516757376897,0.0011516439009955,-0.001151636010844,0.0011516845466609,-0.0012366130248639,0.0012366152003683,-0.0012365982892844,0.0012366302786235,-1.9985473470703e-09,-6.5994361972046e-10,-0.00071398808388699,0.00071398537076051,1.8669885682837e-08,-2.2105957808721e-08,-0.00081209593095376,0.00081210656772961,-0.00081210954951985,0.00081209299930698,-0.00081209550256946,0.00081210695640187,-0.00081210906340161,0.00081209344784208,-0.00075710522800263,0.00075709030268388,-0.00075710665051309,0.00075708894888755,0.660972492949,128566,2924,0.003975857159525,0.0054548542625372,0.0029726054869894,40.991096740227,8.7928773921813e-05,8.7928773921813e-05,8.7928773921813e-05,4269589.4287684,0.012480937526327
8219200,0.71148238590335,0.012637028096698,0.0041032574158612,0.0052544896908377,0.0032792809899992,-0.00098257990915348,0.00098257868750249,2.7285159224762e-10,-1.4981863565539e-09,6.8767108765744e-09,-8.3584865439442e-09,-0.0010827066886116,0.0010827111868572,-0.0010827072512446,0.0010827104964816,-0.0010827116235457,0.0010827060302247,-0.0010827122015286,0.0010827054547153,-0.00092003658427623,0.00092003195115187,-0.00092003826365484,0.00092003025234346,-5.7261563342664e-09,9.300581520207e-09,-1.8895591844463e-08,2.2206781387248e-08,-0.0013544132496675,0.0013544166032393,-0.0014559089108238,0.0014558936693692,-0.001455895402146,0.0014559073219048,-0.001455904019601,0.0014558986243093,-0.001455890452955,0.0014559123279034,-0.001184993708785,0.0011849616511195,-0.0011849537978081,0.0011850024882098,-0.0012733923008598,0.001273394547753,-0.0012733775993164,0.0012734095983086,-2.0383747084195e-09,-6.3078991442243e-10,-0.00073015819003806,0.00073015546458566,1.8760347733607e-08,-2.2213040967711e-08,-0.00083293143893124,0.00083294210642626,-0.0008329451217411,0.00083292847363682,-0.00083293098605737,0.00083294251899939,-0.00083294461394982,0.00083292894345334,-0.00077391214854793,0.00077389720907408,-0.00077391363699201,0.00077389579381653,0.65549139701244,128566,2924,0.0040855659388685,0.0056264594181059,0.0030399553039483,41.181507422082,8.9452059376655e-05,8.9452059376655e-05,8.9452059376655e-05,4277991.3062048,0.012834058064473
8419200,0.73269722092658,0.012959622990994,0.0042065943054196,0.0054005865770454,0.0033524421085289,-0.0010078307349912,0.0010078295160932,3.0473547340444e-10,-1.5268792741025e-09,6.8611734860821e-09,-8.3397611532567e-09,-0.00111226122812,0.0011122657371194,-0.0011122618087932,0.0011122650256784,-0.001112266150706,0.0011122605919048,-0.0011122667478543,0.0011122599951296,-0.00094223110157404,0.00094222654269398,-0.0009422328393004,0.00094222478276593,-5.7204921398918e-09,9.2717213541005e-09,-1.8854102063947e-08,2.2142396406107e-08,-0.001393932710218,0.0013939360409718,-0.0015006064137275,0.0015005911936371,-0.0015005929367243,0.0015006048114763,-0.0015006015319343,0.0015005961373373,-0.001500587998541,0.0015006098059375,-0.001216795087095,0.0012167630986637,-0.0012167552811467,0.001216803833748,-0.0013083878064815,0.0013083900293423,-0.0013083731395282,0.0013084050464354,-2.0626451122364e-09,-5.9451070488317e-10,-0.00074552886595815,0.00074552615177199,1.8713494102218e-08,-2.2156566657582e-08,-0.00085274557280981,0.00085275619748122,-0.00085275922111212,0.00085274259907498,-0.00085274509936073,0.00085275663041905,-0.00085275869304934,0.00085274308904478,-0.00078993248406402,0.00078991765000321,-0.00078993403287909,0.00078991617594242,0.6538093519965,128566,2924,0.0041903339059318,0.0057901043668232,0.003103977746934,41.430826498129,9.1446611985034e-05,9.1446611985034e-05,9.1446611985034e-05,4285309.6688958,0.013170859489872
8619200,0.75287515772115,0.013265890771416,0.0043048112247427,0.0055392016993179,0.0034218778473551,-0.0010317719293197,0.0010317707171344,3.3840619694136e-10,-1.5536733702853e-09,6.8472288935891e-09,-8.3185570904969e-09,-0.0011403074965175,0.0011403120208183,-0.0011403080964309,0.0011403112885605,-0.0011403124079675,0.0011403068871917,-0.0011403130245537,0.0011403062696165,-0.00096335905104278,0.00096335457040316,-0.00096336084707179,0.00096335274941963,-5.7136643001247e-09,9.2429596439863e-09,-1.876658650137e-08,2.2033207350581e-08,-0.0014314263364626,0.0014314296456361,-0.0015430729257712,0.0015430577590011,-0.0015430595102331,0.0015430713111463,-0.0015430680539903,0.0015430626908748,-0.0015430545828686,0.0015430762937498,-0.0012469878903033,0.0012469560612914,-0.0012469482759767,0.0012469966026947,-0.0013415342035238,0.0013415363737285,-0.001341519571179,0.0013415513563984,-2.0822763682264e-09,-5.5364793265077e-10,-0.00076002908436268,0.00076002639128819,1.8627203608687e-08,-2.2048927311538e-08,-0.00087145624657607,0.00087146680816561,-0.00087146983077077,0.00087145327383967,-0.00087145575295307,0.00087146726126293,-0.00087146928231828,0.00087145378406111,-0.00080505337524761,0.0008050386861041,-0.0008050549839717,0.00080503715300279,0.65260875524705,128566,2924,0.0042896575182848,0.0059453328620914,0.0031643773816091,41.681604034527,9.3452832276214e-05,9.3452832276214e-05,9.3452832276214e-05,4291869.7227473,0.013490052855442
8819200,0.77200744043271,0.013545498800588,0.004394445232395,0.0056666302767888,0.0034844232914037,-0.0010538944335426,0.0010538932310574,3.7304578397575e-10,-1.5786384249219e-09,6.8387284929102e-09,-8.2991425962434e-09,-0.0011664809017036,0.0011664854461248,-0.0011664815209635,0.0011664846937071,-0.0011664858042299,0.0011664803217942,-0.0011664864402867,0.0011664796837474,-0.00098251690766463,0.00098251250469509,-0.00098251876111861,0.00098251062347441,-5.7096994776591e-09,9.2184286889196e-09,-1.8642676359328e-08,2.1889004216064e-08,-0.0014664480830338,0.001466451371908,-0.001582972304361,0.0015829572132971,-0.0015829589733143,0.0015829706758416,-0.0015829674400555,0.0015829621357718,-0.0015829540544279,0.0015829756487224,-0.0012749958195383,0.0012749642242377,-0.0012749564660894,0.0012750045001249,-0.0013720747332255,0.0013720768219069,-0.0013720601270551,0.0013720917747662,-2.0990747820813e-09,-5.0903927239818e-10,-0.00077321990039699,0.00077321723530835,1.8509625663936e-08,-2.1901854437576e-08,-0.00088872490257383,0.00088873538386345,-0.00088873839916769,0.00088872193711765,-0.00088872438846311,0.00088873585752103,-0.00088873783031408,0.00088872246775767,-0.00081871443462912,0.00081869992066307,-0.00081871610329384,0.00081869832831321,0.62941992842715,128566,2924,0.0043814270592183,0.006090301715286,0.0032193303913506,41.932436692699,9.5459493541595e-05,9.5459493541595e-05,9.5459493541595e-05,4306349.2099459,0.013785768951061
9019200,0.78969346256465,0.013804112722159,0.0044774027408906,0.0057843257779049,0.0035423842033639,-0.001073436186444,0.0010734349956362,3.9682382596995e-10,-1.5912265763e-09,6.8310043950819e-09,-8.2781393527604e-09,-0.0011896832375783,0.0011896877909252,-0.0011896838623811,0.0011896870301552,-0.0011896881252836,0.0011896826814172,-0.0011896887781002,0.0011896820242671,-0.00099927548668017,0.00099927115469844,-0.00099927738947273,0.00099926921993185,-5.7042427295943e-09,9.193737137406e-09,-1.8710913960716e-08,2.1938205063953e-08,-0.0014978980780889,0.001497901348032,-0.0016190718609717,0.0016190567150028,-0.0016190584834596,0.0016190702221969,-0.001619066999208,0.0016190616328507,-0.0016190535790964,0.0016190751793374,-0.0012998405363275,0.0012998088149731,-0.0012998010890914,0.0012998491921782,-0.0013994218938937,0.0013994240491741,-0.0013994073324064,0.0013994389529855,-2.1347563221266e-09,-4.6048063326831e-10,-0.00078454451305084,0.00078454186000716,1.8575516870357e-08,-2.195773328356e-08,-0.00090369264208918,0.00090370314388339,-0.00090370617409809,0.00090368966172452,-0.00090369209496064,0.00090370365086699,-0.00090370558305011,0.00090369021476501,-0.00083059632278523,0.00083058184971902,-0.0008305980581482,0.00083058018849248,0.6297753025224,128566,2924,0.0044624840312311,0.0062204659833696,0.0032665182344689,41.750042598712,9.4000340789698e-05,9.4000340789698e-05,9.4000340789698e-05,4309236.6254715,0.014047818397045
9219200,0.8059269062628,0.014038835813325,0.0045526844879905,0.0058912537214589,0.003594897603876,-0.0010909084712945,0.001090907290439,4.3757609797006e-10,-1.6222152265078e-09,6.8316414283526e-09,-8.2677174174963e-09,-0.0012105337101098,0.0012105382946335,-0.0012105343584991,0.0012105375084288,-0.0012105385963589,0.0012105331866099,-0.0012105392697311,0.0012105325072102,-0.0010143601867536,0.0010143559301865,-0.0010143621503528,0.001014353930838,-5.7077169940461e-09,9.1803161864068e-09,-1.8775077214749e-08,2.198553269095e-08,-0.0015262917737993,0.0015262950269922,-0.0016518543474808,0.0016518391518691,-0.0016518409333977,0.0016518526940503,-0.0016518494892848,0.0016518440640295,-0.0016518360295993,0.0016518576499906,-0.001321976664454,0.0013219448073564,-0.0013219371033874,0.0013219853024432,-0.001423923425413,0.0014239256026798,-0.0014239088647908,0.0014239405034343,-2.1553886807708e-09,-4.3199376879039e-10,-0.00079451263371019,0.00079450998798442,1.8634513469052e-08,-2.2011001592562e-08,-0.00091700073006118,0.00091701126200649,-0.00091701430164984,0.00091699774020519,-0.00091700016766948,0.00091701178440501,-0.00091701369152087,0.00091699831233181,-0.00084091501369308,0.00084090056748078,-0.00084091680555527,0.00084089884953699,0.62300580410275,128566,2924,0.0045349515060131,0.0063379652248271,0.0033080598273882,41.452196639704,9.1617573117631e-05,9.1617573117631e-05,9.1617573117631e-05,4309628.250347,0.014282648819868
9419200,0.82081702621588,0.014251706770971,0.0046209356467224,0.0059883183433625,0.0036424527808864,-0.0011066779278964,0.0011066767565481,4.7293700324992e-10,-1.6481547876526e-09,6.8378568502993e-09,-8.2633754361409e-09,-0.0012294102068977,0.0012294148220084,-0.0012294108751189,0.0012294140144864,-0.0012294150942655,0.0012294097128673,-0.0012294157868809,0.0012294090128534,-0.0010280213491466,0.0010280171601059,-0.0010280233704056,0.0010280151002421,-5.7158171757088e-09,9.1735477226494e-09,-1.8797331372312e-08,2.1992936945402e-08,-0.0015520777160531,0.0015520809544647,-0.0016817201233027,0.0016817049014674,-0.0016817066976862,0.0016817184533836,-0.0016817152632948,0.0016817098139059,-0.0016817017926447,0.0016817234097899,-0.0013420304688742,0.0013419985668989,-0.0013419908770697,0.0013420390928111,-0.0014460308750161,0.0014460330448461,-0.001446016310378,0.0014460479461421,-2.1796560926533e-09,-3.9671312618171e-10,-0.00080342806455362,0.00080342542954605,1.8655132605181e-08,-2.2021570703675e-08,-0.00092896888764478,0.00092897942193408,-0.00092898247040567,0.00092896588893261,-0.00092896830589496,0.00092897996386649,-0.00092898183999098,0.00092896648143575,-0.00085006041886479,0.00085004603234209,-0.00085006226999472,0.00085004425558591,0.61620824215933,128566,2924,0.0046003522260048,0.0064446598561893,0.0033452171995739,41.151426570006,8.9211412560046e-05,8.9211412560046e-05,8.9211412560046e-05,4310445.9882706,0.014494953570396
9619200,0.83447010008008,0.014444655634146,0.0046827768463986,0.0060763878220063,0.0036854909657409,-0.0011208989927706,0.0011208978302895,5.0737535367093e-10,-1.6737037404335e-09,6.8471495653434e-09,-8.2635882512278e-09,-0.0012464907495844,0.0012464953968853,-0.0012464914372205,0.0012464945687338,-0.0012464956403248,0.0012464902844015,-0.0012464963522283,0.0012464895639118,-0.0010403656747849,0.0010403615504784,-0.0010403677540349,0.0010403594311435,-5.7266552595539e-09,9.1715532180507e-09,-1.878623974086e-08,2.1968960540924e-08,-0.0015754791249219,0.0015754823505247,-0.001708929915486,0.001708914688317,-0.0017089164996399,0.0017089282284322,-0.0017089250513939,0.0017089196036701,-0.0017089115908472,0.0017089331878109,-0.0013601513068715,0.0013601194293771,-0.0013601117484665,0.0013601599205136,-0.0014660090888671,0.0014660112251648,-0.0014659945158638,0.0014660261361205,-2.2029885852403e-09,-3.593399310602e-10,-0.00081139302900427,0.00081139040786658,1.8645640024202e-08,-2.1997920523402e-08,-0.00093972451027761,0.00093973502761681,-0.00093973808234378,0.0009397215053206,-0.00093972390825137,0.00093973558986659,-0.00093973743167668,0.00093972211806002,-0.00085817525209589,0.00085816094967348,-0.0008581771626931,0.00085815911405904,0.60938040739314,128566,2924,0.0046593278586551,0.0065414771634271,0.0033784160861674,40.850545546516,8.6804364372128e-05,8.6804364372128e-05,8.6804364372128e-05,4311381.8681007,0.014686742506409
9819200,0.84675127927457,0.01461908858199,0.0047386911237066,0.0061558117707837,0.0037245856874993,-0.0011328776374938,0.0011328764834261,5.3746781476028e-10,-1.6957472802117e-09,6.8587491224812e-09,-8.2653315032079e-09,-0.0012610121604312,0.0012610168357548,-0.0012610128625866,0.0012610159914385,-0.0012610170534903,0.0012610117208066,-0.0012610177843609,0.0012610109799916,-0.0010506232670452,0.0010506192037049,-0.0010506254020051,0.0010506170248542,-5.7388510965677e-09,9.1726154623057e-09,-1.8864722409327e-08,2.2036275497498e-08,-0.001595700687317,0.0015957039018795,-0.0017326360109895,0.0017326207169229,-0.0017326225439074,0.0017326343080363,-0.0017326311390267,0.0017326256388034,-0.0017326176320504,0.0017326392694859,-0.001375625985835,0.0013755939654397,-0.0013755862939816,0.0013756345965864,-0.0014832168198144,0.001483218987016,-0.0014832022382174,0.0014832339020376,-2.2353379840013e-09,-3.234430526443e-10,-0.0008178576602388,0.00081785504186094,1.8719210557349e-08,-2.2070946190089e-08,-0.0009486236334877,0.0009486341782962,-0.00094863725235487,0.00094862060923885,-0.00094862300668927,0.00094863476558082,-0.0009486365812745,0.00094862124250363,-0.00086485104426098,0.00086483675823326,-0.00086485301503108,0.00086483486148443,0.61213711322158,128566,2924,0.0047090015111767,0.006625129884952,0.0034053709201666,40.184271957452,8.1474175659615e-05,8.1474175659615e-05,8.1474175659615e-05,4303893.9874077,0.014849426282443
10019200,0.85778990793189,0.014776897073938,0.0047892692088932,0.0062274562626896,0.0037601716023555,-0.0011434283011097,0.0011434271538587,5.7244625502934e-10,-1.7242507085035e-09,6.8756040400419e-09,-8.2741625345436e-09,-0.0012738357708966,0.0012738404828782,-0.0012738364937887,0.0012738396162837,-0.0012738406730497,0.0012738353586402,-0.0012738414236629,0.0012738345968008,-0.0010596048129749,0.0010596008072136,-0.001059607006208,0.0010595985670995,-5.7558399715693e-09,9.180618408233e-09,-1.8902594195958e-08,2.2065071959139e-08,-0.0016136465377983,0.0016136497433087,-0.0017537205322182,0.0017537051985376,-0.0017537070429084,0.0017537188112588,-0.0017537156516807,0.0017537101278266,-0.0017537021212382,0.0017537237818317,-0.0013893847150377,0.0013893526261724,-0.0013893449570541,0.0013893933271091,-0.0014985049764519,0.0014985071291154,-0.0014984903651004,0.0014985220692581,-2.2607240008821e-09,-2.9182434073555e-10,-0.00082351799736172,0.00082351538455225,1.8755585785611e-08,-2.2102856730788e-08,-0.00095644964219251,0.00095646019730802,-0.00095646328463301,0.00095644660465719,-0.00095644899692278,0.00095646080323199,-0.00095646259373757,0.0009564472578085,-0.00087080358256841,0.00087078933848472,-0.00087080561178886,0.00087078738315857,0.61574677205311,128566,2924,0.0047527518131891,0.0066993614500309,0.0034289753133444,39.480105427594,7.5840843420753e-05,7.5840843420753e-05,7.5840843420753e-05,4292741.9463023,0.014993157103717
10219200,0.86772534352804,0.014920039007887,0.0048351398614559,0.0062922437581625,0.0037926553882687,-0.0011527773864307,0.0011527762449554,6.0607267221942e-10,-1.7518772359043e-09,6.8933909101579e-09,-8.2865184056685e-09,-0.0012852396910888,0.0012852444398102,-0.0012852404342629,0.0012852435519582,-0.0012852446037366,0.0012852393049562,-0.0012852453737334,0.0012852385228548,-0.0010675737493604,0.0010675697991169,-0.0010675760012503,0.0010675675001381,-5.7742344347487e-09,9.1916256960856e-09,-1.8894367205404e-08,2.2049212026061e-08,-0.0016296585024109,0.0016296617003554,-0.0017725303559584,0.0017725150123413,-0.0017725168736791,0.0017725286166124,-0.0017725254650593,0.0017725199510825,-0.0017725119413517,0.0017725335973801,-0.0014017147271852,0.0014016826626534,-0.0014016749896806,0.0014017233402243,-0.001512182362732,0.0015121844693236,-0.0015121677224615,0.001512199441651,-2.2853397430535e-09,-2.5726905435561e-10,-0.00082853869727138,0.00082853609435541,1.8749506546592e-08,-2.2086269343443e-08,-0.00096341046183688,0.00096342100024867,-0.00096342409750104,0.00096340741442968,-0.00096340979722195,0.00096342162549516,-0.00096342338624169,0.00096340808780885,-0.00087615575135008,0.00087614158332509,-0.00087615784082683,0.00087613956957598,0.62007023125114,128566,2924,0.0047915182089556,0.0067655875477958,0.0034499148368069,38.77490803866,7.0199264309276e-05,7.0199264309276e-05,7.0199264309276e-05,4279415.984576,0.015121014062979
10419200,0.8766955584638,0.015050421979572,0.0048769153213638,0.0063510689419859,0.0038224377162218,-0.0011611527292089,0.0011611515926435,6.3814854317652e-10,-1.7783241079152e-09,6.9107085454671e-09,-8.3008614990262e-09,-0.0012954711731603,0.0012954759571784,-0.0012954719353591,0.0012954750501232,-0.0012954760961033,0.0012954708121082,-0.0012954768858826,0.0012954700100243,-0.0010747659997258,0.0010747621047838,-0.0010747683117569,0.0010747597487215,-5.7930404709431e-09,9.2045368354238e-09,-1.8839127447294e-08,2.1987761229105e-08,-0.001644061445037,0.0016440646368139,-0.0017894144868831,0.0017893991638013,-0.0017894010409897,0.0017894127293208,-0.0017894095843947,0.001789404113778,-0.0017893960982031,0.0017894177203386,-0.0014128188464697,0.0014127869021052,-0.0014127792200376,0.0014128274595104,-0.0015245325204234,0.0015245345525328,-0.001524517856532,0.0015245495614974,-2.3090213876286e-09,-2.1903068681801e-10,-0.00083306144064261,0.00083305885281309,1.8700441231651e-08,-2.2019484699302e-08,-0.00096968548331633,0.00096969597689293,-0.00096969908036969,0.0009696824298488,-0.00096968479753889,0.0009696966230729,-0.00096969834870174,0.00096968312329443,-0.00088101876878875,0.00088100471151413,-0.00088102091959176,0.00088100264027736,0.62506142991417,128566,2924,0.0048262457800752,0.006825153531252,0.003468779349092,38.099856604884,6.4798852839071e-05,6.4798852839071e-05,6.4798852839071e-05,4264137.7922183,0.015235915572325
10619200,0.88507012095452,0.015169921024549,0.004915160435086,0.0064051143142525,0.0038496462752109,-0.0011699240219234,0.0011699228909524,6.7577560256701e-10,-1.8100847929708e-09,6.9328547953629e-09,-8.3163204346487e-09,-0.0013060248839137,0.0013060297112131,-0.0013060256720527,0.001306028778591,-0.0013060298222782,0.0013060245510679,-0.0013060306318952,0.0013060237284272,-0.0010824334858726,0.0010824296441864,-0.00108243585693,0.0010824272269917,-5.8112976109059e-09,9.2175173487016e-09,-1.8556713116505e-08,2.169984425483e-08,-0.0016584950210951,0.0016584982073971,-0.0018061468299388,0.0018061316814123,-0.0018061335719721,0.0018061450532347,-0.0018061419189434,0.0018061366389713,-0.0018061286153464,0.0018061500575792,-0.0014241140863708,0.0014240826972077,-0.0014240750050266,0.0014241226986351,-0.0015370126409035,0.0015370144382732,-0.0015369979348165,0.0015370294843485,-2.3154581968488e-09,-1.7439295282722e-10,-0.00083817036912796,0.00083816782006487,1.8440286096359e-08,-2.1716172780492e-08,-0.00097650797918386,0.00097651830917945,-0.00097652139200575,0.00097650494648277,-0.00097650727906196,0.00097651896984463,-0.00097652064038129,0.00097650565981675,-0.00088642644322898,0.00088641266900197,-0.00088642865255671,0.00088641054057325,0.61395112736146,128566,2924,0.0048626132164094,0.0068848426470325,0.0034900766563396,38.029498611536,6.4235988892292e-05,6.4235988892292e-05,6.4235988892292e-05,4258673.242923,0.015355090586449
10819200,0.89289082568175,0.015279631028346,0.0049502467038832,0.0064548584790161,0.0038745258454472,-0.0011780099846923,0.0011780088602404,7.0548356757892e-10,-1.8332097634073e-09,6.9483004016904e-09,-8.3251918879848e-09,-0.0013157803204417,0.0013157851785817,-0.0013157811252962,0.0013157842307123,-0.0013157852655386,0.0013157800124137,-0.0013157860949072,0.0013157791701238,-0.0010894578944779,0.0010894541100249,-0.0010894603241765,0.0010894516346729,-5.8274477838233e-09,9.2292326813944e-09,-1.8303372327069e-08,2.1441758360941e-08,-0.0016718711424673,0.0016718743241425,-0.0018217001532951,0.0018216851569572,-0.0018216870587218,0.0018216983595942,-0.0018216952301844,0.0018216901259599,-0.0018216820944148,0.0018217033708692,-0.0014345283903951,0.0014344975142602,-0.0014344898119057,0.0014345370019323,-0.0015485309751569,0.0015485325778455,-0.0015485162494372,0.0015485476452907,-2.3309603723544e-09,-1.2232288870657e-10,-0.00084286182297512,0.00084285931136097,1.8205173213955e-08,-2.1438821924736e-08,-0.00098278131915888,0.00098279149099752,-0.00098279456001276,0.00098277830047365,-0.0009827805947577,0.00098279217605686,-0.00098279378802135,0.00098277903403924,-0.00089134787863881,0.00089133437029878,-0.00089135014764628,0.00089133218295968,0.60386754127947,128566,2924,0.0048961378301978,0.0069401551769863,0.0035096345619612,37.973676190538,6.3789409524306e-05,6.3789409524306e-05,6.3789409524306e-05,4257079.3857845,0.015465181457203
11019200,0.900190990849,0.015380168006913,0.0049823750729399,0.0065005688099593,0.0038972241240137,-0.0011854317691266,0.0011854306510166,7.3849812372748e-10,-1.8602403360888e-09,6.9655835834272e-09,-8.3347965538042e-09,-0.0013247571964823,0.0013247620896732,-0.0013247580219155,0.0013247611223217,-0.0013247621507545,0.0013247569146999,-0.0013247630001444,0.0013247560523505,-0.0010958670941938,0.0010958633648014,-0.0010958695819503,0.0010958608301566,-5.8426331828021e-09,9.2402962911146e-09,-1.8095631421176e-08,2.1229713419122e-08,-0.0016842235127631,0.0016842266901932,-0.0018361334570229,0.0018361185858724,-0.0018361204981639,0.0018361316473902,-0.0018361285246264,0.0018361235633034,-0.0018361155243931,0.0018361366675467,-0.0014440921666498,0.0014440617069791,-0.0014440539957674,0.001444100778722,-0.0015591076934615,0.0015591091261547,-0.0015590929384486,0.0015591242168482,-2.3452315446317e-09,-7.6245687051285e-11,-0.00084713224944199,0.00084712977033793,1.8014530112971e-08,-2.1212067457516e-08,-0.00098850677846955,0.00098851682325997,-0.00098851988084312,0.00098850377123229,-0.00098850603402752,0.0009885175285807,-0.00098851908878383,0.00098850452497345,-0.00089578350900964,0.00089577023071792,-0.00089578583658114,0.00089576798360567,0.59320720055937,128566,2924,0.0049269078350508,0.0069912315654156,0.003527437944299,37.918398695297,6.3347189562379e-05,6.3347189562379e-05,6.3347189562379e-05,4258101.5456768,0.015566401958816
11219200,0.90699314962137,0.015473772928385,0.0050122865209187,0.0065430842747996,0.003918402132667,-0.0011922642813945,0.0011922631689336,7.7104293534039e-10,-1.8873733947067e-09,6.9824852271413e-09,-8.3451948824953e-09,-0.0013330074195023,0.0013330123470352,-0.0013330082652005,0.001333011360345,-0.0013330123829392,0.0013330071631801,-0.0013330132523236,0.0013330062808634,-0.0011017618080499,0.0011017581334591,-0.0011017643543981,0.0011017555399696,-5.8579695711095e-09,9.252330094549e-09,-1.7973058367228e-08,2.1103561755263e-08,-0.00169561548114,0.0016956186551072,-0.0018495004990551,0.0018494856967305,-0.0018494876199001,0.0018494986747461,-0.0018494955566627,0.0018494906833328,-0.0018494826366923,0.001849503703792,-0.0014528887809617,0.0014528585710056,-0.0014528508515845,0.001452897395681,-0.0015688795870628,0.0015688809076839,-0.0015688648040923,0.0015688960225964,-2.3644709705239e-09,-3.4714268353115e-11,-0.00085104261071736,0.00085104015456506,1.7903491523447e-08,-2.1075466018096e-08,-0.00099373168266107,0.00099374164724892,-0.00099374470283079,0.00099372867747691,-0.00099373091796849,0.00099374237295847,-0.000993743890676,0.00099372945131238,-0.00089983887745057,0.00089982576294464,-0.00089984126390713,0.00089982345660455,0.59263236584807,128566,2924,0.0049552340315953,0.0070383348800955,0.0035437399775379,37.837604659889,6.2700837279112e-05,6.2700837279112e-05,6.2700837279112e-05,4259686.3089428,0.01565958835104
11419200,0.91328739427928,0.01556096602608,0.0050401571626075,0.0065825901854051,0.0039382186780672,-0.001198342784356,0.0011983416768302,8.0334002614967e-10,-1.9148464014998e-09,6.9992524487194e-09,-8.3566824363231e-09,-0.0013403854658664,0.0013403904272471,-0.0013403863312507,0.001340389421164,-0.0013403904383717,0.001340385234368,-0.0013403913280302,0.0013403843316999,-0.0011070012860104,0.0011069976665613,-0.0011070038918852,0.0011069950131808,-5.8736102827671e-09,9.2653367657336e-09,-1.7969529065104e-08,2.1097127119836e-08,-0.0017058996035237,0.0017059027746439,-0.0018616215699152,0.0018616067574261,-0.0018616086922565,0.0018616197320816,-0.0018616166169535,0.0018616117539509,-0.001861603699553,0.0018616247702323,-0.0014607849134823,0.0014607547211178,-0.0014607469936825,0.0014607935335132,-0.0015777191147952,0.0015777204023003,-0.0015777043044745,0.0015777355437277,-2.3903002007123e-09,-1.4941489319816e-14,-0.00085445113139825,0.00085444868444559,1.7903632619284e-08,-2.1065444103818e-08,-0.00099833988438978,0.00099834983414505,-0.00099835290107192,0.00099833686789997,-0.00099833909915886,0.0009983505804671,-0.00099835206915595,0.00099833766147444,-0.00090339918695903,0.00090338614257392,-0.00090340163147835,0.00090338377829502,0.59626238435378,128566,2924,0.0049804339201274,0.0070808551606395,0.0035579527403086,37.630572555005,6.104458044004e-05,6.104458044004e-05,6.104458044004e-05,4257497.7370028,0.015742828347462
11619200,0.91911190370581,0.015642024134617,0.0050660708794827,0.006619242288692,0.0039567109664422,-0.001203934365572,0.0012039332625319,8.3561857660255e-10,-1.9426808682565e-09,7.0161905417612e-09,-8.3686528474588e-09,-0.0013471846019112,0.0013471895976376,-0.0013471854876274,0.0013471885710665,-0.0013471895843779,0.0013471843947177,-0.0013471904935483,0.0013471834722852,-0.0011118508561383,0.0011118472891155,-0.001111853519264,0.0011118445778154,-5.8884137049445e-09,9.277844121113e-09,-1.8001579697391e-08,2.112664582806e-08,-0.0017153867991244,0.0017153899677807,-0.001872790135703,0.0018727752910651,-0.0018727772372298,0.0018727882856346,-0.0018727851734289,0.0018727802962377,-0.0018727722346048,0.0018727933332788,-0.0014680745005902,0.0014680442532252,-0.0014680365189259,0.001468083127188,-0.0015858951586061,0.001585896435932,-0.0015858803194073,0.0015859116048459,-2.4186385840989e-09,3.1849158287429e-11,-0.00085759122529257,0.0008575887818959,1.7937448412734e-08,-2.1095637671291e-08,-0.0010026127495354,0.0010026227042797,-0.0010026257877453,0.0010026097166326,-0.0010026119448693,0.0010026234701995,-0.0010026249355597,0.0010026105304468,-0.00090670181437437,0.00090668881252217,-0.00090670431913983,0.00090668638832043,0.59873359393215,128566,2924,0.005003614697717,0.0071200783570408,0.0035710471472009,37.420500469717,5.9364003757735e-05,5.9364003757735e-05,5.9364003757735e-05,4252958.9220753,0.015819537213809
11819200,0.92450308489217,0.01571752698996,0.0050902128566749,0.0066533046961848,0.0039740094371001,-0.0012090866919261,0.0012090855687521,8.5563153943351e-10,-1.9825417693155e-09,7.008960386564e-09,-8.3828874763654e-09,-0.0013534575809126,0.0013534625788792,-0.0013534584864119,0.0013534615321597,-0.0013534625654996,0.0013534573737708,-0.0013534634944092,0.001353456431194,-0.0011163524910881,0.0011163489611575,-0.0011163552125431,0.0011163461907161,-5.8937042242051e-09,9.2803091989831e-09,-1.8047343678568e-08,2.1169433365107e-08,-0.0017241489682053,0.0017241521339495,-0.0018830798131483,0.0018830649337419,-0.0018830668847818,0.0018830779578159,-0.001883074849114,0.0018830699417054,-0.0018830618806001,0.0018830830081132,-0.0014748211732415,0.0014747908381756,-0.0014747831048104,0.0014748297993261,-0.001593465237156,0.001593466532981,-0.0015934503915284,0.0015934817114038,-2.4481619148505e-09,6.2736682853763e-11,-0.00086049465533693,0.00086049221318649,1.7982602329372e-08,-2.1139743902532e-08,-0.0010065730134249,0.0010065829791696,-0.0010065860814207,0.0010065699616093,-0.0010065721884665,0.0010065837650947,-0.0010065852090712,0.0010065707955149,-0.00090977729894139,0.00090976432784531,-0.00090977986324573,0.00090976184513693,0.60218092529197,128566,2924,0.0050249740386233,0.0071563020942033,0.0035831554087688,37.210314387705,5.7682515101636e-05,5.7682515101636e-05,5.7682515101636e-05,4246858.5307429,0.015890351035793
12019200,0.92950199989611,0.015789643924971,0.0051132954750499,0.006685616188183,0.0039907322617382,-0.0012139811533352,0.00121398003021,8.8575623783582e-10,-2.0122517728387e-09,6.9964874738492e-09,-8.3713091265466e-09,-0.0013593720930826,0.0013593771034109,-0.0013593730184725,0.0013593760366392,-0.0013593770697268,0.0013593719062495,-0.001359378018497,0.001359370943637,-0.0011207126878221,0.0011207092256446,-0.0011207154682768,0.0011207063968193,-5.8836460942976e-09,9.2661698700475e-09,-1.8095009846988e-08,2.1213056812676e-08,-0.0017323841841927,0.0017323873459042,-0.0018926821516251,0.0018926672456324,-0.0018926691925791,0.0018926803000249,-0.0018926771954623,0.0018926722456581,-0.001892664196374,0.0018926853423844,-0.0014812227611439,0.0014811923243899,-0.0014811846018705,0.0014812313739014,-0.0016006709742897,0.0016006723204028,-0.0016006561553585,0.0016006874779524,-2.4782703368916e-09,9.3059405740577e-11,-0.00086331159668224,0.00086330915494729,1.802902656582e-08,-2.1185454643968e-08,-0.0010103727099723,0.0010103826860079,-0.0010103858083823,0.00101036963805,-0.0010103718648428,0.0010103834918447,-0.001010384915878,0.0010103704918022,-0.00091281531315242,0.00091280237025325,-0.00091281793741873,0.00091279982936279,0.61929850550817,128566,2924,0.0050452641843704,0.0071903457862396,0.0035949019696018,37.027951666579,5.6223613332633e-05,5.6223613332633e-05,5.6223613332633e-05,4238371.3072188,0.015957498958893
12219200,0.93415515832071,0.015858903535996,0.0051354866979813,0.006716439148031,0.0040069776899833,-0.0012187524210217,0.0012187513025552,9.1789912454711e-10,-2.0397031433166e-09,6.9748917350217e-09,-8.3443676242381e-09,-0.0013651052804407,0.0013651102991676,-0.0013651062256374,0.001365109212054,-0.0013651102412022,0.0013651051179662,-0.0013651112094154,0.0013651041353811,-0.0011250693465066,0.0011250659629554,-0.0011250721840432,0.0011250630752416,-5.8603437296982e-09,9.2372548661457e-09,-1.8124007398074e-08,2.1236665966609e-08,-0.001740297994074,0.0017403011504184,-0.0019017896247032,0.0019017747131068,-0.0019017766481334,0.0019017877849049,-0.0019017846855381,0.0019017796955287,-0.0019017716687342,0.0019017928100409,-0.0014874761679605,0.0014874456563354,-0.001487437957291,0.0014874847588881,-0.0016077011405161,0.0016077025495689,-0.0016076863715447,0.0016077176550187,-2.5081382579582e-09,1.2386218800511e-10,-0.00086613813600391,0.00086613569491099,1.8057450406021e-08,-2.1213729913003e-08,-0.0010141606181899,0.0010141705939506,-0.0010141737357234,0.0010141575268609,-0.0010141597530803,0.0010141714198817,-0.0010141728228742,0.001014158401004,-0.00091592261498577,0.00091590971408337,-0.00091592529907676,0.00091590711367538,0.63789981266876,128566,2924,0.0050650435645368,0.007223058409262,0.0036066882065315,36.914290729803,5.5314325838425e-05,5.5314325838425e-05,5.5314325838425e-05,4225599.5507387,0.016022818849842
12419200,0.93848694784523,0.015921328511812,0.0051554626538079,0.0067443879185943,0.0040214779394102,-0.0012230802188755,0.0012230791064841,9.5097960231416e-10,-2.0668325088343e-09,6.9485414470527e-09,-8.311385880043e-09,-0.0013703995678586,0.0013704045928108,-0.0013704005327322,0.0013704034856163,-0.001370404508919,0.0013703994314633,-0.001370405497126,0.0013703984284526,-0.001129010864351,0.0011290075658015,-0.0011290137608196,0.001129004618111,-5.8353161213921e-09,9.2061684552848e-09,-1.8151385697627e-08,2.1258234922751e-08,-0.0017476349179441,0.0017476380685201,-0.0019102130622162,0.0019101981468569,-0.0019102000690514,0.0019102112351785,-0.0019102081410217,0.0019102031106736,-0.0019101951080233,0.0019102162412866,-0.0014932630751031,0.0014932324916306,-0.0014932248174756,0.0014932716423106,-0.0016141441022894,0.0016141455775952,-0.001614129388425,0.0016141606264233,-2.537429713696e-09,1.5459825386476e-10,-0.00086866534605454,0.00086866290614133,1.8080980299875e-08,-2.1236448062824e-08,-0.0010176720069568,0.0010176819792991,-0.0010176851398828,0.001017668896878,-0.0010176711217249,0.0010176828255215,-0.001017684207207,0.0010176697908766,-0.00091867143306581,0.00091865857664215,-0.00091867417526176,0.00091865591791942,0.61826606628778,128566,2924,0.0050829845844775,0.0072533830202658,0.0036172309708703,36.802287474608,5.4418299796865e-05,5.4418299796865e-05,5.4418299796865e-05,4211269.1072734,0.016082586323873
12619200,0.94251974930645,0.015976425582618,0.0051730541378477,0.0067693047855156,0.0040340666592542,-0.0012269226234838,0.0012269215177297,9.8416239052188e-10,-2.0935549762583e-09,6.9240612767581e-09,-8.2796239630537e-09,-0.0013751404312676,0.0013751454640855,-0.0013751414159436,0.0013751443367356,-0.0013751453537406,0.0013751403213642,-0.0013751463617741,0.0013751392982658,-0.0011324207465673,0.0011324175314884,-0.0011324237012461,0.001132414524746,-5.8102305830322e-09,9.1749173691017e-09,-1.8173745766718e-08,2.1274702600616e-08,-0.0017542673573842,0.0017542705020927,-0.0019179180890086,0.0019179031734442,-0.0019179050827387,0.0019179162746606,-0.001917913186025,0.0019179081183789,-0.001917900140017,0.0019179212618804,-0.0014984060673292,0.0014983754212669,-0.001498367771972,0.0014984146103811,-0.0016198493615855,0.0016198508993236,-0.0016198347022449,0.0016198658914744,-2.5667463814099e-09,1.8561568839809e-10,-0.00087086100534707,0.00087085856701291,1.8101311422597e-08,-2.1255472204856e-08,-0.0010207450594087,0.0010207550264528,-0.0010207582054891,0.00102074193082,-0.0010207441541209,0.0010207558928354,-0.0010207572527977,0.0010207428449247,-0.00092099514785182,0.00092098233915016,-0.00092099794875515,0.00092097962112698,0.58731202336244,128566,2924,0.0050989129871629,0.0072807953830987,0.0036263915744803,36.690346359181,5.3522770873451e-05,5.3522770873451e-05,5.3522770873451e-05,4204513.3418685,0.016135948471247
12819200,0.94624045567709,0.016027643382457,0.005189408675658,0.0067924051056964,0.0040458296011028,-0.0012301161444086,0.0012301150442215,1.0163075347193e-09,-2.1204261068356e-09,6.9084120481842e-09,-8.2571698379529e-09,-0.0013790834959499,0.0013790885411644,-0.0013790845000009,0.001379087393719,-0.0013790884059245,0.0013790834110178,-0.0013790894333313,0.0013790823679653,-0.0011351957068118,0.001135192566844,-0.0011351987178267,0.0011351895008338,-5.792828209604e-09,9.1522677705608e-09,-1.8226882418665e-08,2.1322681762826e-08,-0.001759941758495,0.0017599448980954,-0.0019246306708355,0.0019246157297003,-0.0019246176311698,0.0019246288647812,-0.0019246257806092,0.0019246206611884,-0.0019246127012879,0.0019246338385881,-0.00150269661341,0.0015026658496736,-0.0015026582212343,0.0015027051406063,-0.0016246920936982,0.0016246936993376,-0.0016246774713652,0.0016247086493459,-2.5982230601039e-09,2.1534351709639e-10,-0.00087259714602114,0.00087259470537352,1.8151253738893e-08,-2.1309198286279e-08,-0.0010231589120676,0.0010231688912267,-0.0010231720926338,0.001023155761026,-0.0010231579864033,0.001023169777954,-0.0010231711195406,0.0010231566954997,-0.00092283330190549,0.00092282051737831,-0.00092283616214267,0.00092281773915045,0.59134553668444,128566,2924,0.0051121512727503,0.0073042491600797,0.003633635914233,36.406904732238,5.1255237857901e-05,5.1255237857901e-05,5.1255237857901e-05,4202058.0596745,0.016180606904844
13019200,0.94963024231523,0.016074456074227,0.0052043566028538,0.00681348370155,0.0040566157698235,-0.0012325052532014,0.0012325041565632,1.0512977408036e-09,-2.1522925253634e-09,6.8991637350226e-09,-8.243281084833e-09,-0.0013821499254908,0.0013821549885794,-0.0013821509512522,0.0013821538186807,-0.0013821548279615,0.0013821498658874,-0.0013821558771548,0.0013821488005873,-0.001137226912816,0.0011372238477633,-0.001137229988037,0.0011372207165698,-5.7902880117347e-09,9.145773981471e-09,-1.8322801744455e-08,2.1414597337398e-08,-0.0017645737132159,0.0017645768490056,-0.0019301971552495,0.0019301821514209,-0.0019301840543886,0.0019301953493725,-0.0019301922678932,0.0019301870797785,-0.0019301791271921,0.0019302003198319,-0.0015060909069362,0.0015060599521128,-0.0015060523336914,0.0015060994308362,-0.001628577532207,0.0016285792047615,-0.0016285629151304,0.0016285941429042,-2.6276998637641e-09,2.3924369051304e-10,-0.00087372364408222,0.0008737211972326,1.8232509031894e-08,-2.1398871444729e-08,-0.0010248854712941,0.0010248954838472,-0.0010248987089495,0.0010248822965792,-0.0010248845276871,0.0010248963886666,-0.0010248977178888,0.0010248832491241,-0.00092403601928072,0.00092402322640755,-0.00092403893159594,0.00092402039447552,0.59302696744775,128566,2924,0.005122055516925,0.0073233929252642,0.0036383441511982,35.874212222705,4.6993697781636e-05,4.6993697781636e-05,4.6993697781636e-05,4194450.7844182,0.016214920734948
13219200,0.95272209956745,0.016117323809394,0.0052180442156586,0.0068327473867705,0.0040665322069644,-0.0012345856305369,0.0012345845351778,1.0787489058401e-09,-2.1782301419064e-09,6.9001399981397e-09,-8.2437438447549e-09,-0.0013848447753866,0.0013848498582408,-0.0013848458187379,0.0013848486699591,-0.0013848496779712,0.0013848447350709,-0.001384850745182,0.0013848436515732,-0.001138997983634,0.0011389949731505,-0.0011390011117918,0.0011389917888443,-5.7863596216267e-09,9.1384564374876e-09,-1.8377436358758e-08,2.1465884719368e-08,-0.0017686945666627,0.0017686976989922,-0.0019351579635172,0.0019351429244551,-0.0019351448275747,0.0019351561578237,-0.0019351530794422,0.0019351478491728,-0.0019351399040166,0.0019351611246414,-0.0015090967850836,0.0015090657193169,-0.0015090581075427,0.0015091053010451,-0.0016320290056459,0.0016320307215751,-0.0016320144028716,0.0016320456506784,-2.6630314331368e-09,2.7078975771687e-10,-0.00087467533718089,0.00087467288649636,1.8291375332863e-08,-2.1461535387772e-08,-0.0010263838110262,0.001026393837776,-0.0010263970887356,0.0010263806102848,-0.0010263828451499,0.0010263947645991,-0.001026396075661,0.0010263815847551,-0.00092506322002336,0.00092505044674103,-0.00092506619784202,0.00092504755077377,0.59512403647761,128566,2924,0.0051306801374355,0.0073404237141372,0.0036423236762557,35.335486122288,4.2683888978303e-05,4.2683888978303e-05,4.2683888978303e-05,4185718.5046764,0.016245046360436
13419200,0.95554635821923,0.016155869766582,0.0052303416653942,0.0068501048836577,0.00407542321753,-0.0012363615403306,0.0012363604460055,1.1097306142709e-09,-2.2079640340908e-09,6.8998837964003e-09,-8.242596436925e-09,-0.001387193343884,0.0013871984475252,-0.0013871944073378,0.0013871972388587,-0.0013871982460779,0.0013871933248536,-0.0013871993332981,0.0013871922209142,-0.0011404929023033,0.0011404899534257,-0.0011404960898939,0.0011404867094536,-5.7876645202335e-09,9.1369177280235e-09,-1.840987693025e-08,2.149543776419e-08,-0.0017723405812388,0.0017723437107045,-0.0019395678995407,0.0019395528367962,-0.0019395547429834,0.0019395660910613,-0.0019395630152837,0.0019395577615367,-0.001939549819302,0.0019395710578862,-0.001511728991507,0.0015116978619874,-0.0015116902533112,0.0015117375047968,-0.0016350483425618,0.0016350500764641,-0.0016350337406556,0.0016350650062831,-2.6931125243805e-09,3.0021594816217e-10,-0.00087544369697884,0.0008754412455462,1.8321039531407e-08,-2.1492294526986e-08,-0.0010276625794541,0.001027672605832,-0.0010276758773263,0.0010276593582712,-0.0010276615937243,0.0010276735525364,-0.0010276748443299,0.001027660352477,-0.00092588759648727,0.00092587486043663,-0.00092589063307937,0.00092587190705052,0.58608287552779,128566,2924,0.0051380427757774,0.0073554912633956,0.0036455395152619,34.796533923901,3.837227139121e-05,3.837227139121e-05,3.837227139121e-05,4176694.0925098,0.016271118661183
13619200,0.95814373226498,0.01619087433121,0.0052415012763856,0.0068658884528524,0.0040834846019717,-0.0012380696587685,0.0012380685648832,1.1363746714235e-09,-2.2339295315244e-09,6.9028148728983e-09,-8.2457389351004e-09,-0.0013894155164195,0.0013894206399214,-0.0013894165970936,0.0013894194138479,-0.0013894204201106,0.0013894155157445,-0.0013894215253629,0.0013894143934872,-0.0011419339074449,0.0011419310110767,-0.0011419371481048,0.0011419277133234,-5.7860910493019e-09,9.1327278179047e-09,-1.8371026980971e-08,2.1453974322164e-08,-0.0017757485486288,0.0017757516753704,-0.0019436932029807,0.0019436781649949,-0.0019436800717187,0.0019436913928746,-0.0019436883198302,0.0019436830883162,-0.0019436751503215,0.0019436963576037,-0.0015141962942593,0.0015141652402977,-0.0015141576346951,0.0015142048012326,-0.0016378715145769,0.0016378732266648,-0.0016378569225989,0.0016378881517123,-2.7241848354901e-09,3.3680483888013e-10,-0.00087623135849824,0.00087622891269144,1.8291597190997e-08,-2.1456076115206e-08,-0.0010288987438802,0.0010289087308897,-0.0010289120193447,0.001028895505688,-0.0010288977352902,0.0010289097003291,-0.0010289109643893,0.0010288965217009,-0.00092671883950132,0.00092670619432093,-0.00092672194111557,0.00092670317725057,0.57889843099667,128566,2924,0.0051451242081136,0.0073695755597575,0.0036488326059021,34.355835160803,3.4846681286426e-05,3.4846681286426e-05,3.4846681286426e-05,4171222.2179295,0.016295984247678
13819200,0.96054675848086,0.016223239390788,0.0052518178615452,0.0068804662783228,0.0040909552509204,-0.0012397525947466,0.0012397515006464,1.1664708890047e-09,-2.2641294776995e-09,6.9007447748811e-09,-8.2439399057065e-09,-0.0013915602424283,0.0013915653843856,-0.0013915613432831,0.0013915641386826,-0.0013915651449824,0.0013915602617668,-0.0013915662702535,0.0013915591192948,-0.0011433715527906,0.0011433687169507,-0.0011433748527984,0.0011433653602696,-5.7861602471292e-09,9.1302937473815e-09,-1.8289989450083e-08,2.1370395417854e-08,-0.0017789805680056,0.0017789836922614,-0.0019475966089453,0.0019475816232502,-0.0019475835308075,0.0019475947962306,-0.0019475917263594,0.0019475865459378,-0.001947578610227,0.0019475997601497,-0.0015165550269622,0.0015165241317706,-0.0015165165276137,0.001516563528943,-0.0016405681720247,0.0016405698295339,-0.0016405535825328,0.0016405847521835,-2.7484448282629e-09,3.7254798504714e-10,-0.00087706374346543,0.00087706130941834,1.8215690522041e-08,-2.1366936078303e-08,-0.0010301270934068,0.0010301370168795,-0.001030140314056,0.0010301238466005,-0.0010301260646218,0.0010301380065692,-0.0010301392390667,0.0010301248824936,-0.00092759378253857,0.00092758126214989,-0.00092759694298416,0.00092757818696332,0.57842147688167,128566,2924,0.005152101057251,0.007382933252539,0.0036523090300858,34.003590121934,3.2028720975473e-05,3.2028720975473e-05,3.2028720975473e-05,4168280.5083212,0.016320191143624
14019200,0.96277227112943,0.01625320828108,0.0052613702882248,0.0068939513814346,0.0040978866114201,-0.0012412665202815,0.0012412654270248,1.1997862526513e-09,-2.2967121981706e-09,6.8975187252177e-09,-8.2393954964175e-09,-0.0013934999965504,0.0013935051590142,-0.0013935011198366,0.0013935038913137,-0.0013935048972479,0.0013935000385097,-0.0013935060438051,0.0013934988747265,-0.0011446641660377,0.0011446613959602,-0.0011446675288754,0.0011446579766005,-5.7873807103155e-09,9.1292393486515e-09,-1.8206962316034e-08,2.1285078171649e-08,-0.0017819205481798,0.00178192367022,-0.0019511597610344,0.0019511448292881,-0.0019511467381883,0.0019511579453965,-0.0019511548788213,0.0019511497514934,-0.0019511418170737,0.0019511629096051,-0.001518693186151,0.0015186624525716,-0.0015186548495977,0.0015187016849844,-0.0016430159400628,0.0016430175376983,-0.0016430013473571,0.0016430324606833,-2.7698711073647e-09,4.0553720626654e-10,-0.00087780185516581,0.00087779943289217,1.8133073544786e-08,-2.1271436785583e-08,-0.0010312298879067,0.0010312397459012,-0.0010312430499776,0.0010312266341951,-0.0010312288412141,0.0010312407535325,-0.0010312419562625,0.0010312276888327,-0.00092837375523539,0.00092836136091107,-0.00092837697034867,0.00092835823056049,0.57820996693086,128566,2924,0.005158377343637,0.0073950837921404,0.0036553922757485,33.653494098428,2.9227952787422e-05,2.9227952787422e-05,2.9227952787422e-05,4164954.5172026,0.016342059549342
14219200,0.96483526040686,0.016280006161086,0.0052698990375885,0.0069060871413684,0.0041040199821287,-0.0012425713040952,0.0012425702112158,1.2298400086694e-09,-2.3264807317082e-09,6.8956609475782e-09,-8.2372866945458e-09,-0.0013952121427253,0.0013952173243051,-0.0013952132860792,0.0013952160368828,-0.0013952170421697,0.0013952122051506,-0.0013952182087412,0.0013952110214979,-0.0011457526232033,0.0011457499133208,-0.0011457560447796,0.0011457464352714,-5.7864294786102e-09,9.1260849890739e-09,-1.8125732800011e-08,2.1201643186766e-08,-0.0017845507035067,0.00178455382336,-0.0019543795992493,0.0019543647209005,-0.0019543666297075,0.0019543777817887,-0.0019543747180384,0.0019543696417804,-0.0019543617099424,0.0019543827445043,-0.0015205756570493,0.0015205450817329,-0.0015205374804531,0.0015205841504613,-0.0016451640724662,0.001645165617487,-0.0016451494843059,0.0016451805363924,-2.7946888507107e-09,4.4123919091802e-10,-0.00087840207075115,0.00087839965962772,1.8057473564666e-08,-2.1183125386141e-08,-0.0010321771265483,0.0010321869205297,-0.0010321902341002,0.0010321738632398,-0.001032176059574,0.0010321879483695,-0.0010321891202905,0.0010321749380182,-0.00092899009889709,0.00092897782903625,-0.00092899337295382,0.00092897463930547,0.55856305709427,128566,2924,0.0051637867532549,0.0074059534770729,0.0036579012823344,33.30347853958,2.6427828316638e-05,2.6427828316638e-05,2.6427828316638e-05,4161879.3707359,0.016361162013012
14419200,0.96671752393693,0.016304706154234,0.0052777632695608,0.0069172354825338,0.0041097074021395,-0.0012431194824272,0.0012431183894048,1.2618117761892e-09,-2.3587250628685e-09,6.8978486794688e-09,-8.2389498501493e-09,-0.0013960775704463,0.0013960827747071,-0.0013960787354615,0.0013960814655298,-0.001396082471638,0.0013960776538227,-0.0013960836590413,0.0013960764491828,-0.0011460788773277,0.0011460762270628,-0.0011460823600551,0.0011460726870448,-5.791454667153e-09,9.1296843917028e-09,-1.8137292373462e-08,2.1211696146008e-08,-0.0017862300518487,0.0017862331702717,-0.0019566346607931,0.0019566197712998,-0.0019566216841943,0.0019566328389018,-0.0019566297769663,0.0019566246945818,-0.0019566167610448,0.0019566378047137,-0.0015215750103276,0.0015215444140078,-0.0015215368123115,0.0015215835061875,-0.0016464107334287,0.0016464122743348,-0.0016463961337067,0.0016464272012483,-2.8218269228488e-09,4.7002946834518e-10,-0.00087839258524081,0.00087839017568873,1.806565618981e-08,-2.119026167781e-08,-0.0010323855970585,0.0010323953794343,-0.0010323987101716,0.001032382316567,-0.0010323845117305,0.0010323964256435,-0.0010323975772672,0.0010323834104731,-0.00092897374640654,0.00092896152963571,-0.00092897707620794,0.00092895828366196,0.5638311809339,128566,2924,0.0051660601876548,0.0074128943426039,0.0036578727578501,32.64788692618,2.1183095409443e-05,2.1183095409443e-05,2.1183095409443e-05,4158289.833553,0.016370503249375
14619200,0.96842181053975,0.016327184850438,0.0052849211377613,0.0069273576706688,0.0041149060420078,-0.0012431901644541,0.0012431890712139,1.2907997558616e-09,-2.387930262005e-09,6.8995184876153e-09,-8.2409180083764e-09,-0.0013964293771802,0.0013964346019331,-0.0013964305615838,0.0013964332730808,-0.0013964342795584,0.001396429479932,-0.0013964354863562,0.0013964282556428,-0.0011459591122718,0.0011459565179616,-0.0011459626518255,0.0011459529201376,-5.7929696846349e-09,9.1298009955524e-09,-1.8187172488365e-08,2.1260129770982e-08,-0.0017873044011573,0.0017873075181166,-0.0019582255216001,0.0019582105973519,-0.0019582125125629,0.0019582236978126,-0.0019582206369681,0.0019582155212819,-0.0019582075887311,0.0019582286640088,-0.0015220559304229,0.0015220252366729,-0.0015220176363183,0.0015220644257677,-0.0016470986522589,0.0016471002230837,-0.0016470840515031,0.001647115151486,-2.854271778938e-09,4.9944919185017e-10,-0.0008780073930315,0.00087800498031615,1.811422566934e-08,-2.1242651188496e-08,-0.0010321885790274,0.0010321983713732,-0.0010322017257238,0.0010321852748886,-0.0010321874730337,0.0010321994380137,-0.0010322005723466,0.0010321863893076,-0.00092857244835982,0.00092856025515011,-0.00092857583829997,0.00092855694904017,0.56645233452442,128566,2924,0.0051663547568679,0.00741733406838,0.0036562820144666,31.823551650404,1.4588413203229e-05,1.4588413203229e-05,1.4588413203229e-05,4149925.716659,0.016373702744864
14819200,0.96996769050421,0.016347699096266,0.0052914545335239,0.0069365708474092,0.0041196737153326,-0.0012431121071396,0.0012431109956862,1.3115957528559e-09,-2.4265350910248e-09,6.8699731080667e-09,-8.2315854653027e-09,-0.0013966033394298,0.0013966085530478,-0.0013966045431585,0.001396607204044,-0.0013966082284239,0.0013966034439994,-0.0013966094549152,0.001396602199858,-0.0011457193512281,0.0011457168109416,-0.001145722949431,0.0011457131551684,-5.7757060699089e-09,9.1090890207596e-09,-1.8218169260846e-08,2.1287889748934e-08,-0.0017881233167969,0.0017881264305652,-0.001959497570721,0.0019594826379643,-0.0019594845443845,0.0019594957581829,-0.0019594926999246,0.001959487549473,-0.0019594796345907,0.0019595007120356,-0.0015223549628656,0.0015223241950401,-0.0015223166129053,0.0015223634438295,-0.0016475797736482,0.0016475813972564,-0.0016475652120805,0.0016475962908888,-2.8899249889647e-09,5.2445258513775e-10,-0.00087753764291036,0.00087753521938054,1.8135973802214e-08,-2.1276958421045e-08,-0.0010318890854504,0.0010318988656188,-0.0010319022503588,0.0010318857506193,-0.0010318879590583,0.0010318999523414,-0.0010319010767675,0.0010318868851331,-0.00092808828695218,0.00092807612390118,-0.0009280917367837,0.00092807275904568,0.56961685080666,128566,2924,0.0051660328650926,0.007420717844345,0.0036543389773166,30.995085333443,7.9606826675468e-06,7.9606826675468e-06,7.9606826675468e-06,4140047.4409,0.016374843874885
15019200,0.97135107825352,0.016365987871003,0.0052972778186925,0.0069447801366477,0.0041239299156626,-0.0012423689521639,0.0012423678487217,1.3523571994011e-09,-2.4604970020567e-09,6.8138719146072e-09,-8.1633484607198e-09,-0.0013960769546485,0.0013960821604235,-0.0013960781839685,0.001396080784528,-0.0013960818042968,0.0013960770909877,-0.0013960830532856,0.0013960758231608,-0.0011448337903967,0.0011448313639763,-0.0011448374527371,0.0011448276357646,-5.7258002977901e-09,9.0523275422544e-09,-1.8293845217174e-08,2.1357086794541e-08,-0.0017881390857487,0.0017881421932634,-0.0019599053601328,0.0019598904111089,-0.0019598922892192,0.0019599035783754,-0.0019599005260135,0.0019598952851874,-0.0019598874128169,0.0019599084977168,-0.0015219300167907,0.0015218990595511,-0.0015218915282406,0.0015219384643909,-0.0016472986685441,0.0016473004331064,-0.0016472841966451,0.0016473152160824,-2.9151198529608e-09,5.4442929772962e-10,-0.00087650265396811,0.00087650022365566,1.8191552671171e-08,-2.1343926528369e-08,-0.0010309866493638,0.0010309964511364,-0.0010309998568288,0.0010309832936115,-0.0010309855094454,0.0010309975518845,-0.0010309986665721,0.0010309844451625,-0.00092701644784655,0.00092700429033409,-0.00092701994357731,0.00092700087415737,0.5673775969381,128566,2924,0.00516295448489,0.0074207812923806,0.0036500463013221,29.892129895148,-8.6296083881361e-07,-8.6296083881361e-07,-8.6296083881361e-07,4124848.8765159,0.016367420032251
15219200,0.97257071300924,0.016381421728075,0.0053021830976764,0.0069517582584732,0.0041274803719259,-0.0012408748756513,0.001240873780847,1.3725308093097e-09,-2.4720309399785e-09,6.745132946506e-09,-8.0865021141465e-09,-0.0013947553573243,0.001394760531145,-0.0013947565938411,0.0013947591474036,-0.001394760155071,0.0013947555138287,-0.0013947614185001,0.0013947542310811,-0.0011431943690976,0.0011431920428258,-0.0011431980744988,0.0011431882728317,-5.6426512489364e-09,8.9595926855348e-09,-1.8378800994304e-08,2.143353133333e-08,-0.0017872454653629,0.0017872485641273,-0.0019593602323804,0.0019593452754943,-0.0019593471043959,0.0019593585003132,-0.0019593554520109,0.0019593500945429,-0.0019593422899985,0.0019593633575715,-0.0015206653026266,0.0015206341314836,-0.0015206266674365,0.0015206736834701,-0.0016461287605901,0.001646130755468,-0.0016461144779353,0.0016461453569753,-2.9641626977172e-09,5.8395980115962e-10,-0.00087482531479789,0.00087482287492576,1.8289085709897e-08,-2.1451209818361e-08,-0.0010293828321611,0.0010293926592902,-0.0010293961036695,0.0010293794376181,-0.0010293816597276,0.0010293937927709,-0.0010293948881282,0.0010293806147075,-0.00092525976069933,0.00092524760072783,-0.00092526333249103,0.00092524410916693,0.54391180358175,128566,2924,0.0051567637163684,0.0074170857143662,0.0036430826555919,28.486467249336,-1.2108262005315e-05,-1.2108262005315e-05,-1.2108262005315e-05,4105733.8370841,0.016350297229007
15419200,0.97364825959937,0.016396927759057,0.0053071383692964,0.0069585771660778,0.0041312122236828,-0.0012393261349567,0.0012393250484463,1.4127159569458e-09,-2.503607018447e-09,6.6805008653651e-09,-8.0131424404695e-09,-0.001393270649931,0.0013932758112607,-0.0013932719118173,0.0013932744022688,-0.0013932754036176,0.0013932708381558,-0.0013932766893148,0.0013932695335567,-0.0011415148617749,0.0011415126550969,-0.0011415186334928,0.0011415088221095,-5.5837753633779e-09,8.8927344521844e-09,-1.8437742475741e-08,2.1485177992443e-08,-0.0017861028826898,0.0017861059740611,-0.0019585421139591,0.0019585271564154,-0.0019585289522111,0.001958540416896,-0.0019585373765025,0.0019585319317406,-0.0019585241764744,0.0019585452338971,-0.0015192106543995,0.0015191793209592,-0.001519171903483,0.0015192189847255,-0.0016448032931627,0.0016448054357825,-0.0016447891286163,0.0016448199188274,-2.9905972538398e-09,6.0592153234031e-10,-0.00087316193685487,0.00087315949285938,1.8333307680447e-08,-2.1499623912597e-08,-0.0010276626689501,0.0010276725083143,-0.0010276759728925,0.0010276592543013,-0.001027661481808,0.0010276736565083,-0.001027674739259,0.0010276604490098,-0.00092355386549818,0.00092354172143221,-0.00092355749066968,0.00092353817860719,0.61487580135953,128566,2924,0.0051503459879562,0.0074123635106467,0.003636172770967,27.073500328465,-2.3411997372283e-05,-2.3411997372283e-05,-2.3411997372283e-05,4090237.8216453,0.016331952344896
15619200,0.97461958252605,0.01641119348703,0.0053117021485024,0.0069648199252136,0.0041346714133145,-0.0012382844100811,0.0012382833275974,1.4819366577935e-09,-2.5676422559137e-09,6.6395877909337e-09,-7.9707363882982e-09,-0.0013924233969101,0.0013924285880338,-0.001392424711324,0.0013924271273269,-0.0013924281329735,0.0013924236339007,-0.001392429452775,0.0013924222935094,-0.0011404757243918,0.0011404736560957,-0.0011404796023057,0.0011404697210823,-5.5966401458382e-09,8.9043310447399e-09,-1.8398171617427e-08,2.1444565670592e-08,-0.0017856300897174,0.0017856331798209,-0.0019582168611504,0.0019582019305832,-0.0019582037336244,0.0019582151533374,-0.0019582121254874,0.001958206705185,-0.0019581989419811,0.0019582199866611,-0.0015185368131936,0.0015185055376715,-0.0015184981043822,0.0015185451419009,-0.0016441916133274,0.0016441936753479,-0.0016441774043613,0.001644208218825,-2.9792744798604e-09,6.0427106509551e-10,-0.00087196908421036,0.00087196665158676,1.8235089731291e-08,-2.1385838847013e-08,-0.0010266715614081,0.0010266813544687,-0.0010266848050076,0.0010266681608227,-0.0010266703863975,0.0010266824907166,-0.001026683566248,0.0010266693607443,-0.00092236144934671,0.00092234939690002,-0.00092236508920603,0.0009223458422137,0.62694796866205,128566,2924,0.0051460306637022,0.0074104041544122,0.0036312263447812,25.964533505377,-3.2283731956987e-05,-3.2283731956987e-05,-3.2283731956987e-05,4062047.511512,0.016320551237004
15819200,0.97553318614346,0.016425559129261,0.0053163094892871,0.0069710246276004,0.0041382250123737,-0.0012385141960909,0.0012385131003696,1.4616932145256e-09,-2.5606884986284e-09,6.7226893033976e-09,-8.067679272642e-09,-0.001392869003195,0.0013928742221306,-0.0013928702999894,0.0013928727797503,-0.0013928737876235,0.0013928692191183,-0.0013928751104224,0.001392867876797,-0.0011407670119731,0.0011407648759975,-0.0011407708952369,0.0011407609335377,-5.6221474071971e-09,8.930713355602e-09,-1.8105976418967e-08,2.1152854354172e-08,-0.0017865096010245,0.001786512691804,-0.0019591861637405,0.001959171398417,-0.0019591732163038,0.0019591844371282,-0.0019591814001565,0.0019591762010633,-0.001959168417548,0.0019591892777541,-0.0015192294946556,0.0015191988428682,-0.0015191913892752,0.001519237838603,-0.0016449716459853,0.0016449734970307,-0.0016449574185465,0.0016449880562882,-3.0413365696985e-09,6.8934271675539e-10,-0.00087196904062498,0.00087196663124078,1.803613932753e-08,-2.1160822172621e-08,-0.0010269491030463,0.0010269587180376,-0.00102696219396,0.0010269456763714,-0.0010269478692543,0.0010269599119095,-0.0010269609174303,0.0010269469140267,-0.00092243272049571,0.00092242094519438,-0.00092243647369908,0.00092241727704989,0.66919699764036,128566,2924,0.0051469852510761,0.0074140345904966,0.0036312376125748,25.548208735339,-3.5614330117286e-05,-3.5614330117286e-05,-3.5614330117286e-05,4042806.9012158,0.01632522606018
16019200,0.97639400593147,0.016439060967014,0.0053206386009557,0.0069768607427654,0.0041415616232933,-0.0012387144618924,0.0012387133585359,1.4842067902293e-09,-2.5909993595353e-09,6.7682964205727e-09,-8.1211835201828e-09,-0.0013933542710496,0.0013933595311716,-0.001393355584216,0.0013933580733952,-0.0013933590866751,0.001393354497009,-0.0013933604289773,0.0013933531359379,-0.0011410955476478,0.0011410934272684,-0.0011410994871533,0.0011410894297973,-5.6684840969371e-09,8.9803721730298e-09,-1.7878759183709e-08,2.0928434279346e-08,-0.0017874590868708,0.0017874621805235,-0.0019601450139884,0.0019601303660777,-0.001960132211904,0.0019601432565549,-0.0019601402169737,0.0019601352027427,-0.0019601273826218,0.0019601481282839,-0.001520044178,0.0015200140089357,-0.0015200065191807,0.00152005255454,-0.0016458286183269,0.0016458302331077,-0.0016458143008569,0.0016458448825559,-3.0630956633407e-09,7.3460065535772e-10,-0.00087193083719098,0.00087192845132735,1.7829076938203e-08,-2.0927272971634e-08,-0.0010273146365932,0.001027324103457,-0.0010273275792698,0.0010273112103891,-0.0010273133790828,0.0010273253212513,-0.0010273262821617,0.0010273124682434,-0.00092247283940427,0.00092246129373241,-0.00092247665264129,0.00092245756618373,0.6674279257166,128566,2924,0.0051478179475982,0.0074179508167183,0.0036310947970782,25.148430868206,-3.8812553054349e-05,-3.8812553054349e-05,-3.8812553054349e-05,4017146.7754898,0.016329912726274
16219200,0.97720571494728,0.016451734848898,0.0053247003726604,0.0069823431708295,0.0041446913054084,-0.0012388357762409,0.0012388346678083,1.5190491901267e-09,-2.6309237038161e-09,6.7971067032839e-09,-8.1555832557062e-09,-0.0013937418616976,0.00139374716468,-0.0013937432020656,0.0013937456806925,-0.0013937467004824,0.0013937421076928,-0.0013937480657392,0.0013937407238996,-0.0011413323991769,0.0011413303196344,-0.0011413364059795,0.0011413262560299,-5.7088763101592e-09,9.0234514054006e-09,-1.7700302112332e-08,2.0752247869602e-08,-0.0017883046759725,0.0017883077719539,-0.0019610027169771,0.0019609881627864,-0.0019609900324365,0.0019610009327683,-0.0019609978946048,0.0019609930253848,-0.001960985173877,0.0019610058343701,-0.0015207656868143,0.0015207358897842,-0.0015207283666712,0.001520774089938,-0.001646575742737,0.0016465771541336,-0.0016465613374514,0.0016465918924711,-3.0758811515819e-09,7.6686365301092e-10,-0.00087183218856535,0.00087182982265563,1.7649752927928e-08,-2.0724940329687e-08,-0.00102759011003,0.0010275994560516,-0.0010276029280636,0.0010275866877206,-0.001027588839115,0.0010276006871536,-0.0010276016138922,0.0010275879625534,-0.00092245446613627,0.00092244311682231,-0.00092245832939181,0.00092243933894987,0.66425605032919,128566,2924,0.0051483232225449,0.007421437707797,0.0036307001293038,24.749266713425,-4.2005866292597e-05,-4.2005866292597e-05,-4.2005866292597e-05,3994591.6217678,0.016333573846742
16419200,0.97797446395096,0.016462532009601,0.0053281458315866,0.0069871046764824,0.004147281501532,-0.0012389541056644,0.0012389529902364,1.5292843935733e-09,-2.6477848804736e-09,6.8372439536037e-09,-8.2041344585003e-09,-0.0013941190654256,0.0013941243971996,-0.0013941204123237,0.0013941229071137,-0.0013941239303058,0.0013941193147285,-0.0013941253079078,0.0013941179171761,-0.0011415362919596,0.0011415342149518,-0.0011415403355595,0.0011415301115678,-5.707267419545e-09,9.020601294293e-09,-1.7542317137488e-08,2.059314818387e-08,-0.0017891212613792,0.0017891243561335,-0.0019618517373524,0.001961837284618,-0.001961839151618,0.0019618499505798,-0.0019618469123263,0.0019618421486962,-0.001961834298526,0.0019618548481682,-0.0015214491042396,0.0015214196256745,-0.001521412102662,0.0015214575016569,-0.0016472529745647,0.0016472542933129,-0.0016472385899145,0.0016472690232143,-3.1178623494325e-09,8.1771271238371e-10,-0.00087174677582805,0.0008717444196253,1.7555137028085e-08,-2.0617634047885e-08,-0.001027853069664,0.0010278623235261,-0.0010278658171885,0.001027849625691,-0.0010278517649505,0.001027863588218,-0.0010278644757894,0.0010278509273555,-0.00092242022218296,0.00092240902660736,-0.00092242416591819,0.00092240517058042,0.59981698028942,128566,2924,0.0051488157819158,0.0074248050553895,0.0036303593833459,24.411802132421,-4.4705582940633e-05,-4.4705582940633e-05,-4.4705582940633e-05,3976743.3278208,0.016337155614928
16619200,0.97870658418238,0.016474653226435,0.0053320360595226,0.0069922909216549,0.0041503262452573,-0.0012392644298243,0.0012392633157843,1.5744253521142e-09,-2.6915377793612e-09,6.8231112693144e-09,-8.1883102662715e-09,-0.0013945374323367,0.0013945427879966,-0.001394538812021,0.0013945412663234,-0.0013945422908097,0.0013945377119215,-0.0013945436948991,0.0013945362895532,-0.0011418705946646,0.0011418686051666,-0.0011418747167826,0.0011418644296124,-5.7301778651172e-09,9.0451100023924e-09,-1.7495669854943e-08,2.0547787464021e-08,-0.0017899190113822,0.0017899221075455,-0.0019627749867857,0.0019627605524321,-0.0019627624342387,0.0019627731859599,-0.0019627701498666,0.0019627654298038,-0.0019627575616522,0.0019627781024252,-0.0015220776935113,0.0015220483123059,-0.0015220407695976,0.001522086105792,-0.0016479512703656,0.0016479525041093,-0.0016479368251279,0.0016479672875586,-3.1280706067041e-09,8.3845462282725e-10,-0.00087188718866255,0.00087188484334035,1.746766382789e-08,-2.0518239145013e-08,-0.0010281067553767,0.0010281159503564,-0.0010281194446477,0.0010281033112104,-0.0010281054430903,0.0010281172230358,-0.0010281180890876,0.0010281046267715,-0.00092264437927479,0.00092263329792663,-0.00092264836455656,0.0009226294007272,0.70235632180242,128566,2924,0.0051501030689123,0.0074281001394475,0.0036309491431675,24.157962925757,-4.673629659394e-05,-4.673629659394e-05,-4.673629659394e-05,3973331.2611719,0.016342413037782
16819200,0.97940421600329,0.016486258883893,0.005335760693729,0.0069972576288238,0.0041532405613406,-0.0012395709696229,0.0012395698578119,1.6094352722947e-09,-2.7244680306318e-09,6.8074214790202e-09,-8.1696977651059e-09,-0.0013951160105618,0.0013951213806542,-0.0013951174138017,0.0013951198352705,-0.0013951208588907,0.0013951163146926,-0.0013951222844141,0.0013951148709942,-0.0011423589510417,0.0011423570372631,-0.0011423631355387,0.0011423527979576,-5.7212028351806e-09,9.0342059078579e-09,-1.7497211450789e-08,2.0547511950438e-08,-0.0017909435846986,0.0017909466790773,-0.0019637399660089,0.0019637255383904,-0.0019637274149743,0.0019637381705272,-0.0019637351370944,0.0019637304075869,-0.00196372254819,0.0019637430808703,-0.0015230325631202,0.0015230031686135,-0.0015229956352369,0.0015230409677933,-0.0016489149539425,0.0016489162021754,-0.0016489005230967,0.0016489309679012,-3.154002742429e-09,8.6452934924755e-10,-0.00087198768244822,0.00087198533713103,1.7457925276984e-08,-2.0508872346359e-08,-0.0010286161292943,0.0010286253018384,-0.0010286288135205,0.0010286126674848,-0.0010286148005596,0.0010286265907764,-0.0010286274394474,0.0010286140018371,-0.00092283477833426,0.00092282375869278,-0.00092283881750638,0.00092281980587473,0.70571571995325,128566,2924,0.0051513759936646,0.0074323253615275,0.0036313833606753,23.906126419118,-4.8750988647052e-05,-4.8750988647052e-05,-4.8750988647052e-05,3950644.8277311,0.016348447523649
17019200,0.98006928072011,0.016497110582122,0.0053392399068646,0.0070019177803471,0.0041559528949103,-0.0012397992070691,0.001239798097626,1.6394257793479e-09,-2.7521856176703e-09,6.7889269699081e-09,-8.1486273827328e-09,-0.0013956155081305,0.0013956208863152,-0.001395616930155,0.0013956193219824,-0.0013956203430651,0.0013956158337949,-0.0013956217881007,0.0013956143705742,-0.0011427629651629,0.0011427611240665,-0.0011427672067733,0.0011427568266968,-5.7008375174447e-09,9.0109834905809e-09,-1.7523832234778e-08,2.0571515773255e-08,-0.0017918958467207,0.0017918989384794,-0.0019646383621599,0.0019646239297671,-0.0019646257945625,0.0019646365788819,-0.0019646335473856,0.0019646287846181,-0.0019646209425151,0.001964641474099,-0.0015239171643843,0.0015238877040626,-0.0015238801883825,0.0015239255524796,-0.0016497906046306,0.0016497919108218,-0.0016497762175764,0.001649806632168,-3.1869207317666e-09,8.9395385424343e-10,-0.00087202577877783,0.00087202342990293,1.7483808825436e-08,-2.0538771578114e-08,-0.0010290557081551,0.0010290648746547,-0.0010290684106104,0.0010290522219732,-0.001029054358283,0.0010290661846932,-0.0010290670160984,0.001029053576848,-0.00092297186055403,0.00092296087912295,-0.00092297595979203,0.00092295686596071,0.69245976219544,128566,2924,0.0051523242638261,0.0074362510825646,0.0036315588644298,23.654364132592,-5.0765086939263e-05,-5.0765086939263e-05,-5.0765086939263e-05,3929672.1318615,0.016353584633477
17219200,0.98068830127077,0.016506946099644,0.0053423890478505,0.0070061609215878,0.0041583961302063,-0.0012391904186665,0.0012391893217862,1.693073943687e-09,-2.794153781899e-09,6.7080159803046e-09,-8.0520803158853e-09,-0.0013952242037869,0.001395229570706,-0.0013952256605711,0.0013952279701101,-0.0013952289834374,0.0013952245722608,-0.0013952304562562,0.0013952230813427,-0.00114229148399,0.0011422897943585,-0.0011422958053744,0.0011422854125352,-5.6695949873531e-09,8.9750917317554e-09,-1.7723077610262e-08,2.0766203986311e-08,-0.0017918881388992,0.0017918912263366,-0.001964607905426,0.0019645933648965,-0.0019645952128474,0.0019646061414583,-0.0019646031162981,0.0019645981927463,-0.0019645903795632,0.0019646110184469,-0.0015238520580198,0.0015238221730604,-0.0015238146898127,0.0015238604260693,-0.001649695922966,0.0016496974117219,-0.0016496815850758,0.0016497120721172,-3.2052459549951e-09,8.9987440963831e-10,-0.00087130833818096,0.00087130597572165,1.7595900944452e-08,-2.0668810402158e-08,-0.0010286360286013,0.0010286452587939,-0.0010286488152242,0.0010286325215902,-0.0010286346747044,0.0010286465738389,-0.0010286474086535,0.0010286338887056,-0.00092231371149229,0.00092230267459002,-0.00092231784386413,0.00092229862379161,0.67475987452225,128566,2924,0.0051498029599357,0.0074362096336476,0.0036285924590091,22.994573721849,-5.6043410225205e-05,-5.6043410225205e-05,-5.6043410225205e-05,3907095.9225113,0.0163479689033
17419200,0.98125324163741,0.01651554866148,0.0053451383129893,0.0070098978681299,0.0041605124803611,-0.0012378646567027,0.0012378635803185,1.7871502664993e-09,-2.8688330613738e-09,6.5737461830849e-09,-7.8930756598978e-09,-0.0013940490989449,0.0013940544562771,-0.0013940506224286,0.0013940527871236,-0.0013940537933117,0.0013940495435414,-0.0013940553115436,0.0013940480077458,-0.001141058140039,0.0011410566957558,-0.0011410625920062,0.0011410521817203,-5.6609134576267e-09,8.9663238634313e-09,-1.8057971080085e-08,2.1101295432086e-08,-0.0017910135459401,0.0017910166332119,-0.0019637427242529,0.0019637279821757,-0.0019637298277548,0.0019637409706816,-0.0019637379539765,0.0019637327927895,-0.0019637249889466,0.0019637458502472,-0.0015229267183818,0.00152289613548,-0.0015228886714018,0.0015229350946498,-0.0016487286494898,0.0016487303448413,-0.0016487142914352,0.0016487450172422,-3.1865523654354e-09,8.6947438629496e-10,-0.00086995278740879,0.00086995041172027,1.7719051779366e-08,-2.0809839002929e-08,-0.0010274599253277,0.0010274692599414,-0.0010274728119016,0.0010274564221144,-0.0010274585989578,0.0010274705468839,-0.0010274714116462,0.0010274577854219,-0.00092096823677269,0.00092095708865068,-0.00092097235052625,0.00092095304784088,0.64747798355819,128566,2924,0.0051443096292377,0.0074325867244889,0.0036229707700081,21.991439997239,-6.4068480022088e-05,-6.4068480022088e-05,-6.4068480022088e-05,3884247.1361603,0.016332992542615
17619200,0.98176924219081,0.01652311152699,0.0053475514848101,0.0070132017260642,0.0041623583161154,-0.0012364626788456,0.0012364615916531,1.7147751324512e-09,-2.8062245444213e-09,6.6315415875485e-09,-7.9651835310518e-09,-0.0013927299180163,0.0013927352400428,-0.0013927313743975,0.0013927336367145,-0.0013927346316649,0.0013927303076887,-0.0013927361267847,0.0013927287938646,-0.0011396981454586,0.0011396965842562,-0.0011397025295448,0.0011396921299633,-5.4948435805357e-09,8.7824479737723e-09,-1.8089478114567e-08,2.1116830198627e-08,-0.0017899313179288,0.001789934389317,-0.0019627122406321,0.0019626975635729,-0.0019626993076945,0.0019627105874239,-0.0019627075624686,0.001962702278703,-0.0019626946064003,0.0019627153280275,-0.0015217802906165,0.0015217495985124,-0.0015217422610289,0.0015217885284963,-0.0016475481271362,0.0016475502297249,-0.0016475341844536,0.0016475644924841,-3.3335534227385e-09,9.7764676756785e-10,-0.00086855537569608,0.00086855296162737,1.8073636005062e-08,-2.1205045493144e-08,-0.0010261312587767,0.0010261406966824,-0.0010261443701585,0.0010261276336197,-0.0010261298257137,0.0010261420889512,-0.0010261429066763,0.0010261290590218,-0.00091955246913437,0.0009195412187219,-0.00091955677179691,0.00091953699404683,0.62390233948965,128566,2924,0.0051384997977295,0.0074281084053587,0.0036171704952336,20.98004552818,-7.2159635774558e-05,-7.2159635774558e-05,-7.2159635774558e-05,3867397.3317827,0.01631664239157
17819200,0.98224174794583,0.016529802303199,0.0053496834628713,0.0070161390456456,0.0041639797946821,-0.0012350544010613,0.0012350533126308,1.7116895506217e-09,-2.804059382009e-09,6.6312051599658e-09,-7.9675136999844e-09,-0.0013913526823852,0.0013913579919297,-0.0013913541268832,0.0013913564006064,-0.0013913573857144,0.0013913530707919,-0.001391358889839,0.001391351545775,-0.0011382849947319,0.0011382834611682,-0.0011382894053447,0.0011382789827767,-5.4428500226091e-09,8.7242942674458e-09,-1.8184723885168e-08,2.1206501872983e-08,-0.001788734136338,0.0017887372019882,-0.0019616016264504,0.0019615869007299,-0.0019615886166913,0.0019616000012096,-0.0019615969706185,0.0019615915918794,-0.0019615839604275,0.0019616046972659,-0.0015205091552327,0.0015204782713271,-0.0015204709738467,0.0015205173502634,-0.00164624928543,0.0016462515881153,-0.0016462354909889,0.0016462657128578,-3.4054143731822e-09,1.0308590480244e-09,-0.00086717659776152,0.00086717416511451,1.8247299619816e-08,-2.1399189922347e-08,-0.0010247373896118,0.0010247468794673,-0.0010247506120754,0.0010247337062853,-0.00102473590514,0.0010247483241509,-0.0010247491185961,0.0010247351601171,-0.00091813615988972,0.00091812485344181,-0.00091814055299795,0.00091812054562564,0.60341628767731,128566,2924,0.005132663403946,0.0074231574099858,0.0036114439010452,19.990342630922,-8.0077258952623e-05,-8.0077258952623e-05,-8.0077258952623e-05,3855758.6770284,0.016299858935579
18019200,0.98267540092311,0.016535936307307,0.0053516381874639,0.0070188279309129,0.0041654701889297,-0.0012336499625273,0.0012336488797181,1.7869191486922e-09,-2.8735357615177e-09,6.5874018325282e-09,-7.9180354621577e-09,-0.0013899360131412,0.0013899413561875,-0.0013899375154655,0.0013899397075818,-0.0013899406968676,0.0013899364545581,-0.001389942239431,0.0013899348935723,-0.001136838413154,0.0011368370255318,-0.0011368429373599,0.0011368324425214,-5.4820840142141e-09,8.7662993733363e-09,-1.8328755722976e-08,2.1352874630749e-08,-0.0017874470504631,0.0017874501184891,-0.0019604270987198,0.001960412264891,-0.0019604140067789,0.0019604254520766,-0.0019604224275161,0.0019604169723402,-0.0019604093135854,0.0019604301841636,-0.0015191433007183,0.001519112128813,-0.0015191048034219,0.0015191515252889,-0.0016448650579653,0.0016448673476967,-0.0016448511518804,0.0016448815856035,-3.3921422976294e-09,1.0190864079278e-09,-0.00086582403530897,0.00086582160383546,1.8257845413267e-08,-2.1408435611771e-08,-0.0010233015221033,0.0010233110393031,-0.0010233147633164,0.0010232978474302,-0.0010233000550817,0.0010233124658199,-0.001023313267279,0.0010232993041313,-0.00091673758814455,0.00091672628117434,-0.00091674198730007,0.00091672196643008,0.60265703784464,128566,2924,0.0051268425851135,0.0074178367954096,0.0036058233071044,19.018951246005,-8.7848390031957e-05,-8.7848390031957e-05,-8.7848390031957e-05,3848046.8433789,0.016282822724458
18219200,0.98307381529455,0.016541677242541,0.0053534693968467,0.0070213319786226,0.0041668758670718,-0.0012322280859969,0.0012322270027977,1.8323713797607e-09,-2.9195172907161e-09,6.5903505880229e-09,-7.9205272666818e-09,-0.0013884951103934,0.0013885004916992,-0.0013884966489338,0.0013884988064681,-0.0013884998031549,0.0013884955810629,-0.0013885013683008,0.0013884939961525,-0.0011353733140516,0.0011353719922176,-0.0011353779066914,0.0011353673381702,-5.5072942238242e-09,8.7925409912611e-09,-1.8369417367732e-08,2.1394377003174e-08,-0.001786103424758,0.0017861064936887,-0.0019591860071491,0.0019591711384079,-0.0019591728953207,0.0019591843450302,-0.0019591813265624,0.0019591758556311,-0.0019591681802066,0.001959189100496,-0.0015177342831868,0.0015177030275967,-0.0015176956885278,0.0015177425281381,-0.0016434378858978,0.0016434401314062,-0.0016434239053507,0.0016434544388376,-3.4065727801705e-09,1.0331679507463e-09,-0.00086446797422014,0.00086446554222883,1.8259278682246e-08,-2.1411509022284e-08,-0.0010218578897557,0.0010218674056027,-0.0010218711397443,0.0010218542047679,-0.0010218564194969,0.001021868836072,-0.0010218696271557,0.0010218556784605,-0.00091533510120633,0.00091532384163538,-0.00091533954769442,0.00091531947726565,0.61338751629147,128566,2924,0.0051209495028128,0.0074122826770168,0.0036001877260197,18.04799944102,-9.5616004471841e-05,-9.5616004471841e-05,-9.5616004471841e-05,3839807.9721687,0.016265460762441
18419200,0.98344948367566,0.016547127708312,0.0053552088843983,0.0070237030228966,0.0041682158010167,-0.001231536734863,0.0012315356434089,1.866241835854e-09,-2.9608816467415e-09,6.6393934970714e-09,-7.9801788403672e-09,-0.0013878175112077,0.0013878229467642,-0.0013878190758468,0.0013878212362173,-0.0013878222409532,0.0013878179988096,-0.0013878238301895,0.0013878163901762,-0.0011346641736689,0.0011346628802196,-0.0011346688399278,0.0011346581576259,-5.5701259012419e-09,8.860575017633e-09,-1.8245912708244e-08,2.1275538837951e-08,-0.0017855462041901,0.0017855492777564,-0.0019587025027761,0.0019586876767139,-0.0019586894707137,0.0019587008007993,-0.0019586977807287,0.0019586924365805,-0.0019586847126868,0.0019587056011355,-0.0015171131104598,0.0015170821377937,-0.0015170747455634,0.0015171213977643,-0.0016428077507564,0.0016428097885453,-0.0016427936425724,0.0016428242325494,-3.4218290446701e-09,1.0626439381272e-09,-0.00086379274385547,0.00086379032713431,1.8131020131428e-08,-2.1264113019963e-08,-0.0010211641458275,0.0010211735704232,-0.001021177305146,0.0010211604601306,-0.0010211626613482,0.0010211750151127,-0.001021175776465,0.0010211619497423,-0.00091464338620181,0.0009146322778809,-0.0009146478810395,0.00091462786778327,0.61738403535465,128566,2924,0.0051180844486154,0.0074099788100088,0.0035973826112788,17.475451920053,-0.00010019638463958,-0.00010019638463958,-0.00010019638463958,3834942.7854728,0.016257356777963
18619200,0.98381131428606,0.016552328296543,0.0053568682866324,0.007025967282415,0.0041694927274958,-0.0012314461725062,0.0012314450701388,1.8907321282475e-09,-2.99615032589e-09,6.7094980014012e-09,-8.0621865000307e-09,-0.0013877650269648,0.0013877705229259,-0.0013877666127751,0.0013877687922029,-0.0013877698078441,0.0013877655239923,-0.0013877714163627,0.0013877638960765,-0.0011345671825513,0.0011345658843055,-0.0011345719052634,0.0011345611053694,-5.6430863287039e-09,8.9402553037491e-09,-1.8024276944888e-08,2.1059820840812e-08,-0.0017856330144448,0.0017856360940064,-0.0019588529535373,0.0019588382281424,-0.0019588400650258,0.0019588512053359,-0.0019588481822773,0.001958843038423,-0.0019588352563742,0.001958856057385,-0.0015171281129087,0.0015170976237288,-0.0015170901718695,0.0015171364534325,-0.0016428227924103,0.0016428245385533,-0.0016428085322073,0.0016428391358891,-3.4404385427877e-09,1.1040339862999e-09,-0.00086367522466735,0.0008636728311488,1.7925195172857e-08,-2.1031762299407e-08,-0.001021074908202,0.0010210841902104,-0.0010210879225244,0.0010210712248531,-0.0010210734043519,0.0010210856540566,-0.0010210863732383,0.0010210727350784,-0.00091452943821705,0.00091451855896416,-0.00091453399374876,0.00091451408816946,0.61178640519354,128566,2924,0.0051177095690397,0.0074103370582387,0.0035968957046196,17.230642543144,-0.00010215485965485,-0.00010215485965485,-0.00010215485965485,3834114.6478657,0.016256845452332
18819200,0.98416009462525,0.016557661125781,0.0053585740204592,0.0070282623730843,0.0041708247322374,-0.0012313758860942,0.0012313747749928,1.9071319874269e-09,-3.0215053655877e-09,6.7654825316674e-09,-8.1270752589001e-09,-0.001387722890913,0.0013877284298053,-0.0013877244889627,0.001387726687588,-0.0013877277092971,0.0013877233936274,-0.0013877293345971,0.0013877217494449,-0.0011344889755407,0.0011344876764392,-0.0011344937455873,0.0011344828474424,-5.6872806857731e-09,8.9891140130314e-09,-1.7815363186001e-08,2.0854966279331e-08,-0.0017857159778157,0.001785719061474,-0.001959004759018,0.0019589901409902,-0.0019589920037383,0.0019590029828156,-0.001958999954588,0.001958994985012,-0.0019589871662769,0.0019590078633115,-0.0015171391514824,0.0015171091107893,-0.0015171016223923,0.001517147525566,-0.0016428447610189,0.0016428462900794,-0.0016428304162541,0.0016428609703569,-3.4694139585829e-09,1.1529496992958e-09,-0.00086358133282485,0.00086357895917083,1.7749868521348e-08,-2.0834390454718e-08,-0.0010209936150383,0.0010210027639262,-0.0010210065029072,0.0010209899251387,-0.0010209920828154,0.0010210042555053,-0.0010210049302288,0.0010209914586892,-0.00091444496505056,0.00091443429894494,-0.00091444958897841,0.00091442975858221,0.64922937329894,128566,2924,0.0051174186674569,0.0074106798297169,0.0035965064205547,16.993697865198,-0.00010405041707842,-0.00010405041707842,-0.00010405041707842,3834098.1941983,0.016256502652077
19019200,0.9844963981855,0.016563115240421,0.0053603223536645,0.0070305864538881,0.0041722064328684,-0.0012313175748977,0.0012313164587783,1.9374103992547e-09,-3.0568767850639e-09,6.7975665132627e-09,-8.16477975823e-09,-0.0013877531158856,0.0013877586964788,-0.0013877547376588,0.0013877569312729,-0.001387757958932,0.0013877536356662,-0.0013877596045517,0.0013877519711669,-0.001134486295122,0.0011344850276374,-0.0011344911247666,0.0011344801386477,-5.7240225032181e-09,9.0288977893702e-09,-1.7647237246545e-08,2.0689456082436e-08,-0.0017858980714066,0.0017859011577703,-0.0019591833259463,0.0019591687971591,-0.0019591706811983,0.0019591815257046,-0.0019591784979423,0.0019591736653048,-0.0019591658172921,0.0019591864333034,-0.0015172902359636,0.0015172605461754,-0.0015172530262671,0.0015172986347265,-0.001642989281716,0.001642990622936,-0.0016429748573234,0.0016430053837806,-3.4880142716741e-09,1.1884199275842e-09,-0.00086348312760747,0.00086348077126893,1.7589130502431e-08,-2.065373838651e-08,-0.0010210204577385,0.0010210294934643,-0.0010210332337682,0.0010210167664261,-0.001021018908997,0.0010210310015747,-0.0010210316415059,0.0010210183194561,-0.00091437147054914,0.00091436099195597,-0.00091437615161601,0.0009143563943156,0.68719101442351,128566,2924,0.005117177996526,0.0074114295029789,0.0035961032979086,16.757043895976,-0.0001059436488322,-0.0001059436488322,-0.0001059436488322,3826325.0604996,0.016256611820636
19219200,0.98483119449259,0.016568705793831,0.0053621162560544,0.0070329579665574,0.0041736315712197,-0.0012321974509744,0.0012321963430514,2.0359214520266e-09,-3.1463452981942e-09,6.7463065579949e-09,-8.1063853324337e-09,-0.0013887997316501,0.0013888053613187,-0.001388801430938,0.0013888035211331,-0.0013888045526401,0.001388800322996,-0.0013888062511019,0.0013887986126608,-0.0011354928993253,0.0011354918262535,-0.0011354978870998,0.0011354868015542,-5.855066545442e-09,9.1749359990032e-09,-1.7570513207647e-08,2.0626740266302e-08,-0.0017871805778245,0.0017871836781304,-0.0019603980033691,0.0019603834583166,-0.0019603854203681,0.0019603961296003,-0.001960393100261,0.0019603884065392,-0.0019603804520731,0.0019604011413118,-0.0015185525357233,0.0015185230498812,-0.0015185154269054,0.0015185610425884,-0.0016442471911348,0.0016442481856638,-0.0016442324596042,0.0016442632643601,-3.4340808992961e-09,1.1740588716732e-09,-0.00086423722070765,0.00086423490427856,1.7278988783812e-08,-2.0293983747653e-08,-0.001022046838777,0.0010220557250623,-0.0010220594062049,0.0010220432077627,-0.001022045326015,0.0010220571964814,-0.0010220578242722,0.0010220447521182,-0.0009151995962842,0.00091518934775315,-0.0009152042489508,0.00091518477893415,0.7067798830106,128566,2924,0.0051208263819788,0.0074167254915266,0.0035992461914456,17.022461356506,-0.00010382030914796,-0.00010382030914796,-0.00010382030914796,3819717.1458689,0.016268899098579
19419200,0.98516964271448,0.016574240663598,0.0053638907151508,0.0070353156990464,0.0041750342494003,-0.0012335302189639,0.0012335291023439,2.0602133234376e-09,-3.1787180810796e-09,6.8032138325204e-09,-8.1738052045088e-09,-0.0013903427095972,0.0013903483896206,-0.0013903444267058,0.0013903465304122,-0.0013903475698239,0.0013903433103587,-0.0013903492856147,0.0013903415795234,-0.0011369890083147,0.001136987941827,-0.0011369940454153,0.0011369828516886,-5.8450995228689e-09,9.161232336523e-09,-1.7362295551907e-08,2.0414847434365e-08,-0.0017890111359872,0.0017890142325304,-0.0019621428886303,0.0019621284882644,-0.0019621304424197,0.0019621410137323,-0.0019621379923169,0.0019621334276215,-0.0019621254846103,0.0019621460178879,-0.0015203559972001,0.0015203269157148,-0.0015203192908062,0.0015203644812976,-0.0016460462888665,0.0016460471669942,-0.0016460315862593,0.0016460622245209,-3.4628560229362e-09,1.2083037138458e-09,-0.00086539703467053,0.00086539472529545,1.7158789326382e-08,-2.0165459324213e-08,-0.0010235503273674,0.0010235591160708,-0.0010235628104623,0.001023546681467,-0.0010235487930735,0.0010235606092644,-0.0010235612070429,0.0010235482465921,-0.00091645353177092,0.00091644343518316,-0.00091645824765449,0.00091643880486999,0.69264758426694,128566,2924,0.0051263519338117,0.0074242854802952,0.0036040772484299,17.539055276343,-9.9687557789257e-05,-9.9687557789257e-05,-9.9687557789257e-05,3815160.7855298,0.016287111829237
19619200,0.98551161379461,0.016579697441177,0.0053656381029367,0.0070376515185157,0.0041764078197245,-0.0012348516666157,0.0012348505443411,2.0015490119818e-09,-3.1265394079298e-09,6.8431451084562e-09,-8.2175148335038e-09,-0.0013918531515933,0.0013918587975066,-0.0013918548133957,0.0013918569936084,-0.0013918580208577,0.001391853710052,-0.0013918597176796,0.0013918519963289,-0.0011384564026774,0.0011384552466967,-0.0011384613818217,0.0011384502050417,-5.7878519687424e-09,9.0978901781707e-09,-1.721067368785e-08,2.025748942478e-08,-0.0017908084479117,0.001790811538954,-0.0019638941731068,0.0019638798905628,-0.0019638818095168,0.0019638923314247,-0.0019638892973984,0.0019638848082534,-0.0019638769086699,0.0019638972764536,-0.0015221009185507,0.0015220721484056,-0.0015220645714395,0.0015221093584809,-0.0016477973275729,0.0016477982696232,-0.00164778279065,0.0016478131462584,-3.5801592126965e-09,1.3219230008426e-09,-0.00086654694933831,0.00086654463567889,1.7168051115323e-08,-2.0181958084447e-08,-0.0010249975379783,0.0010250062358728,-0.0010250100107821,0.0010249938113978,-0.001024995908534,0.001025007823764,-0.0010250083489928,0.0010249954346885,-0.00091769354483816,0.00091768361040537,-0.00091769843114761,0.00091767880641857,0.67638954235462,128566,2924,0.0051318302506286,0.0074317086876535,0.0036088660798801,18.061738174892,-9.5506094600867e-05,-9.5506094600867e-05,-9.5506094600867e-05,3814594.1028367,0.016305094307912
19819200,0.98585683540057,0.016585049613382,0.0053673496553051,0.007039955408853,0.0041777445492242,-0.0012361556487383,0.0012361545312088,2.0845564195705e-09,-3.2050709276818e-09,6.8105161822732e-09,-8.1798643217599e-09,-0.0013933195947313,0.0013933252882778,-0.0013933213229731,0.0013933234186062,-0.001393324452954,0.0013933202121631,-0.00139332619201,0.0013933184568358,-0.0011398751866832,0.0011398741806882,-0.0011398802889723,0.0011398690211633,-5.7759556897538e-09,9.0849833124078e-09,-1.7215059638686e-08,2.0260958095697e-08,-0.0017925560537969,0.0017925591438823,-0.0019656334954074,0.0019656192257078,-0.0019656211387314,0.0019656316597063,-0.0019656286390673,0.001965624124001,-0.0019656162322698,0.0019656366102377,-0.0015237724757802,0.001523743653032,-0.0015237360832189,0.0015237809056413,-0.0016494832595558,0.0016494841936807,-0.0016494687119333,0.0016494990814492,-3.5570720178529e-09,1.3028407085858e-09,-0.00086768350483809,0.00086768119539432,1.7124417342305e-08,-2.0133270926265e-08,-0.0010263794327087,0.0010263881294534,-0.001026391886716,0.0010263757244855,-0.0010263778295052,0.0010263896918471,-0.0010263902271186,0.0010263773450628,-0.00091891702134682,0.0009189071118103,-0.00091892189996985,0.00091890231752295,0.65786895240617,128566,2924,0.0051372358422953,0.0074389274485722,0.0036135979306488,18.584646564511,-9.1322827483911e-05,-9.1322827483911e-05,-9.1322827483911e-05,3817601.3810769,0.016322736752577
20019200,0.98619574147646,0.016590491454798,0.0053690915680336,0.0070422848415686,0.0041791150451955,-0.0012366478115722,0.00123664670124,2.073193924584e-09,-3.1871105004842e-09,6.7651178965567e-09,-8.124910982429e-09,-0.0013939186379289,0.0013939242845291,-0.0013939203455223,0.0013939224341886,-0.001393923452494,0.0013939192523756,-0.0013939251914838,0.0013939174956203,-0.0011404430285249,0.0011404420636635,-0.0011404481299108,0.0011404368983957,-5.6765580518128e-09,8.9757078678152e-09,-1.7338949038126e-08,2.0375935949202e-08,-0.0017933784390845,0.0017933815203079,-0.0019664826668057,0.0019664683677251,-0.001966470221231,0.0019664808919618,-0.0019664778678546,0.0019664732067142,-0.0019664653934504,0.0019664857622768,-0.0015245196379972,0.0015244905327705,-0.0015244830478034,0.0015245279959429,-0.0016502458655549,0.0016502471048152,-0.0016502315480306,0.0016502617514233,-3.6425726799013e-09,1.3664658641273e-09,-0.0008680746209811,0.00086807228869768,1.7319921307116e-08,-2.035639180188e-08,-0.001026913751322,0.0010269225051961,-0.0010269263339619,0.0010269099715842,-0.0010269120884109,0.0010269241276452,-0.0010269246349591,0.0010269116316499,-0.00091936382173904,0.00091935387042265,-0.00091936881664521,0.00091934895812809,0.68048384368317,128566,2924,0.0051392762842927,0.0074423230224179,0.0036152296954626,18.671646050179,-9.0626831598566e-05,-9.0626831598566e-05,-9.0626831598566e-05,3817415.5287423,0.01632992155618
20219200,0.98652592591629,0.016595943311211,0.005370838127541,0.0070446083416967,0.0041804968419731,-0.001236919631741,0.0012369185343536,2.1521993038915e-09,-3.2530637397117e-09,6.6761955426141e-09,-8.0224970631628e-09,-0.0013943166541242,0.0013943223095535,-0.0013943184208267,0.0013943203996689,-0.0013943214166401,0.0013943173294558,-0.0013943231927743,0.0013943155357471,-0.0011408155543736,0.0011408147755416,-0.001140820765885,0.0011408095039816,-5.6188193025743e-09,8.9119203537153e-09,-1.7595769742077e-08,2.0627405838029e-08,-0.0017939999884011,0.0017940030641484,-0.0019670920622672,0.0019670776391881,-0.0019670794605795,0.0019670903235558,-0.0019670873140743,0.0019670824266936,-0.001967074660558,0.0019670951651275,-0.001525094442689,0.0015250647597849,-0.0015250573211928,0.0015251027564299,-0.0016508225205581,0.0016508240109602,-0.0016508082907639,0.0016508385719701,-3.639707643235e-09,1.3438463080023e-09,-0.00086825441198667,0.00086825205987633,1.7500750147831e-08,-2.0559444878015e-08,-0.0010272758269032,0.0010272847087513,-0.0010272885484381,0.0010272720364577,-0.0010272741834561,0.001027286312226,-0.001027286846628,0.0010272736990674,-0.00091959612015275,0.00091958602723079,-0.00091960112280055,0.00091958110946525,0.69908660224201,128566,2924,0.0051404038182686,0.0074448871810806,0.0036159849068722,18.638377708452,-9.0892978332388e-05,-9.0892978332388e-05,-9.0892978332388e-05,3811410.0840844,0.016334443230418
20419200,0.98684756582556,0.016601261322197,0.0053725416245635,0.0070468748398196,0.0041818448578141,-0.0012371731276028,0.0012371720390153,2.1961121258151e-09,-3.2882410099584e-09,6.6155798320552e-09,-7.9521904196295e-09,-0.0013947197500876,0.0013947253993352,-0.0013947215448091,0.0013947234603139,-0.0013947244715941,0.0013947204601055,-0.001394726271605,0.0013947186425884,-0.0011411913090837,0.0011411906532639,-0.001141196591837,0.0011411853102099,-5.5667148450944e-09,8.854477739783e-09,-1.7821054400315e-08,2.0847985560411e-08,-0.0017946396981663,0.0017946427691667,-0.0019676931413657,0.0019676786060216,-0.0019676803972564,0.0019676914366386,-0.0019676884315939,0.0019676833545186,-0.0019676756313491,0.0019676962431815,-0.0015257031803838,0.0015256730115628,-0.001525665618656,0.0015257114574731,-0.0016514223218775,0.0016514240551279,-0.0016514081912659,0.0016514385144931,-3.6698621793453e-09,1.3542533241468e-09,-0.00086841282978497,0.00086841045733469,1.7692542355564e-08,-2.0774650646266e-08,-0.0010276583172932,0.0010276673040864,-0.0010276711767323,0.0010276544937655,-0.0010276566628217,0.0010276689185669,-0.0010276694589423,0.0010276561727162,-0.00091981165126499,0.00091980145221955,-0.0009198167016196,0.00091979648542333,0.69998401440342,128566,2924,0.0051414555958366,0.0074475251557998,0.0036166530461204,18.602132765193,-9.1182937878455e-05,-9.1182937878455e-05,-9.1182937878455e-05,3802654.4830044,0.016338875040565
20619200,0.98716089351557,0.016605913166483,0.0053740254320374,0.0070488955676467,0.0041829921667991,-0.001237383851731,0.0012373827677201,2.1950538972867e-09,-3.2826419646019e-09,6.5818837484327e-09,-7.9133269651755e-09,-0.0013950826831949,0.0013950883013792,-0.0013950844659584,0.0013950863731114,-0.0013950873714069,0.0013950833952795,-0.0013950891781354,0.0013950815705621,-0.0011415119627274,0.0011415113564024,-0.0011415172655609,0.0011415059909688,-5.51445888189e-09,8.7967486477789e-09,-1.7997278466556e-08,2.1019301430652e-08,-0.001795235242021,0.0017952383080744,-0.0019682607613815,0.0019682461341106,-0.001968247895062,0.0019682590897185,-0.0019682560785223,0.0019682508548162,-0.0019682431744823,0.0019682638500311,-0.0015262598717234,0.0015262293471303,-0.0015262219992039,0.0015262681107965,-0.0016519604010352,0.0016519623792516,-0.001651946404778,0.0016519767026073,-3.7434143940944e-09,1.4071907835513e-09,-0.00086853335106746,0.00086853095738263,1.7890479209994e-08,-2.099720695456e-08,-0.0010279984684265,0.0010280075235561,-0.0010280114584693,0.0010279945825628,-0.0010279967627639,0.0010280091891865,-0.0010280097076776,0.0010279962944973,-0.00091997736148087,0.0009199670993417,-0.0009199825088963,0.00091996203553614,0.63099125359535,128566,2924,0.0051423300155756,0.0074499805331559,0.0036171635969351,18.565777161406,-9.147378270875e-05,-9.147378270875e-05,-9.147378270875e-05,3794858.8375741,0.016342781045045
20819200,0.98745152898777,0.016610552352593,0.0053755090194744,0.0070508836588529,0.004184159674266,-0.0012361167236799,0.0012361156517156,2.2450674352383e-09,-3.3217996850393e-09,6.5025800537973e-09,-7.8186974561009e-09,-0.0013938084851356,0.0013938140895398,-0.0013938102991044,0.0013938121280394,-0.0013938131177484,0.0013938092379889,-0.0013938149525731,0.0013938073863369,-0.0011402387464586,0.0011402382870903,-0.0011402441281264,0.0011402328404331,-5.4572725298349e-09,8.7335380748774e-09,-1.8315534253589e-08,2.1331899515642e-08,-0.0017940505927997,0.0017940536533316,-0.0019671635030845,0.0019671487035836,-0.0019671504336138,0.001967161869434,-0.0019671588621009,0.0019671533813705,-0.0019671457493572,0.0019671665918623,-0.0015250168991866,0.0015249857036397,-0.001524978412486,0.0015250251038859,-0.0016507157550918,0.0016507180503859,-0.0016507018650196,0.0016507322543245,-3.7702761223841e-09,1.4100542900538e-09,-0.00086731865419299,0.00086731623415944,1.8143340238792e-08,-2.1283204945336e-08,-0.0010267191731695,0.0010267283747932,-0.0010267323442402,0.0010267152527625,-0.0010267174599339,0.001026730048351,-0.0010267305816687,0.0010267169768319,-0.00091874207588836,0.00091873164608383,-0.00091874725557117,0.00091872654577738,0.6764271863656,128566,2924,0.005137078129682,0.007445082419743,0.00361211752611,17.742248162346,-9.806201470123e-05,-9.806201470123e-05,-9.806201470123e-05,3787315.2541165,0.016327335500498
21019200,0.98771986750462,0.016614701770706,0.0053768345039959,0.0070526705933375,0.0041851966733728,-0.0012346794687499,0.0012346783964716,2.2445876595348e-09,-3.3214055997758e-09,6.499971004002e-09,-7.8165822977175e-09,-0.0013924170066942,0.0013924226049159,-0.0013924188164028,0.0013924206464724,-0.0013924216341068,0.0013924177591548,-0.0013924234704802,0.0013924159022846,-0.0011388423834364,0.0011388419350417,-0.0011388477708133,0.001138836475559,-5.3896309257101e-09,8.6575265678591e-09,-1.8470582118336e-08,2.1479396072723e-08,-0.001792752095594,0.0017927551485855,-0.0019658676464943,0.0019658527832445,-0.0019658544733638,0.0019658660520841,-0.0019658630482809,0.0019658574163713,-0.001965849839949,0.0019658707236259,-0.0015237161815029,0.0015236846448097,-0.0015236774073226,0.0015237243304765,-0.0016493765991833,0.0016493791384648,-0.0016493628610143,0.0016493931906749,-3.8448286721233e-09,1.4554884895721e-09,-0.0008659361841424,0.00086593373548311,1.83975093471e-08,-2.1570206535808e-08,-0.0010253754603861,0.0010253847713177,-0.0010253888076533,0.001025371472845,-0.0010253737037534,0.001025386488487,-0.0010253870084088,0.0010253732330737,-0.00091733068882715,0.00091732015792977,-0.00091733597652153,0.00091731495145817,0.65601666060045,128566,2924,0.0051311218314364,0.0074397112906851,0.0036063772522449,16.83157661561,-0.00010534738707512,-0.00010534738707512,-0.00010534738707512,3770308.2760614,0.01630998967022
21219200,0.98796779077598,0.016618558713659,0.0053780669859084,0.0070543277085692,0.0041861640191812,-0.0012332186167538,0.0012332175450737,2.2798717726147e-09,-3.355626269953e-09,6.4893968223264e-09,-7.8066555925598e-09,-0.0013909584610747,0.001390964077373,-0.0013909602945954,0.0013909620952311,-0.001390963082476,0.0013909592378242,-0.0013909649420488,0.0013909573587409,-0.0011373877618476,0.0011373873890385,-0.0011373932192142,0.0011373818673967,-5.3958858289801e-09,8.6647667107365e-09,-1.859632974248e-08,2.1606254175119e-08,-0.0017913519244613,0.0017913549783533,-0.0019645018101334,0.0019644868593399,-0.0019644885546147,0.0019645002133879,-0.0019644972081605,0.0019644914969638,-0.0019644839157855,0.0019645048901908,-0.0015223026749784,0.001522270893703,-0.0015222636521213,0.0015223108304695,-0.0016479363757758,0.0016479389851702,-0.0016479226266462,0.0016479530565426,-3.873099914232e-09,1.4768193477911e-09,-0.00086455081822581,0.00086454836263607,1.8492261486517e-08,-2.1671831473387e-08,-0.0010239563798897,0.0010239657333024,-0.0010239697932748,0.00102395236923,-0.0010239546074559,0.0010239674662366,-0.0010239679771094,0.0010239541462859,-0.00091591004937785,0.00091589949531499,-0.00091591538821912,0.00091589424014657,0.65967103077217,128566,2924,0.0051250673580391,0.0074339217173663,0.0036006222661086,15.918600940353,-0.00011265119247718,-0.00011265119247718,-0.00011265119247718,3757266.1717386,0.016292103082849
21419200,0.98820034058386,0.016622200250003,0.0053792311036274,0.007055888757018,0.0041870803893575,-0.0012321671507676,0.0012321660674562,2.2859304332142e-09,-3.3722361569784e-09,6.5566784479594e-09,-7.8892790432936e-09,-0.0013899191984951,0.0013899248575885,-0.0013899210361927,0.0013899228712584,-0.0013899238652976,0.0013899199709657,-0.0013899257357497,0.0013899180815823,-0.0011363485597173,0.0011363481604481,-0.0011363540505289,0.0011363426082979,-5.4171716254195e-09,8.686797801643e-09,-1.8511749190652e-08,2.1522083779408e-08,-0.0017903789387745,0.0017903819930321,-0.0019635526881512,0.0019635377748092,-0.001963539483298,0.0019635510749819,-0.001963548067944,0.0019635424297335,-0.0019635348339022,0.001963555764149,-0.0015213152506024,0.0015212836602004,-0.0015212763919388,0.0015213234104991,-0.0016469277374286,0.0016469302599074,-0.0016469139616519,0.0016469443709639,-3.9209764319534e-09,1.5254429239588e-09,-0.00086355036069766,0.0008635479070615,1.8487397130796e-08,-2.1662555344346e-08,-0.0010229472119773,0.0010229565263703,-0.0010229606166124,0.0010229431703911,-0.0010229454036337,0.0010229582946112,-0.0010229587707115,0.0010229449759153,-0.0009148881485238,0.00091487768273009,-0.00091489357569427,0.00091487234460766,0.66373455121353,128566,2924,0.0051207096791549,0.0074298980458899,0.0035964668551749,15.230170489836,-0.00011815863608131,-0.00011815863608131,-0.00011815863608131,3747048.5325506,0.016279361794948
21619200,0.98841894428382,0.016625653161095,0.0053803353947176,0.007057365596145,0.0041879521702326,-0.0012311529889883,0.0012311518973585,2.3064004711554e-09,-3.4014426096601e-09,6.6143485326007e-09,-7.9543771910605e-09,-0.0013889229251832,0.0013889286314673,-0.0013889247781035,0.0013889266309948,-0.0013889276318948,0.0013889237066108,-0.0013889295198712,0.0013889217980134,-0.0011353512075386,0.0011353508109982,-0.0011353567498986,0.0011353452046315,-5.4751964673298e-09,8.7501102349622e-09,-1.8384552063731e-08,2.1399568624632e-08,-0.0017894413251662,0.0017894443843795,-0.0019626314260335,0.0019626165589505,-0.0019626183015686,0.0019626297776166,-0.0019626267646721,0.0019626212566823,-0.0019626136138862,0.0019626345051077,-0.0015203692017393,0.0015203379060584,-0.0015203305976858,0.0015203774100844,-0.0016459584394786,0.0016459607678071,-0.0016459445456247,0.0016459749896973,-3.9488513221704e-09,1.5671110092131e-09,-0.00086258777140093,0.00086258533117561,1.837597133169e-08,-2.1537640898186e-08,-0.0010219871971673,0.0010219964219187,-0.0010220005224574,0.0010219831458771,-0.0010219853640053,0.0010219982153469,-0.0010219986553659,0.0010219849729667,-0.00091390456079266,0.00091389425200001,-0.00091391004926321,0.00091388885034624,0.66920856517189,128566,2924,0.0051165066643381,0.0074260204459069,0.0035924689699148,14.565847762884,-0.00012347321789692,-0.00012347321789692,-0.00012347321789692,3736657.2029672,0.016267086590747
21819200,0.98862456553168,0.016628854576702,0.0053813588222161,0.0070587373112555,0.0041887584432305,-0.0012301276971095,0.0012301266033896,2.3816508358268e-09,-3.4788630143186e-09,6.6284304775209e-09,-7.9708267254208e-09,-0.0013879211799632,0.0013879269554003,-0.0013879230937281,0.0013879248948721,-0.0013879259069173,0.0013879220101447,-0.001387927836842,0.001387920061491,-0.0011343476364543,0.0011343473483308,-0.0011343533019456,0.0011343416234358,-5.5733999203405e-09,8.8586266124496e-09,-1.8305331750563e-08,2.1329651124799e-08,-0.0017884914690782,0.0017884945374619,-0.0019616886435135,0.0019616737768075,-0.0019616755784319,0.0019616869360357,-0.0019616839248329,0.0019616785337309,-0.0019616708135159,0.0019616917418214,-0.0015194184793714,0.0015193873782369,-0.0015193799923485,0.0015194267653148,-0.0016449795897886,0.0016449816459935,-0.0016449654648218,0.0016449961027299,-3.919395091367e-09,1.562907306386e-09,-0.00086161711852608,0.00086161470364728,1.8165582687683e-08,-2.1298382546346e-08,-0.0010210301113133,0.0010210392323854,-0.0010210432975995,0.0010210260954653,-0.0010210282988195,0.0010210410049066,-0.0010210414320967,0.0010210279215264,-0.00091291106155195,0.00091290092225938,-0.00091291654451765,0.0009128955241701,0.65988856030137,128566,2924,0.005112257591162,0.0074220919903665,0.0035884378355847,13.902164513231,-0.00012878268389415,-0.00012878268389415,-0.00012878268389415,3725516.4725238,0.01625467947155
22019200,0.98882986526939,0.016632000898457,0.0053823642058332,0.0070600878051578,0.0041895488874657,-0.0012307987709752,0.0012307976571273,2.3781689909815e-09,-3.4941345565038e-09,6.758716815462e-09,-8.125402910048e-09,-0.0013886375058749,0.0013886433555916,-0.0013886394200728,0.0013886412966089,-0.0013886423228434,0.0013886383208515,-0.0013886442605213,0.0013886363633869,-0.0011350457649508,0.0011350453900422,-0.0011350514570031,0.001135039640897,-5.6560479522646e-09,8.9488159513448e-09,-1.7897090558286e-08,2.0928315815788e-08,-0.0017893326185891,0.0017893356937888,-0.0019625495323908,0.001962534879209,-0.0019625367270748,0.0019625477705303,-0.0019625447528962,0.0019625396983688,-0.0019625319107916,0.0019625526296516,-0.0015202082312418,0.0015201780031139,-0.001520170540704,0.0015202165687765,-0.0016457834068163,0.0016457850429012,-0.0016457691313179,0.0016457996640268,-3.9584465977453e-09,1.631703407376e-09,-0.0008622241403742,0.00086222175762858,1.787172760296e-08,-2.0964616296193e-08,-0.001021703250479,0.0010217121526336,-0.0010217162234695,0.0010216992288014,-0.0010217013971216,0.001021713965461,-0.0010217143259975,0.0010217010862825,-0.00091355586440102,0.00091354605438012,-0.0009135614433797,0.00091354056609086,0.64982379933151,128566,2924,0.0051150393348836,0.007425568178687,0.0035909624425774,14.153472457021,-0.00012677222034383,-0.00012677222034383,-0.00012677222034383,3730092.6905196,0.016263605385044
22219200,0.98903603225737,0.016635135876818,0.0053833655836208,0.0070614355269065,0.0041903347662909,-0.001231648894273,0.0012316477704562,2.3963032758519e-09,-3.5227630396533e-09,6.8284593078657e-09,-8.2047081552684e-09,-0.0013895329748148,0.0013895388778347,-0.0013895349033285,0.0013895368056641,-0.0013895378391503,0.0013895337956374,-0.0013895397949493,0.0013895318208527,-0.0011359114041116,0.0011359110201892,-0.0011359171467548,0.0011359052189809,-5.7259831141463e-09,9.0259930195207e-09,-1.7575826345805e-08,2.061329468782e-08,-0.0017903513102797,0.001790354391925,-0.0019636111869805,0.001963596698793,-0.0019635985872538,0.0019636093806596,-0.0019636063570839,0.0019636015692451,-0.0019635937242833,0.0019636142872163,-0.0015211568890824,0.0015211273457186,-0.0015211198271839,0.0015211652804606,-0.0016467553859957,0.0016467566794884,-0.0016467409692682,0.001646771436837,-3.9787124913108e-09,1.6841481355151e-09,-0.00086299540171138,0.00086299305074513,1.7581881637496e-08,-2.0639893980421e-08,-0.0010225335648079,0.0010225422671389,-0.0010225463313545,0.0010225295498106,-0.0010225316854554,0.0010225441059068,-0.0010225444119006,0.0010225314292654,-0.00091436554926723,0.00091435604175954,-0.00091437119207152,0.00091435048733369,0.64497436384129,128566,2924,0.0051185630383978,0.007429778821093,0.0035941689306886,14.499928098539,-0.00012400057521169,-0.00012400057521169,-0.00012400057521169,3738044.7434985,0.016274724824698
22419200,0.98924300421953,0.016638416763765,0.0053844151215101,0.0070628362408818,0.0041911654013727,-0.0012325113163359,0.0012325101913547,2.4384319036968e-09,-3.5662297641595e-09,6.8390408546839e-09,-8.2160860742102e-09,-0.0013904356909391,0.001390441630944,-0.0013904376508186,0.0013904395284953,-0.0013904405652051,0.0013904365390699,-0.001390442547281,0.0013904345384897,-0.0011367857267659,0.0011367854103677,-0.0011367915461483,0.0011367795331747,-5.7631512556851e-09,9.0668637957701e-09,-1.7385577489718e-08,2.0426234850488e-08,-0.0017913741171318,0.0017913772020753,-0.0019646843822677,0.001964669998787,-0.0019646719083789,0.0019646825521577,-0.0019646795292318,0.0019646748928148,-0.0019646670173513,0.0019646874870663,-0.0015221042442696,0.0015220750926841,-0.0015220675423743,0.0015221126620433,-0.001647733341492,0.0016477344290589,-0.0016477188393565,0.0016477492694885,-3.9837966750476e-09,1.7128481158993e-09,-0.00086377596609366,0.0008637736390411,1.7357964553098e-08,-2.0388850756291e-08,-0.0010233644092577,0.0010233729682076,-0.0010233770207329,0.001023360405946,-0.0010233625208822,0.001023374815931,-0.0010233750875713,0.0010233622991903,-0.00091518717403093,0.00091517788740131,-0.00091519285617727,0.00091517229268759,0.67139355062875,128566,2924,0.005122137660499,0.0074340067095225,0.0035974138301176,14.848916892645,-0.00012120866485884,-0.00012120866485884,-0.00012120866485884,3746347.1939694,0.016285952529678
22619200,0.98945053851355,0.016641743731755,0.0053854797574469,0.0070642547729335,0.0041920092013749,-0.0012333593829898,0.0012333582597097,2.4650516058324e-09,-3.5912640133673e-09,6.8306606340652e-09,-8.2056830390158e-09,-0.0013913704076681,0.001391376359415,-0.0013913723841598,0.0013913742408195,-0.0013913752749973,0.0013913712747208,-0.0013913772750745,0.0013913692561617,-0.0011376861305113,0.0011376858746395,-0.0011376920023231,0.0011376799435858,-5.747195603884e-09,9.0493202952414e-09,-1.726742369253e-08,2.0306639406282e-08,-0.0017924515670007,0.00179245465052,-0.0019657677095363,0.001965753413935,-0.001965755312724,0.0019657658882829,-0.001965762866747,0.0019657582974167,-0.001965750433638,0.0019657708109828,-0.0015231287948263,0.0015230998668209,-0.001523092327343,0.0015231371983025,-0.0016487743922906,0.0016487754347689,-0.0016487599247685,0.0016487902388082,-4.0130421581513e-09,1.7513958686375e-09,-0.00086452862321405,0.00086452630571147,1.7257908194839e-08,-2.0277743935673e-08,-0.0010242477264552,0.0010242562007252,-0.0010242602668273,0.0010242437094604,-0.0010242458145467,0.0010242580719445,-0.0010242583118465,0.0010242456246012,-0.00091598818776143,0.00091597904489377,-0.00091599393380238,0.00091597338570427,0.6788026880925,128566,2924,0.0051256532473471,0.0074384583324284,0.0036005457081271,15.187090478685,-0.00011850327617052,-0.00011850327617052,-0.00011850327617052,3749282.20519,0.016297234063625
22819200,0.98965561919183,0.016645021739908,0.0053865284943818,0.007065653845458,0.0041928394000681,-0.0012337877869797,0.0012337866757729,2.5122539316132e-09,-3.6269331881048e-09,6.7563565114096e-09,-8.1169862311718e-09,-0.0013918885089347,0.0013918944476712,-0.0013918905146607,0.0013918922997476,-0.0013918933248285,0.0013918894155306,-0.0013918953492407,0.0013918873701108,-0.0011381756834387,0.0011381755671241,-0.0011381816267805,0.001138169557869,-5.7122538101554e-09,9.0100873034294e-09,-1.7341315819999e-08,2.0376609757147e-08,-0.0017931007071152,0.0017931037868037,-0.0019664145487584,0.0019664002287596,-0.0019664021062719,0.0019664127478972,-0.0019664097320753,0.0019664050853642,-0.0019663972502527,0.0019664176479467,-0.0015237377716468,0.0015237086681571,-0.0015237011589066,0.0015237461493006,-0.0016493897160453,0.001649390868931,-0.0016493753123674,0.0016494056024419,-4.0329968266767e-09,1.7680692346167e-09,-0.0008648874650133,0.00086488514409955,1.7261444111172e-08,-2.028656234229e-08,-0.0010247375158082,0.0010247459814707,-0.0010247500629054,0.0010247334834747,-0.0010247355938685,0.0010247478638665,-0.0010247480939116,0.0010247354131243,-0.00091638323203185,0.00091637412506272,-0.00091638901756666,0.00091636842285467,0.67691803963025,128566,2924,0.0051274295660764,0.0074411386700359,0.0036020418841173,15.303548192913,-0.0001175716144567,-0.0001175716144567,-0.0001175716144567,3747616.7790571,0.01630328562176
23019200,0.98985817517951,0.016648039667839,0.005387491384488,0.0070669580398931,0.0041935902434583,-0.0012341874811475,0.0012341863761613,2.5377359520998e-09,-3.6459876777912e-09,6.7118625226851e-09,-8.0665436091004e-09,-0.0013923731525236,0.0013923790797558,-0.0013923751718077,0.0013923769176548,-0.001392377935278,0.0013923740799065,-0.0013923799770336,0.0013923720196712,-0.001138628889995,0.0011386288593815,-0.0011386348837317,0.0011386228049093,-5.6330194520636e-09,8.9239088370636e-09,-1.742123806743e-08,2.0450491287058e-08,-0.0017937148601645,0.0017937179336261,-0.0019670338889023,0.0019670195660012,-0.0019670213960601,0.001967032138439,-0.0019670291257517,0.0019670243682759,-0.001967016595092,0.0019670369813382,-0.0015243064704945,0.0015242771591869,-0.0015242697119134,0.0015243147873835,-0.0016499626501259,0.0016499640148384,-0.0016499484145039,0.0016499785822195,-4.0765849404427e-09,1.7994573832395e-09,-0.00086521937063786,0.00086521703737556,1.7381962056108e-08,-2.0419802076181e-08,-0.0010251898795399,0.0010251983903493,-0.0010252025090258,0.0010251858097205,-0.0010251879311572,0.0010252002982366,-0.0010252005162907,0.0010251877631237,-0.00091674758709076,0.00091673845236409,-0.00091675344380083,0.00091673268055159,0.63260004038808,128566,2924,0.0051290868222403,0.0074436745400238,0.0036034258306414,15.414766335439,-0.00011668186931649,-0.00011668186931649,-0.00011668186931649,3746499.5776325,0.016308955239209
23219200,0.99005820444935,0.016651149601903,0.0053884851991063,0.0070682914116781,0.0041943729911189,-0.0012345841541265,0.0012345830576677,2.5719684295674e-09,-3.6717052562241e-09,6.6556840414212e-09,-8.0007369099205e-09,-0.0013927775257447,0.0013927834407341,-0.0013927795648637,0.0013927812582973,-0.0013927822681994,0.0013927784813997,-0.0013927843297728,0.0013927764010159,-0.0011390136458125,0.0011390137231484,-0.0011390196980728,0.0011390076101434,-5.5744065347656e-09,8.8593287879398e-09,-1.7545849681983e-08,2.0569769159142e-08,-0.0017942109699705,0.0017942140380725,-0.0019676085552595,0.0019675941861581,-0.0019675959819797,0.001967606840758,-0.0019676038320409,0.0019675989474835,-0.001967591220854,0.0019676116428541,-0.0015247179666616,0.0015246883693934,-0.001524680970344,0.0015247262397699,-0.0016504097796752,0.0016504113411299,-0.0016503956638678,0.0016504257860778,-4.1126726532029e-09,1.8229557616421e-09,-0.00086556643506436,0.00086556408889436,1.7496923401883e-08,-2.0549606061603e-08,-0.0010255242182668,0.0010255327781951,-0.0010255369291489,0.0010255201164033,-0.0010255222503121,0.0010255347060475,-0.0010255349165528,0.0010255220895127,-0.000917119822045,0.00091711065143773,-0.00091712573758898,0.00091710482227152,0.65900011030532,128566,2924,0.0051307308075605,0.0074457258777651,0.0036048680960616,15.525791359895,-0.00011579366912084,-0.00011579366912084,-0.00011579366912084,3753222.5872593,0.016314176178644
23419200,0.99025655910796,0.016654201845311,0.0053894601749614,0.0070696026669597,0.0041951390033895,-0.0012351143226488,0.0012351132299433,2.5987299667562e-09,-3.6947088684516e-09,6.62685779951e-09,-7.9683547178213e-09,-0.0013933632356002,0.0013933691500254,-0.0013933652903558,0.0013933669514083,-0.0013933679567924,0.0013933642116711,-0.0013933700360754,0.0013933621140955,-0.0011395663470235,0.0011395664999816,-0.0011395724514153,0.0011395603365327,-5.5313000101109e-09,8.8120313974308e-09,-1.7661143151023e-08,2.0681339760737e-08,-0.0017949123244695,0.0017949153887593,-0.0019683410701803,0.0019683266510163,-0.0019683284219083,0.0019683393827687,-0.0019683363757106,0.0019683313830303,-0.0019683236909389,0.0019683441539531,-0.0015253573104531,0.001525327459218,-0.00152532009496,0.0015253655509414,-0.001651069719837,0.0016510714444965,-0.0016510556964985,0.0016510857988989,-4.1542783227812e-09,1.8510962993109e-09,-0.00086602417095472,0.00086602181108638,1.7624604475284e-08,-2.0692504548067e-08,-0.0010260557022145,0.0010260643145636,-0.0010260685020081,0.0010260515638587,-0.0010260537102312,0.0010260662662644,-0.0010260664669633,0.0010260535592828,-0.00091760867166666,0.00091759946295386,-0.00091761465334316,0.000917593568189,0.65256369452494,128566,2924,0.0051329285245926,0.0074486238270618,0.0036067728641492,15.704471919729,-0.00011436422464216,-0.00011436422464216,-0.00011436422464216,3755768.1027301,0.016321291708127
23619200,0.99045743404337,0.016657362341185,0.0053904705404831,0.0070709552219181,0.0041959365787835,-0.0012362719564585,0.0012362708606127,2.6183421118723e-09,-3.7168984207201e-09,6.643309885524e-09,-7.9894736818868e-09,-0.0013945818495951,0.0013945877860586,-0.0013945839170331,0.0013945855749459,-0.0013945865818525,0.0013945828371423,-0.0013945886763209,0.0013945807236666,-0.0011407476393728,0.0011407478235991,-0.0011407537898563,0.0011407416160814,-5.5286806538364e-09,8.8089121224284e-09,-1.7694103278761e-08,2.0713963895151e-08,-0.0017962751119025,0.0017962781757159,-0.0019697441993172,0.0019697297575273,-0.0019697315274847,0.0019697425128534,-0.0019697395049056,0.0019697344894851,-0.0019697267994294,0.0019697472809199,-0.0015266352538497,0.0015266053403158,-0.0015265979752059,0.0015266434893545,-0.001652389158516,0.0016523909144835,-0.001652375148754,0.0016524052627682,-4.1969874875639e-09,1.8862395305916e-09,-0.00086706474858075,0.0008670623817012,1.7688556120635e-08,-2.0763205873616e-08,-0.0010271840367338,0.0010271926596215,-0.0010271968798999,0.0010271798656665,-0.0010271820172646,0.0010271946384969,-0.001027194820341,0.0010271818852718,-0.00091870676544123,0.00091869757532823,-0.00091871282030485,0.00091869161031675,0.66669035076824,128566,2924,0.005137726743124,0.0074542563502591,0.0036110995082509,16.219128351962,-0.0001102469731843,-0.0001102469731843,-0.0001102469731843,3764367.4120387,0.016336290999124
23819200,0.9906607971637,0.016660731414321,0.0053915494652858,0.007072385567304,0.0041967963817316,-0.0012374559117778,0.0012374548178557,2.6712140309141e-09,-3.7682250778523e-09,6.6314189006347e-09,-7.9749122926684e-09,-0.0013958561516728,0.0013958621199652,-0.0013958582573045,0.0013958598704762,-0.0013958608791513,0.0013958571754845,-0.0013958630044682,0.0013958550314319,-0.0011419825391502,0.0011419828238237,-0.0011419887800672,0.001141976525774,-5.567853083322e-09,8.8514858485362e-09,-1.778537035685e-08,2.08081003397e-08,-0.0017977102525981,0.0017977133194168,-0.0019711966632455,0.0019711821396097,-0.0019711839344612,0.0019711949535972,-0.0019711919459705,0.0019711868952061,-0.0019711791759476,0.0019711997530803,-0.0015279958001778,0.0015279657227821,-0.0015279583315404,0.0015280040695066,-0.0016537876457465,0.0016537893744745,-0.0016537735423748,0.0016538038137713,-4.2044624155041e-09,1.8941127339631e-09,-0.00086812011556703,0.00086811774843182,1.7692800833638e-08,-2.0768952030565e-08,-0.0010283764708769,0.0010283850958777,-0.0010283893215491,0.001028372294564,-0.0010283744501375,0.0010283870767137,-0.0010283872529841,0.001028374323359,-0.00091982810592381,0.00091981894015117,-0.00091983418591318,0.00091981294780549,0.70079155552469,128566,2924,0.0051426342747454,0.0074601866077408,0.0036154895421334,16.741740594605,-0.00010606607524316,-0.00010606607524316,-0.00010606607524316,3770263.6465804,0.016351769335322
24019200,0.99086650758741,0.016664178554241,0.005392653658498,0.0070738477097292,0.0041976771860137,-0.0012386405599355,0.0012386394634012,2.6956261157078e-09,-3.7953935591357e-09,6.6506965487673e-09,-7.9963857351989e-09,-0.001397189414548,0.0013971954098513,-0.0013971915361638,0.0013971931436846,-0.0013971941544628,0.0013971904525322,-0.0013971962976977,0.0013971882904716,-0.001143273601126,0.0011432739216154,-0.0011432798937014,0.0011432675689366,-5.5783909121633e-09,8.8627801778551e-09,-1.7822780955394e-08,2.084614060442e-08,-0.0017992409150933,0.0017992439825978,-0.0019726909888899,0.0019726764348021,-0.0019726782358588,0.0019726892735891,-0.0019726862640764,0.0019726811979426,-0.001972673471677,0.0019726940788258,-0.0015294775859776,0.0015294474453784,-0.0015294400486181,0.0015294858650855,-0.0016552907675887,0.0016552925025951,-0.0016552766436205,0.0016553069587348,-4.2412008578519e-09,1.9254394289679e-09,-0.00086915898779366,0.00086915661491699,1.7742585981236e-08,-2.082582933697e-08,-0.001029652228412,0.0010296608600293,-0.0010296651135777,0.0010296480238329,-0.0010296501839963,0.0010296628641535,-0.0010296630232378,0.0010296500747682,-0.00092094500220998,0.00092093586073236,-0.00092095114593476,0.00092092980287217,0.7086620127103,128566,2924,0.0051475451774879,0.0074665088505359,0.0036198149450599,17.264646214858,-0.00010188283028114,-0.00010188283028114,-0.00010188283028114,3770195.453504,0.01636758549043
24219200,0.99107317958511,0.016667497165463,0.0053937148047096,0.007075266505758,0.0041985158549955,-0.0012396286084043,0.0012396275141568,2.7261904087102e-09,-3.8241312992107e-09,6.6410764627646e-09,-7.9828733079354e-09,-0.0013983360554679,0.0013983420647492,-0.0013983381964188,0.0013983397788125,-0.001398340787865,0.0013983371151708,-0.0013983429505287,0.0013983349329667,-0.0011443782890753,0.0011443786762892,-0.0011443846386649,0.0011443722646199,-5.6021862130567e-09,8.8888894381175e-09,-1.790302677688e-08,2.0928494685559e-08,-0.0018005922372937,0.0018005953069941,-0.0019740024699714,0.0019739878477463,-0.0019739896634596,0.0019740007411975,-0.0019739977291349,0.0019739926278454,-0.0019739848834139,0.0019740055630975,-0.001530783949332,0.0015307536678893,-0.0015307462589557,0.0015307922532439,-0.0016566104818112,0.0016566122233302,-0.0016565963052165,0.0016566267246108,-4.2726431340436e-09,1.9544440004358e-09,-0.00087001047263522,0.00087000809669963,1.7772176437768e-08,-2.0860347937029e-08,-0.0010307513398846,0.0010307599699309,-0.0010307642463827,0.0010307471126365,-0.0010307492756729,0.0010307619948243,-0.0010307621363261,0.0010307491839263,-0.00092187068085449,0.00092186157602628,-0.0009218768820112,0.0009218554583391,0.68010064010304,128566,2924,0.0051516412807963,0.0074720888204158,0.003623362781932,17.692480940578,-9.8460152475379e-05,-9.8460152475379e-05,-9.8460152475379e-05,3768045.8755143,0.016381029200813
24419200,0.99127764755162,0.016670776835151,0.0053947632068506,0.0070766693147379,0.0041993443135625,-0.0012401653191455,0.0012401642329272,2.7750429691216e-09,-3.8650697901691e-09,6.5889185304845e-09,-7.9219306886906e-09,-0.0013989696774447,0.0013989756895618,-0.0013989718503662,0.0013989733717008,-0.0013989743752852,0.0013989707755602,-0.001398976565282,0.0013989685649268,-0.0011449823075791,0.0011449828212717,-0.0011449887382642,0.0011449763265069,-5.6320880264004e-09,8.9213222506114e-09,-1.8058366329716e-08,2.10861589832e-08,-0.0018013898293106,0.0018013929014027,-0.0019748135562011,0.0019747988175451,-0.0019748006508904,0.0019748118112321,-0.0019748087980692,0.0019748036157432,-0.0019747958498074,0.001974816655416,-0.0015315195898808,0.0015314890183425,-0.001531481590642,0.0015315279203799,-0.0016573673548339,0.0016573691329221,-0.0016573531118277,0.0016573837030565,-4.2882752465815e-09,1.9686704874174e-09,-0.00087045515707132,0.00087045277954248,1.7790876216061e-08,-2.0880960052238e-08,-0.0010313330621403,0.0010313416968963,-0.0010313459848116,0.0010313288235177,-0.0010313309902069,0.0010313437300043,-0.0010313438632783,0.0010313309074438,-0.00092236789928008,0.0009223588151245,-0.00092237413293307,0.00092235266099671,0.67934590301469,128566,2924,0.0051538662474728,0.0074753820019905,0.0036252169816953,17.884880723641,-9.6920954210875e-05,-9.6920954210875e-05,-9.6920954210875e-05,3767800.7516331,0.016388523943202
24619200,0.9914798026175,0.016674168390797,0.0053958489936671,0.0070781093112678,0.0042002100858622,-0.0012406996284363,0.0012406985342301,2.7845355173109e-09,-3.8821412039396e-09,6.6346861821083e-09,-7.9772629747978e-09,-0.0013995886598902,0.001399594703745,-0.0013995908385333,0.001399592378551,-0.0013995933872397,0.0013995897579501,-0.0013995955894792,0.0013995875370993,-0.0011455801371379,0.0011455806418303,-0.0011455866009521,0.0011455741136176,-5.5689718613206e-09,8.8519781074392e-09,-1.8032562195309e-08,2.1054616938964e-08,-0.0018021683280996,0.001802171394304,-0.0019756055928928,0.0019755909119117,-0.0019755927071531,0.0019756038866498,-0.0019756008762722,0.0019755956669135,-0.0019755879520767,0.0019756086826476,-0.0015322377507241,0.00153220719489,-0.0015321998118082,0.0015322460268221,-0.001658110655129,0.0016581125482075,-0.0016580965525793,0.0016581269795438,-4.342213865336e-09,2.0078217762428e-09,-0.00087089887440883,0.00087089648215923,1.7928620338544e-08,-2.1034916149274e-08,-0.0010318974168828,0.0010319061003538,-0.0010319104325968,0.0010318931322025,-0.0010318953103035,0.0010319081654047,-0.0010319082823682,0.001031895244679,-0.0009228628131549,0.00092285370102043,-0.0009228691323124,0.0009228474619862,0.70944458956001,128566,2924,0.005156081186355,0.0074785967630431,0.0036270663849831,18.071690581629,-9.5426475346969e-05,-9.5426475346969e-05,-9.5426475346969e-05,3767796.9149585,0.016395923654934
24819200,0.99167960862837,0.016677283885279,0.0053968435132765,0.0070794493980147,0.0042009909739878,-0.0012412211535546,0.0012412200613265,2.8186628001833e-09,-3.9142483382275e-09,6.6216019479513e-09,-7.9618958274889e-09,-0.0014002431082589,0.0014002491670502,-0.0014002453098856,0.0014002468192902,-0.0014002478267686,0.0014002442305855,-0.0014002500505051,0.0014002419879148,-0.001146200551778,0.0011462011335959,-0.0011462070795231,0.00114619454253,-5.5721904245839e-09,8.8553805614966e-09,-1.8085394998127e-08,2.1107621933698e-08,-0.0018030053537804,0.0018030084201949,-0.001976412361434,0.0019763976387227,-0.0019763994381186,0.0019764106520035,-0.0019764076415241,0.0019764023969797,-0.0019763946784755,0.0019764154525379,-0.0015330377720495,0.001533007112184,-0.0015329997270835,0.0015330460518441,-0.0016589131329294,0.0016589150535343,-0.0016588990210237,0.0016589294942759,-4.3699078794408e-09,2.0334769893797e-09,-0.00087131865243926,0.00087131625805186,1.7953958184902e-08,-2.1062845035414e-08,-0.0010325189906546,0.0010325276720988,-0.0010325320245521,0.0010325146868726,-0.0010325168674604,0.0010325297549582,-0.0010325298556612,0.0010325168169873,-0.0009233332892976,0.00092332421033092,-0.00092333966409934,0.00092331792041747,0.66112228019569,128566,2924,0.0051582435984528,0.0074820513370912,0.0036288191699646,18.258294222339,-9.3933646221285e-05,-9.3933646221285e-05,-9.3933646221285e-05,3763135.2826281,0.016403416932915
25019200,0.99187931142023,0.016680361517255,0.0053978253403332,0.0070807755855193,0.0042017605914026,-0.0012420725774936,0.0012420714821012,2.847474107014e-09,-3.9456311780617e-09,6.6364778220955e-09,-7.9818848287798e-09,-0.0014011557401225,0.0014011618277619,-0.0014011579620673,0.0014011594601746,-0.0014011604700636,0.0014011568799109,-0.001401162714297,0.0014011546173462,-0.0011470830461639,0.0011470836739114,-0.0011470896352984,0.0011470770257343,-5.5831145480359e-09,8.8673672009012e-09,-1.8046898542284e-08,2.1070142363614e-08,-0.0018040804581266,0.0018040835254013,-0.001977540214865,0.0019775255106171,-0.0019775273167274,0.0019775384984279,-0.0019775354874073,0.0019775302767463,-0.0019775225493444,0.0019775433063142,-0.0015340213548964,0.0015339907786547,-0.00153398338014,0.0015340296385369,-0.0016599360377426,0.0016599379117071,-0.0016599219080643,0.0016599523797122,-4.39813818889e-09,2.0647776625608e-09,-0.00087206450075523,0.00087206211014489,1.7928234984139e-08,-2.1031145242936e-08,-0.0010333429202328,0.0010333515661712,-0.0010333559350741,0.0010333385999106,-0.001033340776747,0.0010333536685357,-0.0010333537463016,0.0010333407496233,-0.00092413354360567,0.00092412454341167,-0.00092413997764371,0.00092411819630336,0.65362537918066,128566,2924,0.0051617724427903,0.0074864935661169,0.0036319222840852,18.629832195505,-9.0961342435956e-05,-9.0961342435956e-05,-9.0961342435956e-05,3769877.6903944,0.016414673505437
25219200,0.99208212866152,0.016683590831266,0.0053988567021727,0.0070821593746175,0.0042025747544756,-0.0012434412650643,0.0012434401635865,2.8683295865809e-09,-3.972533761914e-09,6.6772489800426e-09,-8.0290277980062e-09,-0.0014025835720962,0.0014025896981051,-0.0014025858094504,0.0014025873155024,-0.0014025883305443,0.0014025847219759,-0.001402590591221,0.001402582442552,-0.0011484765825051,0.0011484772238845,-0.0011484832203994,0.0011484705269029,-5.6043057961872e-09,8.8905684057085e-09,-1.7919951469725e-08,2.0945015046579e-08,-0.0018056847607361,0.0018056878298473,-0.0019792076894678,0.0019791930544379,-0.0019791948724253,0.0019792059590074,-0.0019792029467724,0.0019791978362858,-0.0019791900912848,0.0019792107812299,-0.0015355148277381,0.0015354845172283,-0.0015354771017445,0.0015355231270451,-0.0016614874088804,0.0016614891593918,-0.0016614732369512,0.0016615036686697,-4.429544302168e-09,2.1054677021808e-09,-0.00087329001675403,0.00087328763561469,1.7842480422706e-08,-2.0934755856215e-08,-0.0010346487250734,0.0010346572947092,-0.0010346616785192,0.001034644389933,-0.0010346465569585,0.001034659421855,-0.0010346594664757,0.0010346465628782,-0.00092542768017611,0.00092541881864612,-0.00092543418276392,0.00092541240335745,0.67454674011577,128566,2924,0.0051674449580889,0.0074931241162678,0.003637017728225,19.270786358911,-8.583370912871e-05,-8.583370912871e-05,-8.583370912871e-05,3781850.8866433,0.016432358410196
25419200,0.99228794049159,0.016687136038268,0.0053999920168381,0.0070836599769813,0.0042034840444488,-0.0012448432983406,0.0012448421952621,2.9045334572319e-09,-4.0105314812141e-09,6.6890118902305e-09,-8.0422448861745e-09,-0.0014040830483154,0.0014040892066795,-0.0014040853114788,0.0014040867987792,-0.0014040878159545,0.0014040842212991,-0.0014040901004857,0.0014040819181645,-0.001149938883802,0.0011499395851918,-0.0011499455913103,0.0011499328177258,-5.6372026565049e-09,8.9263730659007e-09,-1.783615717323e-08,2.0863615704509e-08,-0.0018073808408779,0.0018073839125094,-0.0019809303753061,0.0019809157744577,-0.0019809176123026,0.0019809286236616,-0.0019809256106835,0.0019809205785919,-0.0019809128076051,0.0019809334701938,-0.0015371184968295,0.0015370883707327,-0.0015370809292896,0.0015371268208668,-0.001663141882139,0.0016631435102739,-0.0016631276389138,0.0016631580895246,-4.446126392466e-09,2.134469669448e-09,-0.00087453506031023,0.00087453269150295,1.7729352315016e-08,-2.0808129927431e-08,-0.0010360418567694,0.0010360503443094,-0.0010360547314793,0.0010360375184302,-0.0010360396744206,0.0010360524860392,-0.0010360525032152,0.0010360397074179,-0.00092675242556158,0.00092674370367744,-0.00092675897498877,0.00092673724091881,0.72789190368374,128566,2924,0.0051732560251318,0.0075001322792396,0.0036421968082441,19.918161073465,-8.0654711412282e-05,-8.0654711412282e-05,-8.0654711412282e-05,3789741.3778826,0.016450654242752
25619200,0.9924965303646,0.016690751512724,0.0054011498196984,0.0070851907408905,0.0042044109521354,-0.0012462442115368,0.0012462431060557,2.9278444061499e-09,-4.0363438549377e-09,6.7079612108785e-09,-8.0633713829509e-09,-0.0014056719561413,0.0014056781409894,-0.0014056742350434,0.0014056757174382,-0.0014056767364122,0.0014056731429504,-0.0014056790378896,0.0014056708227905,-0.0011514840473969,0.0011514847824312,-0.0011514908042811,0.0011514779642854,-5.6415976243592e-09,8.9308561064763e-09,-1.7740603897434e-08,2.0768093125128e-08,-0.0018092199740379,0.0018092230457551,-0.0019827125192338,0.0019826979790331,-0.0019826998186112,0.0019827107641914,-0.0019827077512362,0.0019827027864739,-0.0019826950119135,0.001982715612736,-0.001538907107079,0.0015388771735084,-0.001538869728351,0.0015389154330921,-0.001664952629857,0.0016649541874792,-0.0016649383785701,0.0016649687720818,-4.4783406801836e-09,2.1729681394096e-09,-0.00087575526289249,0.00087575290048267,1.7664964032592e-08,-2.0736571262648e-08,-0.0010375648708937,0.0010375732952568,-0.0010375776997991,0.0010375605149916,-0.0010375626642141,0.0010375754611155,-0.0010375754486521,0.0010375627269611,-0.00092806996007816,0.00092806135717081,-0.00092807657655114,0.00092805482657856,0.7324347419762,128566,2924,0.0051790632795979,0.0075077273089097,0.0036472786809895,20.565764123537,-7.5473887011704e-05,-7.5473887011704e-05,-7.5473887011704e-05,3788518.5240317,0.016469446570607
25819200,0.99270248791358,0.016694227537231,0.0054022615428574,0.0070866702740831,0.00420529572029,-0.0012468595982474,0.0012468584944435,2.9690466340384e-09,-4.0765367145585e-09,6.6983361407156e-09,-8.0505198638502e-09,-0.0014064661767226,0.0014064723841922,-0.0014064684839212,0.0014064699317275,-0.0014064709510854,0.0014064673921661,-0.0014064732780912,0.0014064650457553,-0.0011522422905928,0.0011522431087696,-0.0011522491209465,0.0011522362126413,-5.5847060559458e-09,8.8682194439834e-09,-1.7747641558556e-08,2.0769904065453e-08,-0.0018102400525043,0.0018102431190644,-0.0019836814836722,0.001983666975847,-0.0019836687810356,0.0019836797630765,-0.0019836767559924,0.0019836717419064,-0.0019836640119178,0.001983684572987,-0.0015398911761421,0.0015398611841152,-0.0015398537876917,0.0015398994603878,-0.0016659406062906,0.0016659422748499,-0.0016659264642907,0.0016659567415676,-4.5012117567434e-09,2.1883019863682e-09,-0.00087624531024745,0.0008762429396261,1.7730517341307e-08,-2.0812996715276e-08,-0.0010383289180325,0.00103833737058,-0.001038341795586,0.0010383245418024,-0.0010383267002263,0.0010383395479171,-0.0010383395303989,0.0010383267676315,-0.00092863566107959,0.00092862704541636,-0.00092864231809286,0.00092862047317505,0.71386318463783,128566,2924,0.0051816149297119,0.0075119359606197,0.0036493271190506,20.804980667814,-7.3560154657488e-05,-7.3560154657488e-05,-7.3560154657488e-05,3781156.8356734,0.016478403983393
26019200,0.99290125162688,0.016697451166235,0.0054032907321616,0.0070880519529984,0.0042061084810752,-0.0012467672062748,0.0012467661132859,2.992038561092e-09,-4.0891462590976e-09,6.6284208133014e-09,-7.9681126222172e-09,-0.0014064953742948,0.0014065015519263,-0.0014064976918312,0.0014064990888065,-0.0014065000969497,0.0014064966120591,-0.0014065024366661,0.0014064942524326,-0.001152251595541,0.0011522525140467,-0.0011522584641106,0.0011522455790435,-5.5401698911422e-09,8.8192873095912e-09,-1.7891428087741e-08,2.0909738475254e-08,-0.001810444783755,0.0018104478463933,-0.0019838729189722,0.00198385834015,-0.0019838601203301,0.0019838712255882,-0.0019838682195694,0.0019838630771676,-0.0019838553821182,0.00198387600396,-0.0015400581812137,0.0015400278787256,-0.0015400205205022,0.001540066434792,-0.0016661072663312,0.001666109120661,-0.0016660932167292,0.001666123490319,-4.5483802184631e-09,2.2252547765088e-09,-0.00087609094189027,0.00087608856055088,1.7828282574676e-08,-2.0923848458717e-08,-0.001038344051043,0.0010383525331293,-0.0010383569967014,0.0010383396368424,-0.0010383418043612,0.001038354740358,-0.0010383547044654,0.0010383418894913,-0.00092852263149544,0.00092851401593353,-0.00092852936756997,0.00092850736494817,0.68688291035325,128566,2924,0.0051812328843358,0.0075127761282985,0.0036486949074018,20.675765456005,-7.4593876351961e-05,-7.4593876351961e-05,-7.4593876351961e-05,3772206.8497086,0.0164782290854
26219200,0.99309300820978,0.016700741687918,0.0054043433754093,0.0070894483232323,0.0042069499892763,-0.0012466632407357,0.0012466621539493,3.0290094978574e-09,-4.1194418376084e-09,6.5830710543599e-09,-7.9173529525961e-09,-0.0014064511437183,0.0014064573185262,-0.0014064534838179,0.0014064548326431,-0.0014064558346971,0.0014064524101892,-0.0014064581970292,0.0014064500285753,-0.0011522044068992,0.0011522054298838,-0.0011522113432642,0.0011521984319093,-5.5076400742587e-09,8.7834854166674e-09,-1.80049173029e-08,2.102044293878e-08,-0.0018105437873793,0.0018105468470624,-0.0019840004736949,0.0019839858415165,-0.0019839876026362,0.0019839988011224,-0.001983995797257,0.0019839905552392,-0.001983982886893,0.0019840035565583,-0.0015401010468183,0.0015400704989761,-0.0015400631644106,0.00154010927321,-0.0016661696646279,0.0016661716577031,-0.0016661556855673,0.0016661859634816,-4.5789534671037e-09,2.2470661547229e-09,-0.00087594166191949,0.00087593927220905,1.791416786591e-08,-2.1017846285307e-08,-0.0010382650467973,0.0010382735632754,-0.0010382780523786,0.001038260606815,-0.001038262782674,0.0010382757876019,-0.0010382757426747,0.001038262877099,-0.00092840624591318,0.00092839761237524,-0.00092841303416812,0.0009283909102193,0.72524660513116,128566,2924,0.0051808023877421,0.0075131820378218,0.003648079963386,20.537714568911,-7.5698283448712e-05,-7.5698283448712e-05,-7.5698283448712e-05,3768163.4616718,0.016477579450717
26419200,0.99327804100986,0.016704006261487,0.0054053886437364,0.0070908278026305,0.0042077898151206,-0.0012465659072165,0.0012465648239467,3.0604750336179e-09,-4.1473898453345e-09,6.5576300388412e-09,-7.8879090356758e-09,-0.00140646546186,0.0014064716416162,-0.0014064678214873,0.0014064691357783,-0.0014064701346008,0.0014064667514303,-0.0014064725167651,0.0014064643499876,-0.0011522126065315,0.0011522137092092,-0.0011522196009589,0.0011522066527237,-5.4834923141915e-09,8.7568881077852e-09,-1.8087240153817e-08,2.1100599250412e-08,-0.0018107234465554,0.0018107265040503,-0.001984146315319,0.0019841316448303,-0.0019841333916963,0.0019841446582775,-0.0019841416556799,0.0019841363413503,-0.0019841286928472,0.0019841493964283,-0.0015402623515879,0.0015402316257896,-0.0015402243116372,0.001540270560343,-0.0016663266836715,0.0016663287785288,-0.0016663127543533,0.0016663430332978,-4.6126893699288e-09,2.2735559369525e-09,-0.00087578724242236,0.00087578484526253,1.7987339929995e-08,-2.1099711243566e-08,-0.001038274780682,0.0010382833215157,-0.0010382878376805,0.0010382703134532,-0.0010382724963703,0.0010382855659409,-0.0010382855080586,0.0010382726038634,-0.00092828924953539,0.00092828061621173,-0.00092829609642618,0.00092827385491769,0.74502754876147,128566,2924,0.005180399986314,0.0075139190223788,0.0036474466902734,20.399336961444,-7.6805304308447e-05,-7.6805304308447e-05,-7.6805304308447e-05,3758258.663247,0.016477277754839
26619200,0.99346068999823,0.016707199851043,0.0054064107345403,0.0070921794252984,0.0042086096912045,-0.0012471399985884,0.0012471389195127,3.0624092317942e-09,-4.1444666398754e-09,6.5290298583034e-09,-7.8562486629961e-09,-0.0014071950081717,0.0014072011667555,-0.0014071973633739,0.0014071986670863,-0.0014071996563707,0.0014071963022195,-0.0014072020431685,0.0014071938971717,-0.0011529285714706,0.0011529297138959,-0.001152935582052,0.0011529226474189,-5.5633315007474e-09,8.8448234882432e-09,-1.8127309389729e-08,2.1148096848629e-08,-0.0018116714602031,0.0018116745251557,-0.0019850343427143,0.0019850195903272,-0.0019850213857944,0.0019850326382214,-0.001985029623429,0.0019850243483292,-0.0019850166364075,0.0019850374281529,-0.001541188986898,0.0015411582543414,-0.001541150873369,0.0015411972570048,-0.0016672519105428,0.0016672538902815,-0.001667237834663,0.0016672683008993,-4.6659597229274e-09,2.3409846584962e-09,-0.00087625150380754,0.00087624912151569,1.7874735528746e-08,-2.0968329349291e-08,-0.0010389828135229,0.0010389912418509,-0.0010389957847027,0.0010389783200543,-0.0010389804839571,0.0010389935315339,-0.0010389934195878,0.0010389806465805,-0.0009288236402519,0.00092881520557815,-0.00092883059127257,0.00092880834040784,0.73848439433638,128566,2924,0.0051827805649824,0.0075178304748438,0.0036493866238393,20.629837631947,-7.4961298944426e-05,-7.4961298944426e-05,-7.4961298944426e-05,3751594.6067481,0.016485648382207
26819200,0.99364315900067,0.016710313369061,0.0054074060672966,0.0070935028757549,0.0042094044260098,-0.0012480828507865,0.0012480817616804,3.0883867783046e-09,-4.1800877141038e-09,6.5930447155721e-09,-7.9318085325763e-09,-0.001408292660329,0.0014082988783224,-0.0014082950367569,0.0014082963559864,-0.0014082973556926,0.0014082939645084,-0.0014082997621839,0.0014082915399944,-0.0011540039177862,0.0011540050584755,-0.0011540109844873,0.0011539979340891,-5.5916829270425e-09,8.8753250865579e-09,-1.8006403560437e-08,2.1029120091581e-08,-0.0018130011733941,0.0018130042400775,-0.0019863250051123,0.0019863103223736,-0.0019863121314587,0.0019863232826148,-0.0019863202701608,0.0019863150957961,-0.0019863073651857,0.0019863280922614,-0.001542477167944,0.0015424466901635,-0.0015424392870106,0.0015424854559294,-0.0016685462001509,0.0016685480416713,-0.0016685320682852,0.0016685625146405,-4.6919728671573e-09,2.3729029087179e-09,-0.00087705572739917,0.00087705335155204,1.7806977021369e-08,-2.0892561967647e-08,-0.0010400288441297,0.0010400372137123,-0.0010400417683482,0.0010400243369445,-0.0010400264962797,0.0010400395208684,-0.0010400393837774,0.001040026683934,-0.00092971242141937,0.00092970409888343,-0.00092971942961883,0.00092969717304454,0.72121904571491,128566,2924,0.0051866892685318,0.0075233199242693,0.0036527389300551,21.064484814221,-7.1484121486229e-05,-7.1484121486229e-05,-7.1484121486229e-05,3750018.9063395,0.016498612020835
27019200,0.99382534747262,0.016713337601459,0.0054083715911207,0.007094794868588,0.0042101711417505,-0.0012490373510722,0.0012490362522122,3.1250044384213e-09,-4.2267865776467e-09,6.6565587935106e-09,-8.0047338069945e-09,-0.0014093691679975,0.0014093754513656,-0.001409371574658,0.0014093728989948,-0.0014093739106186,0.0014093704903886,-0.0014093763429354,0.0014093680400338,-0.0011550639525072,0.0011550651124059,-0.0011550710917363,0.0011550579106794,-5.6076160408851e-09,8.8924633593484e-09,-1.7879184472422e-08,2.0902645796225e-08,-0.0018142866301995,0.0018142896978806,-0.0019876078691717,0.0019875932621436,-0.0019875950811545,0.0019876061362651,-0.0019876031251115,0.0019875980448792,-0.0019875903007064,0.0019876109585154,-0.0015436993115478,0.0015436690879508,-0.0015436616723053,0.001543707610761,-0.0016697847006523,0.0016697864197474,-0.0016697705263699,0.0016698009278933,-4.7073890955716e-09,2.3933908238501e-09,-0.0008778638552424,0.00087786148399109,1.7757527841067e-08,-2.0839365755058e-08,-0.0010410289039356,0.001041037234476,-0.0010410417965684,0.0010410243895634,-0.0010410265459607,0.0010410395509939,-0.0010410393976795,0.0010410267502827,-0.00093059613980321,0.000930587898558,-0.00093060319026811,0.00093058093120025,0.7022850516948,128566,2924,0.0051906458669931,0.0075286277726203,0.0036561056421643,21.504071282391,-6.7967429740869e-05,-6.7967429740869e-05,-6.7967429740869e-05,3751673.6377477,0.016511453814177
27219200,0.99400709761258,0.016716263763652,0.005409304532868,0.0070960519284459,0.0042109073023383,-0.0012499911023474,0.0012499899978485,3.163075919485e-09,-4.2705715535247e-09,6.6939626562895e-09,-8.0482510034564e-09,-0.0014104111321401,0.0014104174648927,-0.0014104135672554,0.0014104148846233,-0.0014104159025059,0.0014104124764743,-0.0014104183610515,0.0014104099995509,-0.0011560894972078,0.0011560907033592,-0.0011560967142328,0.0011560834239632,-5.6326611893612e-09,8.9199209657727e-09,-1.7787163602362e-08,2.0812748628933e-08,-0.0018155159397744,0.0018155190095822,-0.0019888693653986,0.0019888548010734,-0.001988856635621,0.0019888676155508,-0.001988864604038,0.0019888596014746,-0.0019888518361525,0.0019888724570423,-0.0015448451262425,0.0015448150969203,-0.00154480766053,0.0015448534439222,-0.001670957865864,0.0016709594721901,-0.0016709436360048,0.0016709740357223,-4.7232451482408e-09,2.4150580425013e-09,-0.00087867583870515,0.00087867347343713,1.7698007474726e-08,-2.0772977308867e-08,-0.0010419753728192,0.0010419836553054,-0.0010419882244893,0.001041970851911,-0.0010419730034621,0.0010419859836373,-0.0010419858118641,0.0010419732256649,-0.00093147340903739,0.0009314652550022,-0.00093148050039661,0.00093145824909794,0.68191771970655,128566,2924,0.0051945989928167,0.007533705186132,0.0036594861284524,21.943840762236,-6.4449273902113e-05,-6.4449273902113e-05,-6.4449273902113e-05,3756609.9957914,0.016524071169075
27419200,0.99418682276103,0.016719246220016,0.0054102564640286,0.0070973266091864,0.0042116631468008,-0.0012507064553841,0.0012507053410875,3.1858364745076e-09,-4.3032979322516e-09,6.7041678844569e-09,-8.0678585619884e-09,-0.0014111738513896,0.0014111802023785,-0.001411176304888,0.0014111776039783,-0.0014111786315059,0.0014111752043924,-0.0014111811087578,0.0014111727089322,-0.0011568388277271,0.001156840069148,-0.0011568460997944,0.0011568327348431,-5.6453243303933e-09,8.934036928775e-09,-1.7766200481123e-08,2.0793047318383e-08,-0.0018164318737633,0.0018164349448718,-0.0019898497632427,0.0019898352030739,-0.0019898370456664,0.0019898480056698,-0.0019898449925554,0.0019898400131428,-0.0019898322370181,0.0019898528561155,-0.0015456651874061,0.0015456352077448,-0.0015456277630119,0.00154567351686,-0.0016718173725306,0.0016718189407148,-0.0016718031148987,0.0016718335292285,-4.7542166346401e-09,2.4481212996446e-09,-0.00087927682378018,0.0008792744603546,1.7681686648375e-08,-2.0754961000352e-08,-0.0010426376882103,0.0010426459393083,-0.0010426505283153,0.0010426331478191,-0.0010426352974392,0.001042648289266,-0.0010426480944182,0.0010426355427171,-0.00093212425375758,0.00093211617588245,-0.00093213140740992,0.00093210910776939,0.70214877778068,128566,2924,0.0051975637125157,0.0075374891288416,0.0036619872958043,22.252127362043,-6.1982981103654e-05,-6.1982981103654e-05,-6.1982981103654e-05,3762755.9354389,0.016533474123876
27619200,0.99436399573215,0.016722230945621,0.0054112096082263,0.0070985994138053,0.0042124219235894,-0.0012513532476854,0.0012513521325487,3.2230701348316e-09,-4.3414039193477e-09,6.7071531121573e-09,-8.0714147993477e-09,-0.0014118961625159,0.001411902540308,-0.0014118986416728,0.0014118999159484,-0.0014119009451138,0.0014118975393798,-0.0014119034468132,0.0014118950194755,-0.0011575420016956,0.0011575433120165,-0.0011575493447871,0.0011575359049739,-5.6432988565642e-09,8.9311380948618e-09,-1.7770966997568e-08,2.0796830169702e-08,-0.0018173128772464,0.0018173159474356,-0.001990760097035,0.0019907455348387,-0.0019907473770135,0.0019907583396386,-0.0019907553280303,0.0019907503424915,-0.0019907425689336,0.0019907631892315,-0.0015464724407158,0.0015464424481323,-0.0015464350038478,0.0015464807665064,-0.001672650892051,0.0016726524656809,-0.0016726366362842,0.0016726670502596,-4.7775113962842e-09,2.468894681453e-09,-0.00087980774129522,0.00087980537540441,1.7693557821601e-08,-2.0770120803603e-08,-0.0010432796919011,0.0010432879358502,-0.0010432925414879,0.0010432751345373,-0.0010432772868978,0.0010432902996683,-0.0010432900920906,0.0010432775446411,-0.00093270599355636,0.0009326979495312,-0.00093271319233931,0.00093269083622098,0.71252806503364,128566,2924,0.0052002446956524,0.0075411274622745,0.0036641989432911,22.519135412742,-5.984691669806e-05,-5.984691669806e-05,-5.984691669806e-05,3764629.3663647,0.016542147240432
27819200,0.99453854727892,0.016725219654734,0.005412164559063,0.0070998707910877,0.0042131843045834,-0.0012519990385263,0.0012519979254209,3.2455707880182e-09,-4.3617651469674e-09,6.6939597880205e-09,-8.0564195602067e-09,-0.0014126335636669,0.0014126399476583,-0.0014126360561512,0.0014126373100548,-0.0014126383363823,0.0014126349570631,-0.0014126408528745,0.0014126324218736,-0.0011582616478047,0.0011582630144487,-0.0011582690360199,0.0011582555635842,-5.6409447274224e-09,8.928698693325e-09,-1.7798689753304e-08,2.0824632490831e-08,-0.0018182127645794,0.001818215834774,-0.0019916728120618,0.0019916582319888,-0.0019916600726095,0.0019916710565019,-0.0019916680440006,0.0019916630391535,-0.0019916552672084,0.0019916759037831,-0.0015473055445805,0.0015472754980143,-0.001547268056627,0.0015473138695414,-0.0016735090685833,0.001673510667318,-0.0016734948208434,0.0016735252461677,-4.8162964810699e-09,2.5068237890371e-09,-0.00088033397354576,0.00088033160684965,1.7703562477877e-08,-2.0780481952425e-08,-0.0010439450361376,0.0010439532593518,-0.0010439578917818,0.0010439404522566,-0.001043942604869,0.001043955649951,-0.0010439554176858,0.0010439428872083,-0.00093328653935101,0.00093327856027119,-0.00093329381109156,0.00093327137464439,0.72383355809649,128566,2924,0.0052029217138658,0.0075448430150963,0.0036663923032184,22.785125301264,-5.7718997589886e-05,-5.7718997589886e-05,-5.7718997589886e-05,3764624.8406536,0.016550876737636
28019200,0.99471042156605,0.016728214141686,0.0054131219227185,0.0071011413774947,0.0042139508414727,-0.0012526436844695,0.0012526425733018,3.2816466280658e-09,-4.3958612420016e-09,6.6850254251319e-09,-8.0455354672377e-09,-0.0014133865497814,0.0014133929531065,-0.0014133890660726,0.0014133902914672,-0.0014133913163901,0.0014133879685437,-0.0014133938558903,0.0014133854103604,-0.0011589993934829,0.0011590008358885,-0.0011590068490137,0.0011589933175865,-5.6263411676688e-09,8.9125673137158e-09,-1.7818656110875e-08,2.0843205182507e-08,-0.0018191344399716,0.0018191375087569,-0.0019925909654791,0.0019925763824661,-0.0019925782142622,0.0019925892189676,-0.001992586208132,0.0019925811786967,-0.0019925734186346,0.0019925940562834,-0.001548168041959,0.0015481379448565,-0.0015481305151334,0.0015481763552998,-0.0016743943400246,0.0016743959791257,-0.0016743801216992,0.0016744105290712,-4.8424396109703e-09,2.5299787658624e-09,-0.00088085492022206,0.00088085255048479,1.7729627140385e-08,-2.0809923176648e-08,-0.0010446339598508,0.0010446421826594,-0.00104464683438,0.001044629356567,-0.0010446315125809,0.0010446445891468,-0.0010446443435175,0.0010446318083599,-0.0009338657655341,0.00093385781439123,-0.00093387308659927,0.00093385057926269,0.7361250910505,128566,2924,0.0052055941730145,0.0075486477157734,0.0036685649099223,23.051077282639,-5.5591381738886e-05,-5.5591381738886e-05,-5.5591381738886e-05,3762863.2431768,0.016559671629925
28219200,0.99487890118048,0.016731204530695,0.0054140785643533,0.0071024068925847,0.0042147190737566,-0.0012531582793405,0.0012531571719681,3.3125371654031e-09,-4.4232412640013e-09,6.6657296063118e-09,-8.0215391064865e-09,-0.0014140236777871,0.0014140300893598,-0.0014140262131097,0.0014140274085389,-0.0014140284296903,0.0014140251196401,-0.0014140309890004,0.0014140225417535,-0.0011596233365051,0.0011596248544831,-0.0011596308492924,0.0011596172775426,-5.6149514643223e-09,8.9000193095193e-09,-1.7866668512188e-08,2.0890134403322e-08,-0.0018199461985727,0.0018199492663094,-0.001993383458461,0.0019933688502342,-0.0019933706759818,0.0019933817193876,-0.0019933787083908,0.0019933736389932,-0.001993365888045,0.001993386548226,-0.0015489331049753,0.0015489029067903,-0.0015488954876521,0.0015489414114275,-0.0016751736931191,0.0016751753873784,-0.0016751594975682,0.0016751899107879,-4.8746341753235e-09,2.5589248810352e-09,-0.00088125498859816,0.00088125261521772,1.7761860153747e-08,-2.0847103379839e-08,-0.0010452245439505,0.0010452327657054,-0.0010452374411709,0.0010452199169102,-0.0010452220758802,0.001045235192862,-0.0010452349303101,0.0010452223888059,-0.0009343250592113,0.00093431714138096,-0.00093433243875765,0.00093430984662536,0.74948916581022,128566,2924,0.0052077278558048,0.007551997156182,0.0036702363808556,23.250908415973,-5.3992732672218e-05,-5.3992732672218e-05,-5.3992732672218e-05,3758512.7414597,0.016566946988411
28419200,0.99504389391219,0.01673419174328,0.0054150347847646,0.0071036675667894,0.0042154893917257,-0.0012536482706181,0.0012536471673668,3.3423442195938e-09,-4.448935948521e-09,6.6446729251929e-09,-7.9960532651791e-09,-0.0014146511977955,0.0014146576157905,-0.0014146537507248,0.0014146549169928,-0.0014146559334867,0.0014146526619336,-0.0014146585121249,0.0014146500651543,-0.0011602415322598,0.0011602431262749,-0.0011602491024481,0.0011602354937058,-5.6054914731421e-09,8.8898326631261e-09,-1.7916194927014e-08,2.0939114269138e-08,-0.0018207600192475,0.0018207630863728,-0.001994161481277,0.0019941468459544,-0.0019941486660277,0.0019941597487239,-0.0019941567372944,0.0019941516286573,-0.0019941438855723,0.001994164570445,-0.0015497109787354,0.0015496806787797,-0.001549673269097,0.0015497192798509,-0.0016759592015087,0.0016759609492467,-0.0016759450271395,0.0016759754509051,-4.9078965768859e-09,2.5897015747898e-09,-0.0008816297331579,0.00088162735719175,1.7789708919751e-08,-2.0877662974719e-08,-0.0010458163579604,0.0010458245744005,-0.0010458292736596,0.0010458117070776,-0.001045813868047,0.0010458270237552,-0.0010458267422828,0.0010458141997229,-0.00093476452137566,0.00093475664210817,-0.00093477196142442,0.00093474928672093,0.76402416133665,128566,2924,0.0052097597618568,0.0075553541672118,0.0036718038247869,23.441529945546,-5.246776043563e-05,-5.246776043563e-05,-5.246776043563e-05,3752462.362386,0.016574021233132
28619200,0.99520540484618,0.016737135479949,0.0054159771898426,0.0071049091459966,0.0042162491441102,-0.001254126431,0.0012541253286033,3.3758740559825e-09,-4.4814836131951e-09,6.6450477110339e-09,-7.9958238213649e-09,-0.0014152835829334,0.0014152900252729,-0.0014152861589963,0.0014152873029679,-0.0014152883200939,0.0014152850700147,-0.001415290919202,0.001415282452089,-0.0011608677197567,0.0011608693751446,-0.0011608753498238,0.0011608616807941,-5.5776437695174e-09,8.8588060286744e-09,-1.79299835059e-08,2.0949997523486e-08,-0.0018215931624673,0.0018215962266966,-0.0019949425637785,0.0019949279395216,-0.0019949297424806,0.0019949408480067,-0.0019949378405655,0.0019949327007602,-0.0019949249804017,0.0019949456508525,-0.001550518317697,0.0015504879676267,-0.0015504805791038,0.0015505265949815,-0.0016767663805423,0.0016767681875531,-0.0016767522612404,0.0016767826351629,-4.9376352809808e-09,2.6133335083302e-09,-0.00088199003503657,0.00088198765297672,1.7840871541033e-08,-2.0935672132606e-08,-0.0010464218157309,0.001046430046521,-0.0010464347692888,0.0010464171411095,-0.0010464193090719,0.0010464325122665,-0.0010464322188793,0.0010464196527256,-0.00093519448744673,0.00093518662136565,-0.00093520198352406,0.00093517921025002,0.76896079011306,128566,2924,0.0052117428095622,0.0075587900157018,0.0036733125117382,23.631912484624,-5.0944700123005e-05,-5.0944700123005e-05,-5.0944700123005e-05,3744944.5806085,0.016581066667901
28819200,0.99536346428512,0.016739942224491,0.0054168747340925,0.0071060983370514,0.0042169691533468,-0.0012545919262229,0.0012545908276344,3.4033673144169e-09,-4.5051642040366e-09,6.6202476652245e-09,-7.9672093061658e-09,-0.0014159053723789,0.0014159118161855,-0.0014159079641035,0.0014159090784545,-0.0014159100902859,0.0014159068803782,-0.0014159127078057,0.0014159042441336,-0.0011614841193284,0.0011614858514646,-0.0011614918039489,0.0011614781032481,-5.5814796299227e-09,8.8630776874723e-09,-1.7976158229e-08,2.0996589971765e-08,-0.0018224217085915,0.0018224247731981,-0.0019957201961001,0.0019957055352796,-0.00199570734167,0.0019957184776707,-0.0019957154681862,0.0019957103014159,-0.0019957025777352,0.0019957232825256,-0.0015513212242262,0.0015512907901571,-0.0015512833981153,0.0015513295051066,-0.0016775654003168,0.001677567234952,-0.0016775512775187,0.0016775816880107,-4.9715792010265e-09,2.6477176981337e-09,-0.00088233901368758,0.00088233663209266,1.7841884319181e-08,-2.0936042563916e-08,-0.0010470170408212,0.0010470252478793,-0.0010470299931944,0.0010470123439215,-0.0010470145101166,0.0010470277380904,-0.0010470274212499,0.0010470148769312,-0.00093561405488435,0.00093560625203361,-0.00093562161452131,0.00093559877831028,0.74978434413712,128566,2924,0.0052136733642093,0.0075622065909402,0.0036747744257691,23.824508324084,-4.9403933407327e-05,-4.9403933407327e-05,-4.9403933407327e-05,3737674.6866074,0.016587991660806
29019200,0.99551921255587,0.016742561342423,0.0054177103800223,0.0071072183475761,0.0042176326148241,-0.001255277429142,0.0012552763300322,3.4425734676186e-09,-4.5446113300327e-09,6.6240918645736e-09,-7.9723491147952e-09,-0.0014167171376751,0.0014167236124933,-0.0014167197575837,0.0014167208465234,-0.001416721860369,0.0014167186715439,-0.0014167245030039,0.00141671601122,-0.0011622892655403,0.001162291066155,-0.0011622970241129,0.0011622832479581,-5.5676998552971e-09,8.8481159678367e-09,-1.7948546512166e-08,2.0967972779119e-08,-0.0018234279423078,0.0018234310058274,-0.0019967128542432,0.0019966982240267,-0.0019967000214209,0.0019967111448856,-0.0019967081381851,0.0019967029781616,-0.0019966952655423,0.0019967159412555,-0.0015522743022081,0.0015522439080696,-0.0015522365257344,0.0015522825707083,-0.0016785313533291,0.0016785331917012,-0.0016785172561164,0.0016785476226649,-4.9914997614395e-09,2.6686117863759e-09,-0.00088289429203443,0.00088289191162007,1.7837957963423e-08,-2.0929921628102e-08,-0.0010477683950285,0.0010477765882422,-0.0010477813459009,0.0010477636854544,-0.0010477658522944,0.0010477790897668,-0.001047778758889,0.0010477662336605,-0.00093623990073722,0.00093623214599539,-0.00093624750539263,0.00093622462760766,0.71130253276414,128566,2924,0.0052165152729153,0.0075663592043349,0.0036770914703689,24.140328908174,-4.6877368734611e-05,-4.6877368734611e-05,-4.6877368734611e-05,3735983.0706859,0.016597459963257
29219200,0.99567260233239,0.016745080263638,0.005418513182052,0.0071082999094215,0.0042182671721641,-0.0012559696305214,0.0012559685316282,3.4611739507727e-09,-4.563180632946e-09,6.6224016011732e-09,-7.9697833816472e-09,-0.0014174710265321,0.0014174775106569,-0.0014174736571306,0.0014174747341138,-0.001417475746442,0.0014174725729064,-0.001417478402388,0.0014174698983426,-0.0011630374047478,0.0011630392475116,-0.0011630452026726,0.0011630313870308,-5.5672223165327e-09,8.8472577559368e-09,-1.7925033846344e-08,2.0944048399522e-08,-0.0018243352381395,0.0018243383013012,-0.0019976709670499,0.0019976563504344,-0.001997658147613,0.0019976692572079,-0.0019976662495279,0.0019976611059774,-0.0019976533936147,0.001997674051802,-0.001553092638332,0.0015530622940422,-0.0015530549130673,0.0015531009068021,-0.0016793859413359,0.0016793877686857,-0.0016793718476117,0.0016794021925531,-5.031912729318e-09,2.7105777706674e-09,-0.00088346789245663,0.00088346551347015,1.781921112292e-08,-2.0910312529011e-08,-0.0010484266645497,0.0010484348175267,-0.0010484396013185,0.0010484219290019,-0.0010484240928391,0.0010484373484566,-0.0010484369881854,0.0010484245032615,-0.00093686826605247,0.00093686060275852,-0.00093687594699849,0.00093685300773669,0.6951696701755,128566,2924,0.0052193842194443,0.0075701061126152,0.0036794802858429,24.459070697088,-4.4327434423293e-05,-4.4327434423293e-05,-4.4327434423293e-05,3740726.5982753,0.016606614658664
29419200,0.99582356167488,0.016747395339447,0.0054192488274195,0.0071093063814004,0.0042188401306269,-0.0012566645007033,0.0012566634009674,3.4996813204247e-09,-4.602573013413e-09,6.6261449788965e-09,-7.9744131882686e-09,-0.001418199223212,0.0014182057367365,-0.0014182018812819,0.0014182029328389,-0.0014182039472503,0.0014182007949103,-0.0014182066278766,0.0014181980955359,-0.0011637519050659,0.0011637538165784,-0.0011637597753837,0.0011637458835443,-5.5649279392126e-09,8.8444918513745e-09,-1.7900093900477e-08,2.0918635236994e-08,-0.001825191276509,0.0018251943392066,-0.001998603934886,0.0019985893373923,-0.0019985911332118,0.0019986022260418,-0.0019985992204401,0.0019985940898502,-0.0019985863794009,0.0019986070203908,-0.0015538451340244,0.0015538148331053,-0.0015538074537792,0.0015538533998893,-0.0016801814117579,0.0016801832231954,-0.001680167319191,0.0016801976459048,-5.051848812174e-09,2.7322489822114e-09,-0.00088404755269816,0.00088404517550612,1.7801623228071e-08,-2.0890770102724e-08,-0.0010490434848931,0.0010490516147153,-0.0010490564105696,0.0010490387372296,-0.0010490409006165,0.0010490541582017,-0.0010490537823233,0.0010490413265558,-0.00093748831077366,0.00093748070601457,-0.00093749603595734,0.00093747306652191,0.65089857622666,128566,2924,0.0052222639017085,0.0075736429092086,0.0036818919419552,24.777920570453,-4.1776635436377e-05,-4.1776635436377e-05,-4.1776635436377e-05,3747965.2024987,0.016615589380543
29619200,0.99597194035548,0.016749638075444,0.0054199610380175,0.0071102836890736,0.0042193933483525,-0.0012573477954142,0.0012573466947157,3.5266454893423e-09,-4.6304991785638e-09,6.6291756640244e-09,-7.9782855176775e-09,-0.0014188431183582,0.0014188496510414,-0.0014188457943766,0.0014188468293025,-0.0014188478443895,0.0014188447073046,-0.0014188505435049,0.0014188419893669,-0.0011643784977562,0.0011643804608152,-0.0011643864226984,0.0011643724730295,-5.5685932629453e-09,8.8482962228594e-09,-1.7882100037413e-08,2.0900694347723e-08,-0.001825914428511,0.0018259174913036,-0.0019994737016326,0.0019994591130004,-0.0019994609111486,0.0019994719901826,-0.0019994689842253,0.0019994638684009,-0.0019994561551487,0.0019994767867606,-0.0015544258867397,0.0015543956244351,-0.0015543882425085,0.0015544341551541,-0.0016808336692602,0.0016808354622395,-0.001680819569518,0.0016808498910864,-5.0832789091238e-09,2.7654168469072e-09,-0.00088463189857093,0.00088462952313685,1.7785535643477e-08,-2.087281133318e-08,-0.0010495407471575,0.0010495488454628,-0.0010495536611825,0.0010495359796521,-0.0010495381410013,0.0010495514108698,-0.0010495510116661,0.0010495385902361,-0.00093809629111186,0.00093808876211003,-0.00093810407890606,0.00093808106022734,0.64191386306143,128566,2924,0.0052250948105514,0.007576634286628,0.0036843180427467,25.087542833146,-3.929965733483e-05,-3.929965733483e-05,-3.929965733483e-05,3761842.3053911,0.016623972911993
29819200,0.99611718986555,0.016751962820201,0.0054207011797431,0.0071112859878247,0.004219975652633,-0.0012579403477982,0.0012579392461274,3.5557731813422e-09,-4.6608001228409e-09,6.6323399757612e-09,-7.9818109462722e-09,-0.0014193812234728,0.0014193877769112,-0.0014193839192136,0.0014193849356043,-0.001419385951748,0.001419382831398,-0.0014193886707453,0.0014193800932616,-0.0011648945711116,0.0011648965892035,-0.0011649025540266,0.0011648885417597,-5.5745959760371e-09,8.8546279568999e-09,-1.7883335485847e-08,2.0902210037596e-08,-0.0018265087679106,0.0018265118310518,-0.0020002225446516,0.0020002079514498,-0.002000209753392,0.0020002208299105,-0.0020002178230596,0.0020002127112959,-0.0020002049932959,0.0020002256301563,-0.001554876892043,0.0015548466319228,-0.0015548392475424,0.0015548851662547,-0.0016813621820328,0.0016813639638907,-0.0016813480688824,0.0016813784023629,-5.1130278943458e-09,2.795698475565e-09,-0.0008851363308964,0.00088513395577984,1.7782149806e-08,-2.0869721317041e-08,-0.0010499351722323,0.0010499432487472,-0.0010499480840724,0.001049930385259,-0.0010499325458589,0.0010499458343453,-0.0010499454148419,0.0010499330157189,-0.0009386196941572,0.00093861222637756,-0.00093862753928131,0.00093860446606174,0.67837703768563,128566,2924,0.0052275496114358,0.0075790941789913,0.0036864109192499,25.339794717762,-3.7281642257904e-05,-3.7281642257904e-05,-3.7281642257904e-05,3775266.6816546,0.016631094749728
30019200,0.99625928134772,0.016754272492841,0.0054214370632539,0.0071122792847324,0.0042205561448552,-0.0012585405269797,0.0012585394237672,3.584573355796e-09,-4.6909190104596e-09,6.6379077717351e-09,-7.9896792490774e-09,-0.0014199961852682,0.0014200027615157,-0.0014199989006463,0.0014199999004182,-0.0014200009178469,0.0014199978112324,-0.0014200036564843,0.0014199950536717,-0.0011654785096893,0.0011654805798784,-0.0011654865507979,0.001165472475779,-5.5777380645779e-09,8.858030041792e-09,-1.7881107164568e-08,2.0900153417483e-08,-0.0018272022153163,0.0018272052785751,-0.0020010006343034,0.0020009860401989,-0.0020009878441656,0.0020009989170315,-0.0020009959105556,0.0020009908020538,-0.0020009830820552,0.002001003719828,-0.0015554654330738,0.0015554351792559,-0.0015554277906485,0.0015554737082344,-0.0016820036279247,0.0016820054025999,-0.0016819895099607,0.0016820198499016,-5.1435917117874e-09,2.8257094985953e-09,-0.00088563380079132,0.00088563142533616,1.7785817952088e-08,-2.0873203460608e-08,-0.001050443690543,0.0010504517487669,-0.0010504566046262,0.0010504388828666,-0.0010504410440548,0.0010504543544566,-0.001050453915058,0.0010504415335039,-0.00093914762633307,0.00093914021490424,-0.00093915553180013,0.00093913239536651,0.68873090395458,128566,2924,0.0052300368836692,0.0075819605117345,0.0036884792249665,25.590682348015,-3.5274541215883e-05,-3.5274541215883e-05,-3.5274541215883e-05,3781013.3227211,0.016638639876446
30219200,0.99639820090068,0.016756433027236,0.0054221242151142,0.0071132158919378,0.0042210929201837,-0.0012591374625019,0.0012591363582243,3.6140306738952e-09,-4.721384587935e-09,6.6420532528692e-09,-7.9949545862136e-09,-0.0014206297922143,0.0014206363904965,-0.0014206325275838,0.0014206335093964,-0.0014206345279148,0.0014206314370745,-0.0014206372864779,0.0014206286595597,-0.0011660746029785,0.0011660767277699,-0.001166082702742,0.0011660685650665,-5.5817204287429e-09,8.8622839956014e-09,-1.788174592129e-08,2.0901000918004e-08,-0.0018279185847892,0.0018279216482706,-0.002001780690726,0.0020017660935621,-0.0020017679000704,0.0020017789709104,-0.0020017759642585,0.0020017708581764,-0.0020017631351992,0.0020017837765125,-0.0015560874856524,0.0015560572332176,-0.0015560498416289,0.0015560957637419,-0.0016826694035653,0.0016826711707544,-0.0016826552774064,0.0016826856263954,-5.1734584396532e-09,2.8554009808029e-09,-0.00088612464215542,0.00088612226652478,1.7787402217131e-08,-2.0874986470528e-08,-0.0010509819723632,0.0010509900116985,-0.0010509948875779,0.0010509771446783,-0.0010509793060319,0.0010509926372231,-0.0010509921781278,0.0010509798151597,-0.00093967029966961,0.00093966294533718,-0.00093967826366587,0.00093965506759645,0.66008312988067,128566,2924,0.0052325109716269,0.0075849206338282,0.0036905212637092,25.841519433111,-3.3267844535108e-05,-3.3267844535108e-05,-3.3267844535108e-05,3784535.1510444,0.016646240979588
30419200,0.99653423081886,0.016758432755414,0.0054227587130739,0.007114091659846,0.0042215823824943,-0.0012597978279112,0.0012597967225726,3.6431729223548e-09,-4.7514260136113e-09,6.6451712111876e-09,-7.9996833975752e-09,-0.0014212826259971,0.0014212892457276,-0.0014212853812304,0.0014212863449161,-0.0014212873643337,0.0014212842897527,-0.0014212901426568,0.0014212814925602,-0.0011666878065173,0.0011666899860984,-0.0011666959646839,0.0011666817659236,-5.5832323946122e-09,8.8639481178224e-09,-1.7873252693987e-08,2.089262659901e-08,-0.0018286266929621,0.0018286297565254,-0.0020025986788258,0.0020025840861794,-0.0020025858936877,0.0020025969579134,-0.0020025939513429,0.0020025888519116,-0.0020025811276524,0.0020026017646145,-0.0015566738404247,0.0015566436055892,-0.0015566362116327,0.0015566821185308,-0.0016833184910118,0.0016833202495381,-0.0016833043628913,0.0016833347098086,-5.2033553442314e-09,2.8858129556957e-09,-0.00088668371068856,0.00088668133573337,1.7783210545889e-08,-2.0869617045169e-08,-0.0010515115436606,0.0010515195602907,-0.001051524455712,0.001051506696435,-0.0010515088571726,0.0010515222057983,-0.00105152172612,0.0010515093870026,-0.0009402532202024,0.00094024592830667,-0.00094026124360539,0.00094023799179505,0.62526527772997,128566,2924,0.0052352473931716,0.0075878488957593,0.0036928437419933,26.129468242774,-3.0964254057807e-05,-3.0964254057807e-05,-3.0964254057807e-05,3793367.587696,0.016654360423697
30619200,0.99666815903196,0.016760525813599,0.0054234247259671,0.0071149975581268,0.0042221035295049,-0.0012606709358916,0.0012606698301632,3.6748313112532e-09,-4.7829752416619e-09,6.6431915583521e-09,-7.9992420425289e-09,-0.0014220937365037,0.0014221003762642,-0.0014220965127758,0.0014220974546717,-0.0014220984743233,0.001422095421307,-0.001422101272745,0.0014220926023379,-0.0011674630741933,0.0011674653168651,-0.0011674712935006,0.0011674570347717,-5.5865238113558e-09,8.8668296858513e-09,-1.7848682890695e-08,2.0867670104944e-08,-0.0018294611539685,0.0018294642170743,-0.0020035952738015,0.0020035806952214,-0.0020035825041771,0.0020035935489897,-0.0020035905442814,0.0020035854629724,-0.0020035777366971,0.0020035983581301,-0.0015573528917504,0.0015573227069616,-0.0015573153074651,0.0015573611675664,-0.0016840912549992,0.0016840929899067,-0.0016840771237982,0.0016841074602869,-5.230804632351e-09,2.9147770395705e-09,-0.0008874468737796,0.00088744450119706,1.7753165274252e-08,-2.083591065955e-08,-0.0010521572101517,0.001052165189328,-0.0010521701014209,0.0010521523462069,-0.0010521545048932,0.0010521678540099,-0.0010521673528018,0.00105215505564,-0.00094103874884682,0.00094103153485415,-0.00094104682828683,0.00094102354393519,0.66318230618012,128566,2924,0.0052388648516771,0.0075913023015575,0.0036960105677804,26.523701444455,-2.7810388444356e-05,-2.7810388444356e-05,-2.7810388444356e-05,3809162.6804104,0.016664766542796
30819200,0.99679990630318,0.016762678355617,0.0054241110614935,0.0071159222204193,0.0042226450737044,-0.0012615629753035,0.0012615618697585,3.7034137736962e-09,-4.8119158480713e-09,6.6441819010574e-09,-7.9986573589788e-09,-0.0014230005162928,0.0014230071753586,-0.0014230033118309,0.0014230042344009,-0.0014230052540475,0.0014230022200572,-0.0014230080724159,0.0014229993825613,-0.0011683254691986,0.0011683277672176,-0.0011683337452007,0.0011683194286207,-5.5833749431987e-09,8.8637400117093e-09,-1.7827048901658e-08,2.0846045939841e-08,-0.0018304194643232,0.0018304225275384,-0.0020046399398116,0.0020046253774626,-0.0020046271848477,0.0020046382180824,-0.0020046352123044,0.002004630143144,-0.0020046224188885,0.0020046430248779,-0.0015581981464304,0.0015581680020873,-0.0015581606082594,0.0015582064238245,-0.001685003447572,0.0016850051748638,-0.0016849893187233,0.0016850196345748,-5.2602122151846e-09,2.9473477299149e-09,-0.00088821001733827,0.00088820764714144,1.7737965500947e-08,-2.0819161600858e-08,-0.001052936206344,0.0010529441563558,-0.0010529490865489,0.0010529313242909,-0.00105293348044,0.0010529468414229,-0.0010529463174627,0.0010529340543521,-0.00094183892576217,0.00094183178667706,-0.00094184706504963,0.00094182373406572,0.69236328549144,128566,2924,0.0052425616404126,0.0075952640079894,0.0036991822071951,26.920470861892,-2.4636233104863e-05,-2.4636233104863e-05,-2.4636233104863e-05,3816661.7168692,0.016675777248614
31019200,0.99692937676116,0.016764856174987,0.0054248063673021,0.0071168534609263,0.0042231963467582,-0.0012624601415311,0.0012624590362765,3.73346727202e-09,-4.8417121918128e-09,6.642441030714e-09,-7.9966611503733e-09,-0.0014239656651708,0.0014239723432829,-0.0014239684807032,0.0014239693823952,-0.0014239704017064,0.001423967389223,-0.0014239732400094,0.0014239645318016,-0.0011692468765242,0.0011692492346183,-0.0011692552110883,0.0011692408374151,-5.5812408395117e-09,8.8613542099469e-09,-1.7813562850294e-08,2.0832306937911e-08,-0.0018314632568943,0.0018314663198568,-0.0020057126964679,0.0020056981443176,-0.0020056999504037,0.0020057109758707,-0.0020057079704407,0.0020057029084946,-0.0020056951858907,0.0020057157812012,-0.0015591600377321,0.0015591299182966,-0.0015591225259608,0.0015591683131785,-0.0016860108899354,0.0016860126123993,-0.0016859967655837,0.0016860270678422,-5.2895244318911e-09,2.977716254045e-09,-0.00088896265657538,0.00088896028744598,1.7725586153246e-08,-2.0805545388485e-08,-0.0010537999656966,0.0010538078882169,-0.0010538128372663,0.0010537950647839,-0.0010537972199134,0.0010538105931658,-0.0010538100482756,0.0010537978147321,-0.00094263825274576,0.00094263118183252,-0.00094264645043761,0.00094262307070687,0.71215832491035,128566,2924,0.0052462803107866,0.0075995763395813,0.0037023137289414,27.317334384869,-2.146132492105e-05,-2.146132492105e-05,-2.146132492105e-05,3818414.5255437,0.016687127489289
31219200,0.99705759146318,0.016767117296529,0.0054255296512688,0.007117813249781,0.0042237743954789,-0.0012636483922669,0.0012636472842844,3.7635842907745e-09,-4.8737524887023e-09,6.6591839280021e-09,-8.0185716591988e-09,-0.0014252592937575,0.0014252660035535,-0.001425262130619,0.0014252630216244,-0.0014252640431249,0.0014252610364151,-0.0014252669025887,0.0014252581586964,-0.001170505954416,0.0011705083605317,-0.0011705143524,0.0011704999039872,-5.5589196517028e-09,8.8370483781204e-09,-1.7750192481275e-08,2.0767174561719e-08,-0.0018328646958511,0.001832867756897,-0.0020071055698587,0.0020070910736401,-0.0020070928656582,0.0020071038619279,-0.002007100859,0.0020070958218453,-0.0020070881161197,0.0020071086520676,-0.0015604913035565,0.0015604612922626,-0.0015604539118512,0.0015604995560549,-0.0016873856206556,0.0016873873441624,-0.0016873715479855,0.0016874017608708,-5.3179561912101e-09,3.00672460747e-09,-0.00088996777678696,0.00088996540892882,1.7717866455018e-08,-2.0793845340186e-08,-0.0010549867281076,0.0010549946258921,-0.0010549995932982,0.0010549818088048,-0.0010549839631982,0.0010549973491554,-0.0010549967848537,0.0010549845775651,-0.00094370928066207,0.00094370227028873,-0.0009437175366953,0.00094369410510304,0.74546030025319,128566,2924,0.0052512055240206,0.0076053650767989,0.0037064968602391,27.866827742302,-1.706537806158e-05,-1.706537806158e-05,-1.706537806158e-05,3819006.6468423,0.016702275778902
31419200,0.99718450488522,0.016769252841136,0.0054262116207283,0.0071187274729484,0.0042243137474592,-0.0012648563769454,0.0012648552740169,3.7929743323407e-09,-4.8986648509143e-09,6.6268524740073e-09,-7.9789344996751e-09,-0.0014266295809527,0.0014266362888743,-0.0014266324356734,0.0014266332897173,-0.0014266343064192,0.0014266313464515,-0.0014266371838119,0.0014266284502182,-0.0011718412373341,0.001171843724799,-0.0011718496877272,0.0011718352143402,-5.5880725192792e-09,8.8689325187289e-09,-1.7767694390133e-08,2.0787126908424e-08,-0.0018343813751523,0.001834384438774,-0.0020085621812308,0.0020085476532212,-0.0020085494637702,0.0020085604556202,-0.0020085574497852,0.0020085524229511,-0.0020085446939256,0.0020085652661809,-0.0015619660255984,0.0015619360012898,-0.0015619286009636,0.0015619743051048,-0.0016888795727081,0.0016888812524492,-0.0016888654358304,0.0016888957234129,-5.3472054403549e-09,3.0427679124058e-09,-0.0008909713837214,0.00089096902230911,1.765235520993e-08,-2.0722834473189e-08,-0.0010562720535175,0.0010562798900374,-0.0010562848729648,0.0010562671189854,-0.0010562692667203,0.0010562826360782,-0.0010562820431274,0.0010562699096032,-0.00094478989566382,0.00094478300361082,-0.00094479821399113,0.00094477477353636,0.71242630544258,128566,2924,0.0052562130089986,0.0076116271621534,0.0037106775278715,28.43492203437,-1.2520623725039e-05,-1.2520623725039e-05,-1.2520623725039e-05,3814904.2826576,0.016717988235339
31619200,0.99730993173066,0.016771265902063,0.0054268533172415,0.007119596504719,0.0042248160801022,-0.0012660447837462,0.0012660436790357,3.8240751114244e-09,-4.9316689680315e-09,6.6422804094077e-09,-7.9962555978803e-09,-0.0014279230567322,0.0014279297956309,-0.0014279259327125,0.0014279267745786,-0.0014279277932587,0.0014279248416358,-0.0014279306918134,0.0014279219242279,-0.0011731108959373,0.0011731134313497,-0.001173119407578,0.0011731048579488,-5.5684237565942e-09,8.8470628074806e-09,-1.7730387489362e-08,2.0747795100337e-08,-0.0018357989163154,0.0018358019779216,-0.0020099815973763,0.0020099671091009,-0.0020099689066262,0.0020099798839034,-0.0020099768805693,0.0020099718638439,-0.0020099641510647,0.0020099846800202,-0.0015633024670139,0.0015632725015824,-0.0015632651174964,0.0015633107297241,-0.001690263617774,0.0016902653097108,-0.0016902495207372,0.0016902797393626,-5.3759462752208e-09,3.0695202906013e-09,-0.00089197094689292,0.00089196858347481,1.76637233467e-08,-2.0736571730556e-08,-0.0010574484113829,0.0010574562365101,-0.0010574612396443,0.0010574434561994,-0.0010574456061008,0.0010574590006918,-0.0010574583912358,0.0010574462655894,-0.00094585818527459,0.00094585133734711,-0.00094586655768032,0.00094584305157053,0.68057767372302,128566,2924,0.0052611384992838,0.0076174819334692,0.0037148380916036,29.003507227243,-7.9719421820585e-06,-7.9719421820585e-06,-7.9719421820585e-06,3817407.3070353,0.016733181344075
31819200,0.99743156845866,0.016773151185678,0.0054274534562029,0.0071204155718234,0.0042252821576513,-0.0012666439343155,0.0012666428307223,3.8550003603668e-09,-4.9621835501614e-09,6.6358914682509e-09,-7.9867335354787e-09,-0.0014285597232944,0.001428566477943,-0.0014285626194779,0.0014285634362996,-0.0014285644544623,0.0014285615293168,-0.0014285673733151,0.0014285585912102,-0.001173730213098,0.0011737328139073,-0.0011737387830011,0.0011737241781991,-5.5776134646785e-09,8.8568667028607e-09,-1.7813599194655e-08,2.0831468575052e-08,-0.0018365146592805,0.0018365177214909,-0.002010757526049,0.0020107429754336,-0.0020107447798765,0.0020107558074175,-0.0020107528023739,0.0020107477369426,-0.0020107400176073,0.0020107606102077,-0.0015639224468742,0.0015638923241787,-0.0015638849384234,0.0015639307221362,-0.0016909353290845,0.0016909370582572,-0.0016909212082999,0.0016909515017067,-5.4078311406141e-09,3.0957019868162e-09,-0.00089245072575349,0.00089244835571444,1.771877501438e-08,-2.080118660202e-08,-0.0010579800844794,0.0010579879237346,-0.0010579929523257,0.0010579751040219,-0.0010579772600208,0.0010579907076345,-0.0010579900846625,0.001057977932744,-0.00094637348983514,0.0009463666549251,-0.00094638191791106,0.00094635831131027,0.6580565365218,128566,2924,0.0052636214580423,0.0076204388923599,0.0037168347916976,29.265789177885,-5.8736865769178e-06,-5.8736865769178e-06,-5.8736865769178e-06,3821396.0922578,0.016740742939873
32019200,0.99754781349721,0.016775122407463,0.0054280832734602,0.0071212583091523,0.0042257808248502,-0.0012667843258531,0.001266783221029,3.8844339947152e-09,-4.9925316071046e-09,6.639649463307e-09,-7.9927520801457e-09,-0.0014286802686388,0.001428687045507,-0.0014286831844918,0.0014286839836682,-0.0014286850030238,0.0014286820934816,-0.0014286879416726,0.0014286791354068,-0.0011738380144824,0.0011738406699292,-0.0011738466435201,0.0011738319764483,-5.5808716656721e-09,8.8604307295115e-09,-1.7930625703987e-08,2.0948785714329e-08,-0.0018366766591102,0.001836679721547,-0.0020110130312296,0.0020109984018327,-0.0020110002088983,0.0020110113115102,-0.0020110083056615,0.0020110031654241,-0.0020109954447188,0.002011016116431,-0.0015639880275448,0.0015639576773245,-0.0015639502894233,0.0015639963053329,-0.0016910562842879,0.001691058084605,-0.001691042159269,0.0016910725375848,-5.4436607669591e-09,3.1196321418933e-09,-0.00089252961923051,0.00089252723732909,1.7830186059026e-08,-2.0925451735668e-08,-0.0010580111204659,0.0010580190067571,-0.0010580240667712,0.001058006108509,-0.0010580082760036,0.0010580218104996,-0.0010580211791686,0.0010580089572204,-0.00094646235202984,0.00094645548490775,-0.00094647083909677,0.00094644708321972,0.717663394032,128566,2924,0.0052642029516216,0.0076211096425436,0.0037171621293619,29.28099176605,-5.7520658715984e-06,-5.7520658715984e-06,-5.7520658715984e-06,3825641.3975528,0.016742347896639
32219200,0.9976588629511,0.016777047998351,0.0054286990354543,0.0071220787764095,0.0042262701864867,-0.0012669178950643,0.0012669167891803,3.9129698333914e-09,-5.0219274365926e-09,6.6449702316398e-09,-7.9995164903211e-09,-0.0014288918109518,0.0014288986100668,-0.0014288947459214,0.0014288955287001,-0.0014288965491759,0.0014288936539597,-0.0014288995071709,0.0014288906766117,-0.001174028578099,0.0011740312857781,-0.0011740372643553,0.0011740225359831,-5.5825572811777e-09,8.8622466690946e-09,-1.8021175050002e-08,2.1039457074911e-08,-0.0018369762828657,0.0018369793454153,-0.0020112987291223,0.0020112840386588,-0.0020112858475609,0.0020112970090267,-0.0020112940023567,0.002011288803487,-0.0020112810821149,0.0020113018151529,-0.001564256193393,0.0015642256667099,-0.0015642182783915,0.0015642644734382,-0.0016913339347415,0.0016913357919302,-0.0016913198070129,0.0016913502490395,-5.4791016463399e-09,3.1457734476142e-09,-0.00089258222203679,0.00089257983077635,1.7921327275695e-08,-2.1027128397382e-08,-0.0010581895078975,0.0010581974287011,-0.0010582025182093,0.001058184466421,-0.0010581866428514,0.001058200252877,-0.0010581996100634,0.0010581873355821,-0.00094654043335386,0.0009465335530094,-0.00094654898130532,0.00094652509146294,0.73340852605526,128566,2924,0.0052647574335878,0.007622344435883,0.0037173864742907,29.290210847811,-5.6783132175121e-06,-5.6783132175121e-06,-5.6783132175121e-06,3818970.9193311,0.016744396947772
32419200,0.99776494439196,0.016778933446849,0.005429302492939,0.0071228790316776,0.004226751922232,-0.0012670383188875,0.0012670372124558,3.9425558537426e-09,-5.0519703135303e-09,6.6477273801425e-09,-8.0029004798249e-09,-0.0014291130113657,0.0014291198318117,-0.0014291159660215,0.0014291167303929,-0.0014291177515231,0.0014291148735982,-0.0014291207293537,0.0014291118763286,-0.001174237266189,0.0011742400299838,-0.0011742460108506,0.0011742312217616,-5.5847563343511e-09,8.8645738756471e-09,-1.8090862800207e-08,2.1109241915973e-08,-0.0018373021724665,0.001837305235123,-0.002011586879045,0.0020115721409142,-0.0020115739518802,0.0020115851580594,-0.0020115821507184,0.0020115769073303,-0.0020115691848639,0.0020115899657744,-0.0015645642238179,0.0015645335617536,-0.0015645261728006,0.0015645725064967,-0.0016916435002376,0.0016916453993372,-0.0016916293681824,0.0016916598611785,-5.5123696010083e-09,3.1723822033756e-09,-0.00089262245871185,0.00089262006062614,1.7989094827501e-08,-2.1102845317533e-08,-0.0010583940317865,0.0010584019738045,-0.0010584070898291,0.0010583889638942,-0.0010583911468469,0.0010584048179175,-0.0010584041616324,0.001058391852999,-0.00094661410636735,0.00094660723030635,-0.00094662271324139,0.00094659871045175,0.75109426260646,128566,2924,0.0052652576771878,0.0076236864009285,0.003717561216551,29.299206785763,-5.6063457138936e-06,-5.6063457138936e-06,-5.6063457138936e-06,3810287.4909347,0.016746449954409
32619200,0.99786601855871,0.016780595188055,0.0054298327174044,0.0071235938072336,0.0042271686634166,-0.001267048754622,0.0012670476495301,3.9690899110534e-09,-5.0773536018845e-09,6.6405989906783e-09,-7.9938758568151e-09,-0.0014292489516986,0.0014292557847033,-0.0014292519229307,0.0014292526663884,-0.0014292536858762,0.0014292508323533,-0.0014292566814355,0.0014292478172731,-0.0011743635633406,0.0011743663856295,-0.0011743723595991,0.0011743575246358,-5.5887885348172e-09,8.8689715803003e-09,-1.814060945948e-08,2.1159282298568e-08,-0.0018375582523486,0.0018375613153202,-0.0020117835526049,0.0020117687782265,-0.0020117705923315,0.0020117818295159,-0.0020117788209549,0.0020117735481012,-0.002011765822915,0.0020117866395756,-0.0015648181053998,0.0015647873500409,-0.0015647799597187,0.0015648263932006,-0.001691883430136,0.0016918853561422,-0.0016918692901247,0.0016918998235227,-5.5474445212344e-09,3.2048807806766e-09,-0.00089255918759014,0.00089255678658435,1.8021789136595e-08,-2.1139671667268e-08,-0.0010585336743726,0.001058541613777,-0.0010585467549607,0.0010585285813347,-0.0010585307664405,0.0010585444810201,-0.0010585438047318,0.0010585314925609,-0.00094658360806307,0.00094657677175681,-0.00094659227924027,0.00094656818669414,0.69653887107875,128566,2924,0.0052653023520492,0.0076247382786159,0.0037173077793895,29.262906492706,-5.8967480583482e-06,-5.8967480583482e-06,-5.8967480583482e-06,3798967.8068979,0.016747310108879
32819200,0.99796221010464,0.016782054474984,0.0054302967325666,0.007124230353125,0.0042275273892923,-0.0012669985621731,0.00126699745695,4.0010183711205e-09,-5.1093157380276e-09,6.6396540908274e-09,-7.9933872226837e-09,-0.0014292291992702,0.0014292360535542,-0.0014292321921692,0.001429232913498,-0.0014292339333658,0.0014292311012574,-0.0014292369500474,0.0014292280651272,-0.0011743439165537,0.0011743468010201,-0.0011743527749201,0.0011743378783717,-5.5809346843351e-09,8.86028239869e-09,-1.8143907133739e-08,2.1161834567715e-08,-0.0018376091344239,0.0018376121966396,-0.00201186963142,0.0020118548609586,-0.0020118566700214,0.0020118679133626,-0.0020118649057435,0.0020118596246748,-0.0020118519060126,0.0020118727179906,-0.0015648145446547,0.0015647837765841,-0.0015647763920546,0.0015648228253918,-0.0016919023131036,0.0016919042555767,-0.0016918881896512,0.0016919187082474,-5.5755354364439e-09,3.2323451830688e-09,-0.00089246673353606,0.00089246433196391,1.8033058543646e-08,-2.1151271070814e-08,-0.0010584762766783,0.0010584842050654,-0.0010584893652298,0.0010584711645911,-0.0010584733504974,0.0010584870903786,-0.0010584863962788,0.0010584740945888,-0.0009465046038681,0.0009464978139762,-0.00094651333008461,0.00094648917388214,0.64446136150482,128566,2924,0.0052650946623504,0.0076249465500895,0.0037169269984797,29.204436514076,-6.3645078873881e-06,-6.3645078873881e-06,-6.3645078873881e-06,3797281.3638108,0.016746923782137
33019200,0.99805376565932,0.016783557344588,0.0054307761734747,0.0071248760999346,0.0042279050711789,-0.0012669602759943,0.0012669591711025,4.0323427637443e-09,-5.140231926427e-09,6.6378975163572e-09,-7.9909845168494e-09,-0.0014291232049155,0.0014291300788519,-0.0014291262187179,0.0014291269179059,-0.0014291279378315,0.0014291251277968,-0.0014291309750204,0.001429122071095,-0.0011742428231721,0.0011742457700504,-0.0011742517419219,0.0011742367868922,-5.5748074900461e-09,8.8533983155822e-09,-1.8129094198322e-08,2.1146316089794e-08,-0.001837519267766,0.0018375223293018,-0.0020118981209629,0.0020118833640812,-0.0020118851694803,0.002011896406323,-0.0020118933995284,0.0020118881233229,-0.0020118804094227,0.0020119012068316,-0.0015646294080632,0.0015645986641487,-0.0015645912845996,0.0015646376838038,-0.0016917730701212,0.0016917750139399,-0.0016917589579784,0.0016917894535875,-5.6035581429007e-09,3.2615696534743e-09,-0.00089240906870008,0.000892406668309,1.8024694488927e-08,-2.1141667572648e-08,-0.0010582900685191,0.0010582979731293,-0.0010583031512642,0.0010582849385378,-0.0010582871234658,0.0010583008774102,-0.001058300162989,0.0010582878877921,-0.00094644061744757,0.00094643389139694,-0.00094644940067889,0.00094642519508228,0.69524135950625,128566,2924,0.0052649353026915,0.0076245781818397,0.0037166838979217,29.145423970838,-6.8366082332973e-06,-6.8366082332973e-06,-6.8366082332973e-06,3804682.5975713,0.016746137672024
33219200,0.998140921592,0.016785060173761,0.0054312565256069,0.0071255165503579,0.0042282870977959,-0.0012669335897476,0.0012669324850856,4.0622068572917e-09,-5.1698989746846e-09,6.6341877734152e-09,-7.9873939261866e-09,-0.0014291177329175,0.0014291246246915,-0.001429120766632,0.0014291214439891,-0.0014291224634398,0.0014291196760968,-0.00142912552049,0.0014291165995808,-0.0011742275744984,0.0011742305824121,-0.0011742365518597,0.0011742215411874,-5.5713714390151e-09,8.8496359732251e-09,-1.8101930006758e-08,2.1118866973463e-08,-0.0018375649029934,0.0018375679642122,-0.0020119690249247,0.0020119542881158,-0.0020119560912923,0.0020119673121127,-0.0020119643058921,0.0020119590450392,-0.0020119513336292,0.0020119721102864,-0.0015646350454142,0.0015646043524517,-0.0015645969745365,0.0015646433175089,-0.0016917957563436,0.0016917976889198,-0.0016917816522234,0.0016918121224147,-5.6320023059253e-09,3.2930805933652e-09,-0.0008923448664194,0.00089234246923942,1.7999402958536e-08,-2.1112548674959e-08,-0.0010582535344379,0.0010582614040675,-0.0010582665991035,0.0010582483875605,-0.0010582505694,0.0010582643283378,-0.0010582635908338,0.0010582513567872,-0.00094638488432179,0.00094637823794512,-0.000946393726138,0.00094636948284081,0.72922791271557,128566,2924,0.0052648250984849,0.0076247657443205,0.0037164191575339,29.086391156062,-7.3088707515059e-06,-7.3088707515059e-06,-7.3088707515059e-06,3802434.2213082,0.016745947342746
33419200,0.99822524472636,0.016786542120607,0.0054317305376962,0.0071261462335618,0.0042286653493488,-0.0012674376857202,0.0012674365787968,4.0934988540008e-09,-5.203117206132e-09,6.64955898435e-09,-8.0059348074224e-09,-0.001429709508896,0.0014297164316469,-0.0014297125647891,0.0014297132294253,-0.0014297142511145,0.0014297114715855,-0.0014297173293748,0.0014297083739688,-0.0011748053692497,0.0011748084265761,-0.0011748144098562,0.0011747993243288,-5.5744151263267e-09,8.8529533925861e-09,-1.7982900493969e-08,2.1000103045502e-08,-0.0018382580473092,0.0018382611087551,-0.002012628539465,0.0020126138797402,-0.0020126156838534,0.0020126268237681,-0.0020126238187253,0.0020126186384982,-0.0020126109237031,0.0020126316243669,-0.0015653086812534,0.0015652782230055,-0.001565270838901,0.0015653169517339,-0.0016924735094865,0.0016924753559785,-0.0016924593996314,0.0016924897985539,-5.6545773446906e-09,3.3254510982682e-09,-0.00089275509905556,0.0008927527123118,1.7906044139731e-08,-2.1006321314266e-08,-0.0010588146031196,0.0010588223984229,-0.0010588276018946,0.0010588094478093,-0.0010588116199987,0.0010588253405456,-0.0010588245748659,0.0010588124356011,-0.0009468347526811,0.00094682823643203,-0.00094684365022475,0.0009468194272742,0.74278653086488,128566,2924,0.0052669151751487,0.0076276266181184,0.003718129728954,29.31184862986,-5.5052109611207e-06,-5.5052109611207e-06,-5.5052109611207e-06,3798796.6751563,0.016752722500709
33619200,0.99830712622348,0.016787981694594,0.0054321909740837,0.0071267581078903,0.0042290326126204,-0.0012680811995053,0.0012680800895973,4.1294390496481e-09,-5.2420044231013e-09,6.6685391192331e-09,-8.0283102972195e-09,-0.0014304648738097,0.0014304718334044,-0.0014304679556964,0.0014304686055741,-0.0014304696308245,0.0014304668585885,-0.0014304727329286,0.0014304637367312,-0.0011755542694074,0.0011755573811564,-0.0011755633809543,0.0011755482079641,-5.5669103480631e-09,8.8444534174898e-09,-1.7845236577331e-08,2.0861535189243e-08,-0.0018391281123994,0.0018391311729558,-0.0020134475537389,0.0020134329900267,-0.0020134347883266,0.0020134458408871,-0.0020134428389612,0.0020134377424942,-0.0020134300328826,0.002013450637479,-0.0015661628837011,0.0015661326865445,-0.0015661253070208,0.0015661711456319,-0.0016933308262468,0.0016933325928372,-0.0016933167295407,0.0016933470233115,-5.6723995262113e-09,3.3522395770603e-09,-0.00089327950502658,0.0008932771275783,1.7815055780804e-08,-2.0904322644503e-08,-0.0010595323084779,0.0010595400345212,-0.0010595452441026,0.0010595271471815,-0.0010595293116418,0.0010595429908001,-0.0010595422011844,0.0010595301505341,-0.00094740841574197,0.00094740201840684,-0.00094741735997432,0.000947393163571,0.74303042697707,128566,2924,0.0052695831754353,0.0076312174320441,0.0037203163936754,29.61360483012,-3.0911613590387e-06,-3.0911613590387e-06,-3.0911613590387e-06,3794672.6721447,0.01676131222817
33819200,0.99838657645406,0.016789382771418,0.0054326391384078,0.0071273535065257,0.0042293901264846,-0.0012687121001493,0.0012687109892473,4.1628090112039e-09,-5.2765248510707e-09,6.6741452682485e-09,-8.0345496899045e-09,-0.0014312088219624,0.0014312158070887,-0.0014312119271093,0.0014312125567442,-0.0014312135833256,0.0014312108285173,-0.0014312167076467,0.0014312076844317,-0.0011762978176516,0.0011763009900619,-0.0011763069941405,0.0011762917512995,-5.5673725317084e-09,8.8450495128089e-09,-1.7741573914978e-08,2.0757939727367e-08,-0.0018399912558125,0.0018399943164829,-0.0020142657250955,0.0020142512276257,-0.002014253026336,0.0020142640107096,-0.0020142610095038,0.0020142559809963,-0.0020142482691158,0.0020142688083427,-0.0015670048698621,0.0015669748748113,-0.0015669674933817,0.0015670131313934,-0.001694179265275,0.0016941809608801,-0.0016941651644084,0.0016941953928983,-5.6937939393693e-09,3.3824110486707e-09,-0.00089379284987701,0.00089379048128401,1.7729059003329e-08,-2.0808539138713e-08,-0.0010602381337936,0.001060245790823,-0.0010602510095129,0.0010602329639395,-0.001060235120196,0.0010602487640299,-0.0010602479487289,0.001060235984671,-0.00094797481068846,0.00094796853471758,-0.00094798380722296,0.00094795962845072,0.74517769375786,128566,2924,0.0052721987961482,0.0076347791853478,0.0037224577399905,29.917269175296,-6.6184659762816e-07,-6.6184659762816e-07,-6.6184659762816e-07,3791035.6073238,0.01676977306396
34019200,0.9984635997592,0.016790701682014,0.0054330605264672,0.0071279169048156,0.0042297242507316,-0.0012693308694253,0.0012693297611038,4.1791762756291e-09,-5.2903954931157e-09,6.6544689793162e-09,-8.0118631083169e-09,-0.0014319411190699,0.0014319481007148,-0.0014319442329134,0.0014319448425156,-0.0014319458647025,0.0014319431381808,-0.0014319490007675,0.0014319399827715,-0.0011770317433165,0.0011770349671857,-0.0011770409549835,0.0011770256948028,-5.5902067093164e-09,8.8701689126049e-09,-1.7696812533584e-08,2.07152574074e-08,-0.0018408462556768,0.0018408493184272,-0.002015078110857,0.0020150636253195,-0.0020150654379929,0.002015076381948,-0.0020150733775973,0.0020150683968612,-0.0020150606662778,0.0020150811944243,-0.0015678374081632,0.0015678075215746,-0.0015678001213317,0.0015678456875968,-0.0016950183829002,0.0016950200095389,-0.0016950042390274,0.0016950344843037,-5.7329674493606e-09,3.4325492547145e-09,-0.00089429446441318,0.00089429210709005,1.7623075682076e-08,-2.0689643816543e-08,-0.0010609313086272,0.0010609388698344,-0.0010609441077454,0.0010609261196793,-0.0010609282636921,0.0010609418747284,-0.0010609410187266,0.0010609291687778,-0.00094853068121143,0.00094852457422146,-0.00094853976024666,0.000948515584947,0.7242654541584,128566,2924,0.0052747640990652,0.0076383070947181,0.003724550548081,30.221005141078,1.7680411286231e-06,1.7680411286231e-06,1.7680411286231e-06,3787692.2172517,0.016778098995199
34219200,0.99853949188548,0.016791967286311,0.0054334644469208,0.0071284599928103,0.0042300428465802,-0.0012705286702511,0.0012705275593044,4.212472252787e-09,-5.3254410238246e-09,6.6680553164431e-09,-8.0306786512209e-09,-0.0014332265387894,0.0014332335540901,-0.0014332296778661,0.0014332302712891,-0.0014332312964176,0.0014332285784538,-0.001433234456143,0.0014332254037482,-0.0011783212001143,0.0011783244753814,-0.0011783304810625,0.0011783151459205,-5.5680336104541e-09,8.8471976193622e-09,-1.7570167719084e-08,2.0588016109064e-08,-0.0018422495123305,0.0018422525742592,-0.0020164741616332,0.0020164597778194,-0.002016461575978,0.0020164724479913,-0.0020164694459175,0.0020164645319956,-0.0020164568172246,0.0020164772457963,-0.0015691806684363,0.001569151011239,-0.0015691436224147,0.0015691889263093,-0.0016963999641624,0.0016964015474637,-0.0016963858669531,0.0016964159870193,-5.7536719223605e-09,3.4629216012306e-09,-0.00089532343012431,0.00089532108302948,1.7550162360263e-08,-2.0601910570213e-08,-0.0010621150741564,0.0010621225753852,-0.0010621278208903,0.0010621098771429,-0.0010621120132154,0.0010621255942033,-0.0010621247136311,0.0010621129444893,-0.0009496295486863,0.00094962355553415,-0.00094963868378665,0.0009496145133984,0.70594348954802,128566,2924,0.0052797283748937,0.0076441026045209,0.0037288326107858,30.832526157791,6.6602092623317e-06,6.6602092623317e-06,6.6602092623317e-06,3792529.2004994,0.016793395223221
34419200,0.99861425790606,0.016793219066517,0.0054338640365823,0.0071289969082647,0.0042303581216699,-0.0012717920979946,0.0012717909897689,4.2432166709816e-09,-5.3540813606364e-09,6.6553141737425e-09,-8.0131939117206e-09,-0.0014345504147706,0.0014345574411441,-0.001434553572865,0.0014345541396805,-0.0014345551623292,0.0014345524770155,-0.0014345583403215,0.0014345492800328,-0.0011796462270822,0.0011796495735303,-0.0011796555622188,0.0011796401793565,-5.5699739443547e-09,8.8479956559239e-09,-1.7520277047857e-08,2.0536980687043e-08,-0.0018436719415444,0.0018436750024935,-0.0020179209905802,0.0020179066361857,-0.0020179084350198,0.0020179192725178,-0.0020179162723378,0.0020179113924103,-0.0020179036762526,0.0020179240716639,-0.0015705219416494,0.0015704923849048,-0.001570484996216,0.0015705302007195,-0.0016977957688061,0.0016977973149078,-0.0016977816652769,0.0016978117519718,-5.7820716087475e-09,3.4946176558083e-09,-0.00089641346059988,0.00089641111688369,1.7485165526313e-08,-2.053492953625e-08,-0.0010633114342179,0.0010633188749515,-0.0010633241370543,0.0010633062209553,-0.0010633083531841,0.0010633219156016,-0.0010633210101028,0.0010633093078925,-0.00095078411524423,0.00095077822906177,-0.00095079330652398,0.00095076912894423,0.70867958749226,128566,2924,0.0052849641300282,0.0076499788862682,0.0037333664072089,31.476354839745,1.1810838717958e-05,1.1810838717958e-05,1.1810838717958e-05,3800900.0530814,0.016809305078976
34619200,0.9986877627254,0.016794498988476,0.0054342732722002,0.0071295424565509,0.0042306832597254,-0.0012730639959654,0.0012730628899047,4.274196962702e-09,-5.383062564518e-09,6.6415412574368e-09,-7.9972605875315e-09,-0.0014358863613813,0.0014358933997717,-0.0014358895389622,0.0014358900788722,-0.0014358910985704,0.0014358884458979,-0.0014358942970872,0.001435885228472,-0.0011809821949318,0.001180985612872,-0.0011809915902833,0.0011809761587234,-5.5716241648239e-09,8.8497542871989e-09,-1.7501563394781e-08,2.0518338241675e-08,-0.0018451044188908,0.0018451074798813,-0.0020193723648802,0.0020193580215811,-0.002019359821127,0.0020193706455461,-0.0020193676452833,0.0020193627793384,-0.0020193550621054,0.0020193754453042,-0.0015718752836974,0.0015718457662485,-0.0015718383761424,0.0015718835437224,-0.0016992037265774,0.0016992052588619,-0.0016991896220307,0.0016992196983349,-5.8110299389213e-09,3.5252669717151e-09,-0.00089750596669797,0.00089750362483511,1.7452305511664e-08,-2.0499816488818e-08,-0.0010645184896247,0.0010645258889912,-0.0010645311693476,0.0010645132579228,-0.001064515388222,0.0010645289501163,-0.001064528023108,0.0010645163643837,-0.00095194102249045,0.00095193521743342,-0.00095195026966815,0.0009519260595758,0.7361373895599,128566,2924,0.0052902349809154,0.0076558965753366,0.0037379106678672,32.121052367421,1.6968418939366e-05,1.6968418939366e-05,1.6968418939366e-05,3808575.3752979,0.016825303765058
34819200,0.99876100245204,0.01679578528151,0.005434684719065,0.0071300902859358,0.0042310102765091,-0.0012748794959631,0.0012748783877842,4.324066407335e-09,-5.4344996913065e-09,6.6636803900757e-09,-8.0226992756912e-09,-0.0014378232171374,0.0014378303058023,-0.0014378264315009,0.0014378269490914,-0.001437827973398,0.0014378253333195,-0.0014378312029996,0.0014378220857542,-0.0011829163019473,0.0011829197934321,-0.0011829257901796,0.0011829102509749,-5.5303907766521e-09,8.8040806186746e-09,-1.7424024592538e-08,2.0436802538064e-08,-0.001847172805432,0.0018471758626548,-0.0020214126184519,0.0020213983574397,-0.0020214001307322,0.0020214109252695,-0.0020214079309802,0.0020214030830098,-0.0020213953974641,0.0020214156978727,-0.0015738733005691,0.0015738438982885,-0.0015738365369253,0.0015738815220881,-0.0017012550412296,0.0017012565918785,-0.0017012410122621,0.0017012709519678,-5.8211084453019e-09,3.5334348352771e-09,-0.00089907198282722,0.0008990696396116,1.7460182729344e-08,-2.0507844769874e-08,-0.0010663065090467,0.001066313908924,-0.0010663191973071,0.0010663012695706,-0.0010663034038203,0.0010663169732818,-0.0010663160417425,0.0010663043850613,-0.00095360140958617,0.00095359562254815,-0.00095361068463391,0.00095358643946557,0.74236047569283,128566,2924,0.0052977589208492,0.0076644398943148,0.0037444259999578,33.051727695564,2.4413821564514e-05,2.4413821564514e-05,2.4413821564514e-05,3815450.8634944,0.01684826954691
35019200,0.99883412941609,0.016797031873247,0.0054350830672806,0.0071306242887017,0.0042313245172647,-0.0012768760087863,0.0012768748917582,4.4121854725492e-09,-5.531361953688e-09,6.7343889916052e-09,-8.1038158444592e-09,-0.0014399630970152,0.0014399702988731,-0.0014399663807216,0.0014399668686914,-0.0014399679105431,0.0014399652676125,-0.0014399711936928,0.001439961961247,-0.0011850512171304,0.0011850548122785,-0.0011850608608224,0.0011850451006576,-5.4396569059802e-09,8.7048873246087e-09,-1.7297388186488e-08,2.0302635977231e-08,-0.001849457932208,0.0018494609809153,-0.0020236642606856,0.0020236501426636,-0.0020236518594146,0.0020236626132581,-0.0020236596392872,0.0020236547956593,-0.002023647181853,0.0020236673329026,-0.0015760820767371,0.0015760528318841,-0.0015760455433975,0.0015760902304623,-0.0017035212357887,0.0017035228604412,-0.0017035073853378,0.0017035370743738,-5.797318458963e-09,3.4916268642714e-09,-0.00090079295099681,0.00090079059011146,1.7558003992295e-08,-2.0624227693411e-08,-0.0010682853279302,0.001068292812938,-0.0010682980951572,0.0010682800939295,-0.0010682822544985,0.0010682958455036,-0.0010682949548063,0.0010682831921518,-0.00095543018333471,0.00095542425972417,-0.00095543941705199,0.00095541512445936,0.7213648842574,128566,2924,0.0053060329050039,0.0076738777443905,0.003751586872075,34.083776851218,3.2670214809743e-05,3.2670214809743e-05,3.2670214809743e-05,3822728.7475613,0.016873565150949
35219200,0.99890686411903,0.016798237459689,0.0054354679433334,0.0071311435399612,0.0042316259763947,-0.0012788695688197,0.001278868463092,4.3911059467679e-09,-5.4994867404361e-09,6.6511227528463e-09,-8.0069386192273e-09,-0.0014420695374234,0.0014420766608802,-0.0014420727950797,0.0014420732612099,-0.0014420742835816,0.0014420716996247,-0.0014420775551135,0.0014420684076677,-0.0011871545848394,0.0011871582228133,-0.001187164201395,0.0011871485500883,-5.5118211668821e-09,8.7840838527974e-09,-1.7425029081793e-08,2.0436511412369e-08,-0.0018516932974994,0.0018516963532016,-0.0020259045860177,0.0020258903187467,-0.0020258920860885,0.0020259028972247,-0.0020258999052223,0.0020258950368931,-0.002025887360542,0.0020259076621608,-0.00157821604325,0.0015781866169361,-0.0015781792717256,0.0015782242559843,-0.0017057302856412,0.0017057318720406,-0.0017057162886237,0.0017057462038737,-5.8774342817388e-09,3.584758885188e-09,-0.00090251361283592,0.00090251126460539,1.7473096316725e-08,-2.0526909856546e-08,-0.0010702085670164,0.0010702159346891,-0.0010702212664012,0.0010702032874557,-0.0010702054280666,0.0010702190365848,-0.0010702180723311,0.0010702064379548,-0.00095725459364624,0.00095724890000687,-0.00095726398271802,0.00095723961450187,0.70214229421315,128566,2924,0.0053142941410303,0.0076831112881008,0.0037587447709058,35.118340813949,4.0946726511596e-05,4.0946726511596e-05,4.0946726511596e-05,3833498.3096942,0.016898636699269
35419200,0.99897806741132,0.016799381757649,0.0054358328523792,0.0071316393777011,0.004231909527569,-0.001280441044649,0.0012804399432,4.3966308707978e-09,-5.5012201986609e-09,6.6217844147742e-09,-7.9712197833544e-09,-0.0014437129136055,0.0014437200196553,-0.0014437161705957,0.0014437166196555,-0.001443717635241,0.0014437150821431,-0.0014437209132479,0.0014437117845014,-0.0011887956388965,0.0011887993143509,-0.0011888052708814,0.001188789624637,-5.5487403690847e-09,8.824345125549e-09,-1.7582564288318e-08,2.0597047240404e-08,-0.0018534356975851,0.0018534387563855,-0.0020276860152408,0.0020276716251346,-0.0020276734139085,0.0020276843082759,-0.0020276813087511,0.0020276763694668,-0.0020276686684182,0.0020276890934528,-0.0015798486228053,0.0015798189256705,-0.0015798115578349,0.0015798568691367,-0.00170744101699,0.0017074426466967,-0.0017074269529381,0.0017074570382834,-5.9357245663654e-09,3.6386055035655e-09,-0.00090385691955567,0.00090385456600777,1.7523819250763e-08,-2.0585495061969e-08,-0.001071678096656,0.0010716854562512,-0.0010716908287523,0.0010716727744242,-0.0010716749162599,0.0010716885980856,-0.0010716876020234,0.0010716759599466,-0.00095867779383898,0.0009586721607489,-0.00095868727620491,0.00095866277091827,0.68162297642375,128566,2924,0.0053208058517598,0.0076903092154888,0.0037643321821944,35.930426777728,4.7443414221825e-05,4.7443414221825e-05,4.7443414221825e-05,3844195.2175438,0.016918261466927
35619200,0.99904693354498,0.016800447388307,0.0054361721854049,0.0071321044612617,0.0042321707416399,-0.0012816988380876,0.0012816977348944,4.42652786123e-09,-5.5328774363431e-09,6.6301077655824e-09,-7.9814162907404e-09,-0.0014449976718907,0.0014450048036993,-0.0014450009492142,0.001445001382039,-0.0014450023996854,0.0014449998590777,-0.0014450056986113,0.0014449965409651,-0.0011900759457613,0.0011900796711381,-0.0011900856371267,0.0011900699212042,-5.5581274953144e-09,8.8344287138552e-09,-1.7735461239951e-08,2.075051527712e-08,-0.0018547864342304,0.0018547894936497,-0.0020291081737701,0.0020290936824504,-0.0020290954763967,0.0020291064639708,-0.0020291034628314,0.0020290984311678,-0.0020290907261518,0.0020291112541627,-0.0015810809896606,0.0015810510013886,-0.0015810436293948,0.001581089245054,-0.0017087577279016,0.001708759441225,-0.0017087436468657,0.0017087738499771,-5.9719265248947e-09,3.6602597300704e-09,-0.00090492181261852,0.00090491944409535,1.7662594724414e-08,-2.0741674473696e-08,-0.0010727902933434,0.001072797718205,-0.0010728031233593,0.0010727849371645,-0.0010727870931664,0.0010728008784834,-0.0010727998782524,0.0010727881423786,-0.00095980176543778,0.00095979607599424,-0.00095981130189282,0.00095978662774624,0.65729899358188,128566,2924,0.0053260172600733,0.0076958905821656,0.0037687598065747,36.574733656585,5.2597869252677e-05,5.2597869252677e-05,5.2597869252677e-05,3855591.8339356,0.016933739729047
35819200,0.99911334961796,0.016801538207508,0.0054365204633742,0.0071325753500452,0.0042324423940891,-0.0012829660587225,0.0012829649523961,4.4584261232085e-09,-5.5677457989315e-09,6.6463518735199e-09,-8.0011737305759e-09,-0.0014462438077997,0.0014462509713537,-0.0014462471075523,0.0014462475261796,-0.0014462485477378,0.0014462460138979,-0.0014462518685256,0.0014462426741275,-0.0011913186800879,0.0011913224545437,-0.0011913284350413,0.0011913126403022,-5.5600281563093e-09,8.8367484240485e-09,-1.7859631936033e-08,2.0875059849663e-08,-0.0018560656958759,0.0018560687555741,-0.0020304939100476,0.002030479336739,-0.0020304811326167,0.0020304922001074,-0.0020304891983628,0.0020304840859156,-0.0020304763806255,0.0020304969922305,-0.0015822230814347,0.0015821928496342,-0.0015821854775435,0.001582231340155,-0.0017100060220961,0.001710007812703,-0.0017099919362713,0.0017100222275297,-6.0057235198168e-09,3.67925644672e-09,-0.00090599727639459,0.00090599489283396,1.7800177767376e-08,-2.0896272331713e-08,-0.0010738397472097,0.0010738472378511,-0.0010738526748367,0.001073834359078,-0.0010738365300144,0.001073850414801,-0.0010738494116376,0.0010738375823368,-0.00096092686513184,0.00096092111612834,-0.00096093645510153,0.0009609116151524,0.6961923532249,128566,2924,0.0053312672074641,0.0077011790317886,0.0037732280898821,37.214947198432,5.7719577587459e-05,5.7719577587459e-05,5.7719577587459e-05,3870417.2020171,0.016948999697036
36019200,0.99917723014464,0.01680264909707,0.005436876022012,0.0071330504412855,0.0042327226337726,-0.0012842441037998,0.0012842429955463,4.4871176132767e-09,-5.5982113288778e-09,6.6543537215174e-09,-8.0116308374714e-09,-0.0014475705293627,0.0014475777169202,-0.0014475738486323,0.0014475742517806,-0.0014475752754169,0.0014475727532461,-0.0014475786155091,0.0014475693937104,-0.0011926337404247,0.001192637565095,-0.0011926435527665,0.0011926276930245,-5.5680186772044e-09,8.8452435298818e-09,-1.7972637596552e-08,2.0988446264609e-08,-0.0018574533318424,0.0018574563919825,-0.0020319152625066,0.0020319006091649,-0.0020319024109241,0.0020319135482333,-0.0020319105454363,0.0020319053638975,-0.0020318976533965,0.0020319183461337,-0.0015835169234779,0.0015834864750464,-0.0015834790982055,0.001583525189395,-0.0017113735590643,0.0017113754085845,-0.0017113594577176,0.0017113898412132,-6.0416037299473e-09,3.703855529268e-09,-0.00090706425369451,0.00090706185861304,1.7910042401646e-08,-2.1019289060849e-08,-0.0010750052599307,0.0010750127967074,-0.0010750182650381,0.0010749998405227,-0.0010750020226922,0.0010750159938251,-0.0010750149814836,0.0010750030840564,-0.00096205576302902,0.00096204998506181,-0.00096206541304202,0.00096204042507949,0.7358631007358,128566,2924,0.0053365629442093,0.0077069119867553,0.0037776655420862,37.855007008073,6.2840056064586e-05,6.2840056064586e-05,6.2840056064586e-05,3877548.7677782,0.01696472925632
36219200,0.99923642508981,0.016803646125406,0.0054371948086419,0.0071334794858013,0.0042329718309629,-0.0012842328381069,0.0012842317280456,4.5194990300062e-09,-5.6327933124233e-09,6.6671736369219e-09,-8.0257174909574e-09,-0.0014476566121831,0.0014476638297188,-0.0014476599536498,0.001447660341119,-0.0014476613674586,0.0014476588564241,-0.0014476647291715,0.0014476554746644,-0.0011927074634808,0.0011927113407579,-0.0011927173384062,0.0011927014025467,-5.5613675382157e-09,8.8375463977886e-09,-1.8155533599676e-08,2.117079412783e-08,-0.0018576135824643,0.0018576166418899,-0.0020320468143752,0.0020320320446679,-0.0020320338438921,0.0020320451056036,-0.0020320421023205,0.0020320367940978,-0.0020320290905557,0.002032049899187,-0.001583657260188,0.0015836264465469,-0.0015836190797715,0.0015836655260525,-0.0017115188428866,0.0017115208249786,-0.0017115047527236,0.0017115352432718,-6.0777916190884e-09,3.7201334201752e-09,-0.00090696854257467,0.0009069661266813,1.8105232745538e-08,-2.1239536383395e-08,-0.0010750674596291,0.0010750750977862,-0.0010750806033425,0.0010750620030223,-0.0010750642054509,0.0010750783119348,-0.0010750773018294,0.0010750652644293,-0.00096198780920846,0.00096198192658249,-0.00096199751107684,0.00096197231335603,0.71361055360904,128566,2924,0.005336517021658,0.007707568933254,0.0037772761504214,37.827190853194,6.2617526825554e-05,6.2617526825554e-05,6.2617526825554e-05,3868461.324682,0.016964957031068
36419200,0.99929042734812,0.016804543611223,0.0054374816049764,0.0071338664389616,0.0042331955672848,-0.0012836430767435,0.0012836419684611,4.5462700429643e-09,-5.6579930338722e-09,6.6533945743371e-09,-8.0093225641053e-09,-0.0014471033355658,0.001447110561432,-0.0014471066934867,0.0014471070555311,-0.0014471080802681,0.0014471055985593,-0.0014471114594429,0.0014471021988764,-0.0011921619526305,0.0011921658939538,-0.0011921718785606,0.0011921559023717,-5.5592753977762e-09,8.8355238110478e-09,-1.8337027752448e-08,2.1351870864531e-08,-0.0018570858935316,0.0018570889527949,-0.0020315295484571,0.0020315146584026,-0.0020315164585189,0.0020315278421063,-0.0020315248368276,0.0020315194073129,-0.0020315117064638,0.0020315326343228,-0.0015831015390317,0.0015830703682759,-0.0015830630083279,0.0015831098081048,-0.0017109735187273,0.0017109756267428,-0.0017109594317903,0.0017109900384392,-6.1191913017113e-09,3.7461703533999e-09,-0.0009063560584265,0.00090635362633071,1.8261726026805e-08,-2.141579821879e-08,-0.0010745044628762,0.0010745121734192,-0.0010745177167433,0.0010744989688405,-0.0010745011860463,0.0010745154106848,-0.001074514393032,0.001074502252258,-0.0009613776013084,0.00096137165846537,-0.00096138736806046,0.00096136198052437,0.70434020223734,128566,2924,0.0053340735284032,0.0077053849966825,0.0037747364168552,37.496304115743,5.9970432925943e-05,5.9970432925943e-05,5.9970432925943e-05,3859013.2063038,0.016957668896497
36619200,0.99933973494535,0.01680531791311,0.0054377284755342,0.0071342034849926,0.0042333859525832,-0.0012830391195129,0.0012830380128597,4.5743649559303e-09,-5.6840720207175e-09,6.6400248681364e-09,-7.9952055107245e-09,-0.0014465079239417,0.0014465151602651,-0.0014465112996325,0.0014465116367489,-0.0014465126593507,0.0014465102067068,-0.0014465160569983,0.0014465067889729,-0.0011915779179775,0.0011915819246464,-0.0011915878997086,0.0011915718814191,-5.5578691557359e-09,8.8339712804766e-09,-1.8424920609852e-08,2.1439727743917e-08,-0.0018564993617864,0.0018565024209647,-0.0020309676428145,0.0020309526958594,-0.0020309544957629,0.0020309659384884,-0.0020309629322342,0.0020309574440827,-0.0020309497451014,0.0020309707292082,-0.0015824842866643,0.0015824529437718,-0.0015824455838611,0.0015824925536087,-0.0017103699492574,0.0017103721191963,-0.0017103558682983,0.0017103865290608,-6.1546551649212e-09,3.7759585359171e-09,-0.00090574175447467,0.0009057393169348,1.8329443095448e-08,-2.1488981371866e-08,-0.00107389477206,0.0010739025022494,-0.0010739080725046,0.0010738892510677,-0.001073891473016,0.0010739057615695,-0.0010739047273169,0.0010738925560312,-0.0009607558110625,0.00096074987835564,-0.00096076564157962,0.00096074013771908,0.666752811267,128566,2924,0.0053315710852026,0.0077029593709417,0.0037721868500188,37.157922900506,5.726338320405e-05,5.726338320405e-05,5.726338320405e-05,3851645.2281422,0.016950064379763
36819200,0.99938481222666,0.016806006990868,0.0054379479387481,0.007134504644743,0.0042335544073771,-0.0012824369501272,0.0012824358440479,4.6055661734751e-09,-5.7146457260363e-09,6.6349443575594e-09,-7.9895145111689e-09,-0.0014458448713411,0.001445852125409,-0.0014458482675893,0.0014458485810543,-0.0014458496032083,0.0014458471752631,-0.001445853021395,0.0014458437368961,-0.0011909258898389,0.0011909299608493,-0.0011909359316661,0.0011909198569539,-5.551543195872e-09,8.8269203073495e-09,-1.8446286776954e-08,2.1460440887144e-08,-0.0018558052678649,0.0018558083263531,-0.0020303590135856,0.0020303440571063,-0.0020303458532309,0.0020303573132994,-0.0020303543076283,0.0020303488005485,-0.002030341107155,0.0020303620994381,-0.0015817295682747,0.0015816981791086,-0.0015816908246156,0.00158173783022,-0.0017096522064072,0.0017096544028489,-0.0017096381389798,0.0017096687995873,-6.1842180274983e-09,3.8040317856083e-09,-0.00090515162633765,0.00090514918725575,1.8351220275259e-08,-2.1512643190517e-08,-0.0010731901591592,0.0010731978840174,-0.0010732034747088,0.0010731846175685,-0.0010731868409609,0.0010732011623961,-0.0010732001103714,0.0010731879417869,-0.0009601408996543,0.00096013500674281,-0.00096015078649939,0.0009601252095569,0.64957833981344,128566,2924,0.0053290752739652,0.0077000929656472,0.0037697326285651,36.819259366296,5.455407493037e-05,5.455407493037e-05,5.455407493037e-05,3851088.6401472,0.016942113474277
37019200,0.99942724793716,0.016806697249124,0.0054381683717538,0.0071348026454672,0.004233726231903,-0.0012828354546787,0.001282834342096,4.6303826292244e-09,-5.7454734789006e-09,6.6749118866083e-09,-8.0377121145887e-09,-0.0014461781761908,0.0014461854718112,-0.0014461815914387,0.001446181909478,-0.0014461829371861,0.0014461804926699,-0.0014461863742147,0.0014461770357644,-0.0011912586557888,0.0011912627475653,-0.001191268754223,0.0011912525899522,-5.5878459095549e-09,8.8668741637867e-09,-1.8249834971245e-08,2.1267299883293e-08,-0.0018561352169057,0.0018561382786127,-0.0020307948843785,0.0020307800343488,-0.0020307818509673,0.0020307931602732,-0.0020307901533475,0.0020307848034721,-0.0020307770801242,0.0020307979719772,-0.001581963638413,0.0015819326605571,-0.0015819252715886,0.0015819719228757,-0.0017099544879069,0.0017099564836214,-0.0017099403489259,0.0017099709585534,-6.2065943989412e-09,3.8452751614309e-09,-0.00090550153345038,0.00090549911417336,1.8178657532873e-08,-2.1316087419629e-08,-0.0010734288056868,0.0010734364053898,-0.0010734419983642,0.0010734232618007,-0.0010734254660833,0.0010734397048925,-0.0010734386128551,0.0010734266069776,-0.00096049784305833,0.00096049215210227,-0.00096050779261162,0.00096048229414483,0.68961815865646,128566,2924,0.0053307257747622,0.007701460020094,0.003771182875322,37.016215324873,5.6129722598988e-05,5.6129722598988e-05,5.6129722598988e-05,3861157.0564825,0.016946654879132
37219200,0.99946743668741,0.016807394065662,0.0054383914426814,0.0071351003013449,0.0042339023216356,-0.0012834822906755,0.0012834811714964,4.6541939066665e-09,-5.7758884218936e-09,6.7187445176213e-09,-8.08870642163e-09,-0.0014468483849719,0.0014468557236381,-0.0014468518185886,0.001446852143481,-0.0014468531771944,0.0014468507133951,-0.0014468566325681,0.0014468472377494,-0.0011919140399693,0.0011919181481917,-0.0011919241917787,0.0011919079347878,-5.6115615358235e-09,8.8929679829325e-09,-1.799577248168e-08,2.1015321322065e-08,-0.0018568459161698,0.0018568489798875,-0.0020315373156833,0.0020315226179551,-0.0020315244468441,0.0020315355744679,-0.0020315325678093,0.0020315274036732,-0.0020315196601297,0.0020315404028589,-0.0015826170655286,0.0015825866030779,-0.0015825791919678,0.0015826253646237,-0.0017106447765807,0.0017106465584755,-0.0017106305911789,0.0017106610836928,-6.2281738070139e-09,3.888628186716e-09,-0.00090606479597724,0.00090606239891364,1.7972907999145e-08,-2.1084552348456e-08,-0.001074034047899,0.0010740415018254,-0.0010740470949471,0.0010740285037829,-0.0010740306865957,0.0010740448228781,-0.0010740436881597,0.0010740318700459,-0.00096109216357793,0.00096108670115253,-0.00096110217525904,0.00096107678121777,0.73362543444734,128566,2924,0.0053334062798712,0.0077043966005339,0.0037735250040627,37.342988590234,5.8743908721868e-05,5.8743908721868e-05,5.8743908721868e-05,3865237.504887,0.01695474948706
37419200,0.99950545316456,0.016808009499524,0.0054385879223731,0.0071353664977912,0.0042340550793596,-0.0012841286796593,0.0012841275560627,4.6856016622326e-09,-5.8118513677365e-09,6.7192402114819e-09,-8.0931788474122e-09,-0.0014475958938449,0.0014476032521125,-0.001447599350644,0.0014475996503079,-0.0014476006882166,0.0014475982402014,-0.0014476041659457,0.001447594743021,-0.0011926439199642,0.0011926480862727,-0.001192654137316,0.0011926378097805,-5.6455407750752e-09,8.9300178277911e-09,-1.7805897530876e-08,2.0828104550409e-08,-0.0018576768812055,0.0018576799477877,-0.0020323243432785,0.002032309749911,-0.0020323115984809,0.0020323225806521,-0.0020323195726223,0.0020323145595153,-0.0020323067878937,0.0020323274327885,-0.0015834335555763,0.0015834034895136,-0.0015833960491412,0.0015834418785488,-0.0017114661664027,0.0017114677551283,-0.0017114519079697,0.0017114823487285,-6.2419565429351e-09,3.9265931636749e-09,-0.00090660712307714,0.00090660475055359,1.7747561905107e-08,-2.0831592108156e-08,-0.0010747543255801,0.0010747616271987,-0.0010747672141371,0.0010747487878592,-0.001074750947147,0.0010747649656354,-0.0010747637897009,0.0010747521718937,-0.00096167903939091,0.00096167381317099,-0.00096168910299697,0.00096166384067364,0.68665559323776,128566,2924,0.0053360858986028,0.0077078261737004,0.0037757853095453,37.673049821267,6.1384398570133e-05,6.1384398570133e-05,6.1384398570133e-05,3861733.2408365,0.016963263669284
37619200,0.9995413658139,0.016808571203677,0.0054387669824959,0.0071356109257168,0.0042341932954639,-0.0012847743400611,0.0012847732139393,4.7127284273558e-09,-5.8415410230453e-09,6.7301146157175e-09,-8.1067944206422e-09,-0.0014482582798419,0.0014482656627212,-0.001448261755942,0.0014482620425474,-0.0014482630824291,0.0014482606429096,-0.0014482665792565,0.0014482571267548,-0.001193299055539,0.0011933032667449,-0.0011933093287804,0.0011932929343164,-5.6514277514674e-09,8.9364829808733e-09,-1.7614383902133e-08,2.063706893618e-08,-0.0018583750811416,0.0018583781482191,-0.0020330595436844,0.002033045073482,-0.0020330469238538,0.0020330577760647,-0.0020330547691217,0.0020330498871589,-0.0020330421095698,0.0020330626320752,-0.0015840675814833,0.0015840378958349,-0.0015840304475433,0.001584075905388,-0.0017121436445857,0.0017121450949439,-0.0017121293743704,0.0017121597003347,-6.2642963233231e-09,3.9665462466531e-09,-0.00090715959916496,0.00090715724475768,1.7577416856687e-08,-2.0640357367542e-08,-0.0010753373233319,0.0010753445013723,-0.0010753500917465,0.0010753317820453,-0.0010753339239331,0.0010753478606141,-0.0010753466466748,0.0010753351868072,-0.00096226452981134,0.00096225950166152,-0.00096227465374241,0.00096224946808922,0.66415286158785,128566,2924,0.00533876137988,0.0077107112229273,0.0037780823073298,38.003235430468,6.4025883443743e-05,6.4025883443743e-05,6.4025883443743e-05,3866868.35886,0.016971254816712
37819200,0.99957432978222,0.016809067468366,0.0054389249296676,0.0071358284059318,0.0042343141327664,-0.001284428129024,0.001284427007283,4.7465390396118e-09,-5.8713863249787e-09,6.7018474417308e-09,-8.0725740346986e-09,-0.0014478689915201,0.0014478763791066,-0.0014478724889143,0.0014478727375868,-0.0014478737737172,0.001447871379898,-0.0014478772914919,0.0014478678426352,-0.0011929095562608,0.0011929138530288,-0.0011929198900471,0.0011929034580142,-5.6341035904145e-09,8.9173873661136e-09,-1.7637943370702e-08,2.0659004753586e-08,-0.0018579597171293,0.0018579627826751,-0.0020327208470287,0.0020327063724686,-0.0020327082125086,0.0020327190903367,-0.0020327160845595,0.0020327111737948,-0.0020327034098799,0.0020327239341473,-0.0015835947180821,0.0015835649735346,-0.0015835575416847,0.0015836030312167,-0.0017117058260215,0.0017117073252882,-0.0017116915879659,0.0017117218919004,-6.2922191724499e-09,3.9938449810292e-09,-0.00090681503059974,0.00090681267515486,1.7580644096244e-08,-2.0645908099152e-08,-0.0010749082268968,0.0010749153886623,-0.0010749209984317,0.0010749026662646,-0.0010749048093097,0.0010749187663714,-0.0010749175348614,0.0010749060897379,-0.00096190070562711,0.00096189572983376,-0.00096191088340157,0.00096188564068912,0.6401614160977,128566,2924,0.005337326333813,0.0077089965310015,0.0037766486608711,37.804184673335,6.2433477386681e-05,6.2433477386681e-05,6.2433477386681e-05,3867920.3636054,0.01696659228146
38019200,0.99960453957634,0.016809541146522,0.0054390759661064,0.0071360342647421,0.0042344309156732,-0.0012840018079803,0.0012840006892882,4.7730436085147e-09,-5.8947206034968e-09,6.6789222098934e-09,-8.0464982910006e-09,-0.0014473506180383,0.0014473580086508,-0.0014473541315879,0.0014473543505019,-0.0014473553835057,0.0014473530261344,-0.0014473589182854,0.0014473494715051,-0.0011923928508581,0.0011923972180509,-0.0011924032348543,0.0011923867717536,-5.5951826685984e-09,8.874861406076e-09,-1.7686601917746e-08,2.0704507136049e-08,-0.0018573833877053,0.0018573864499002,-0.0020322547643749,0.002032240281525,-0.0020322420981384,0.0020322530311819,-0.0020322500279439,0.0020322450559171,-0.0020322373226764,0.002032257847555,-0.001582946674842,0.0015829168085088,-0.0015829094068481,0.0015829549572819,-0.0017111072622893,0.0017111088712104,-0.001711093106687,0.0017111233567914,-6.3308333539823e-09,4.0243182711958e-09,-0.00090641215380113,0.0009064097902927,1.7648581149578e-08,-2.0722425692756e-08,-0.0010743390697952,0.0010743462481984,-0.0010743518886574,0.001074333478366,-0.0010743356289224,0.001074349649146,-0.0010743484025995,0.0010743369242692,-0.00096146690158358,0.00096146193464446,-0.00096147714539962,0.00096145178007983,0.66569813892374,128566,2924,0.0053355589050241,0.0077066190293881,0.0037749694946497,37.559901153645,6.0479209229162e-05,6.0479209229162e-05,6.0479209229162e-05,3871974.5848406,0.016960666691332
38219200,0.99963224952928,0.016809979026881,0.0054392156504907,0.0071362242359784,0.0042345391404124,-0.0012835777178979,0.0012835766036572,4.8074581640597e-09,-5.9245940062161e-09,6.6466343534197e-09,-8.0096375810111e-09,-0.0014468858519578,0.0014468932456561,-0.0014468893869882,0.0014468895659637,-0.0014468905948276,0.0014468882858194,-0.0014468941508227,0.0014468847102121,-0.0011919239776438,0.0011919284344425,-0.0011919344246916,0.001191917927226,-5.5715191889132e-09,8.8487354142071e-09,-1.7770003975812e-08,2.0785714520689e-08,-0.0018568774177873,0.001856880477852,-0.0020318063606666,0.0020317918383303,-0.0020317936411899,0.0020318046427674,-0.0020318016409397,0.0020317965959255,-0.0020317888818313,0.0020318094425671,-0.001582400935999,0.0015823708892879,-0.0015823635068932,0.0015824092007205,-0.0017105865213247,0.0017105882309023,-0.0017105724140605,0.0017106026682233,-6.3615263424429e-09,4.0482281025334e-09,-0.00090600447704587,0.0009060021067625,1.7710664896168e-08,-2.0792083577227e-08,-0.0010738550654399,0.0010738622631576,-0.0010738679284948,0.001073849449233,-0.0010738516065227,0.0010738656822718,-0.0010738644239316,0.0010738529136625,-0.00096103886461264,0.00096103390162358,-0.00096104916314014,0.00096102369287504,0.67076171775523,128566,2924,0.005333801406118,0.0077045297531857,0.0037732737676197,37.314360202513,5.8514881620105e-05,5.8514881620105e-05,5.8514881620105e-05,3870384.5341064,0.016955029067468
38419200,0.99965786053679,0.016810409896459,0.005439353457953,0.0071364090421084,0.0042346473963973,-0.001283393292377,0.0012833921784916,4.835368346647e-09,-5.9518909578104e-09,6.6402470764216e-09,-8.0036112997569e-09,-0.0014466769222788,0.0014466843305889,-0.001446680475422,0.0014466806325569,-0.0014466816607064,0.0014466793751375,-0.0014466852354401,0.0014466757806965,-0.0011917093825533,0.0011917138999352,-0.0011917198853588,0.0011917033377382,-5.5578638518391e-09,8.8338163729736e-09,-1.7812554760209e-08,2.0827220859993e-08,-0.0018566414522732,0.0018566445111543,-0.0020316134017,0.0020315988594244,-0.0020316006541624,0.0020316116920395,-0.0020316086909815,0.0020316036076903,-0.0020315959045888,0.0020316164821815,-0.0015821292068819,0.0015820990678323,-0.0015820916951466,0.001582137460045,-0.0017103388367667,0.0017103406021869,-0.0017103247610672,0.0017103550129992,-6.3962913285012e-09,4.0772158080442e-09,-0.00090581971004825,0.00090581733419987,1.7760793402277e-08,-2.084766650147e-08,-0.0010736257721835,0.0010736329779806,-0.0010736386700186,0.001073620129255,-0.0010736222918041,0.0010736364184766,-0.0010736351445395,0.0010736236145024,-0.00096084562757936,0.00096084068398272,-0.00096085598786186,0.00096083041464007,0.71253732389305,128566,2924,0.0053330372000283,0.0077035557296399,0.0037725050482106,37.196629026699,5.757303221359e-05,5.757303221359e-05,5.757303221359e-05,3869508.9160575,0.01695247898177
38619200,0.99968168463509,0.016810812863024,0.0054394823767223,0.0071365817432181,0.0042347487430836,-0.0012834208731524,0.0012834197561928,4.8619633887823e-09,-5.9814958595852e-09,6.6578224692407e-09,-8.0246613975144e-09,-0.001446760480938,0.0014467679176448,-0.0014467640523424,0.0014467642006976,-0.0014467652316555,0.0014467629496553,-0.0014467688254552,0.0014467593354903,-0.0011917822549956,0.001191786813318,-0.0011917928137153,0.0011917761933718,-5.5497066445656e-09,8.824895694553e-09,-1.7814447872728e-08,2.0828442444322e-08,-0.0018567466953637,0.001856749753475,-0.0020316865259327,0.0020316719869855,-0.0020316737765013,0.0020316848204285,-0.0020316818201044,0.0020316767295871,-0.0020316690331938,0.0020316896046965,-0.0015822382312758,0.0015822080835994,-0.0015822007178777,0.0015822464785247,-0.0017104409432579,0.0017104427272633,-0.0017104268877154,0.0017104571224741,-6.4300554702265e-09,4.1061741603791e-09,-0.00090581497721522,0.00090581259660319,1.7796754943206e-08,-2.0888758071318e-08,-0.0010737185062673,0.0010737257119268,-0.0010737314293012,0.001073712837874,-0.001073715004759,0.0010737291734138,-0.0010737278834599,0.0010737163432619,-0.00096085501656946,0.00096085010168935,-0.00096086543686284,0.00096083977311322,0.71625966151283,128566,2924,0.005333152415021,0.0077039878988912,0.0037724895314479,37.193722434368,5.7549779474945e-05,5.7549779474945e-05,5.7549779474945e-05,3862832.2699036,0.016953021532747
38819200,0.99970384995395,0.016811189001124,0.005439602729415,0.0071367428520797,0.0042348434196288,-0.001283448033488,0.0012834469269974,4.9076781389781e-09,-6.0169558120969e-09,6.5939210568299e-09,-7.9488463706115e-09,-0.0014468447834448,0.0014468522130879,-0.001446848384625,0.0014468484678113,-0.0014468494904583,0.0014468472891793,-0.0014468531094713,0.0014468436518671,-0.001191859437071,0.0011918641234073,-0.0011918700693995,0.0011918534349651,-5.6285776109353e-09,8.911565562201e-09,-1.7936398478986e-08,2.0957319143992e-08,-0.0018568607300111,0.0018568637953369,-0.0020317647506449,0.0020317500838558,-0.0020317519227775,0.0020317630000348,-0.002031759993629,0.00203175488008,-0.0020317471224207,0.002031767841789,-0.0015823606609067,0.0015823303232549,-0.0015823228975167,0.0015823689734648,-0.0017105542657559,0.0017105559703703,-0.0017105400373675,0.001710570532445,-6.4432234331032e-09,4.130699615283e-09,-0.00090580907855764,0.00090580670899075,1.771433791446e-08,-2.0794920077734e-08,-0.0010738129015208,0.0010738200491316,-0.0010738257685672,0.0010738072314116,-0.0010738093897707,0.0010738235214649,-0.0010738222077668,0.001073810752654,-0.00096086233087903,0.00096085753296412,-0.00096087279488169,0.00096084715755106,0.71844599761333,128566,2924,0.0053332658633441,0.0077044562760541,0.0037724692620654,37.193612984219,5.7548903873749e-05,5.7548903873749e-05,5.7548903873749e-05,3856485.4605359,0.016953594275426
38880000,0.99971043833205,0.016811300923084,0.0054396385424106,0.0071367907730902,0.0042348716075836,-0.0012834545189326,0.0012834533999719,4.8983283605192e-09,-6.0201108336163e-09,6.6703184782242e-09,-8.0386903928794e-09,-0.0014468694306904,0.0014468768985294,-0.0014468730265629,0.0014468731573869,-0.0014468741900449,0.0014468719220472,-0.0014468778088836,0.0014468682830357,-0.0011918830497601,0.001191887669729,-0.0011918936815703,0.0011918769761359,-5.5541452740273e-09,8.8294846815979e-09,-1.7828679754425e-08,2.0842717194297e-08,-0.0018568970310817,0.0018569000894469,-0.0020317886526011,0.0020317741022604,-0.0020317758945701,0.0020317869459093,-0.002031783944321,0.002031778848087,-0.0020317711486541,0.0020317917320018,-0.0015823998830812,0.0015823697116918,-0.0015823623439511,0.0015824081339618,-0.0017105904222087,0.0017105922071169,-0.0017105763545137,0.0017106066060127,-6.4715348679087e-09,4.1447508411664e-09,-0.00090580443451578,0.00090580205062,1.7827165130019e-08,-2.0923909541787e-08,-0.0010738401991248,0.0010738473964362,-0.0010738531437127,0.0010738345007604,-0.0010738366702021,0.0010738508851971,-0.0010738495712737,0.0010738380329997,-0.00096086346753276,0.00096085860712497,-0.00096087396555565,0.00096084819954155,0.71909630058051,128566,2924,0.0053332929959466,0.0077046053149311,0.0037724512688396,37.193608975837,5.7548871806698e-05,5.7548871806698e-05,5.7548871806698e-05,3854506.4674921,0.016953755648721
