time,ASR_ext,ASR_strain,ASR_strain_xx,ASR_strain_yy,ASR_strain_zz,disp_x_101,disp_x_102,disp_x_103,disp_x_104,disp_x_105,disp_x_106,disp_x_p1_neg,disp_x_p1_pos,disp_x_p2_neg,disp_x_p2_pos,disp_x_p3_neg,disp_x_p3_pos,disp_x_p4_neg,disp_x_p4_pos,disp_x_p5_neg,disp_x_p5_pos,disp_x_p6_neg,disp_x_p6_pos,disp_y_101,disp_y_102,disp_y_103,disp_y_104,disp_y_105,disp_y_106,disp_y_p1_neg,disp_y_p1_pos,disp_y_p2_neg,disp_y_p2_pos,disp_y_p3_neg,disp_y_p3_pos,disp_y_p4_neg,disp_y_p4_pos,disp_y_p5_neg,disp_y_p5_pos,disp_y_p6_neg,disp_y_p6_pos,disp_y_p7_neg,disp_y_p7_pos,disp_y_p8_neg,disp_y_p8_pos,disp_z_101,disp_z_102,disp_z_103,disp_z_104,disp_z_105,disp_z_106,disp_z_p1_neg,disp_z_p1_pos,disp_z_p2_neg,disp_z_p2_pos,disp_z_p3_neg,disp_z_p3_pos,disp_z_p4_neg,disp_z_p4_pos,disp_z_p5_neg,disp_z_p5_pos,disp_z_p6_neg,disp_z_p6_pos,humidity,ndof,nelem,strain_xx,strain_yy,strain_zz,temp,thermal_strain_xx,thermal_strain_yy,thermal_strain_zz,vonmises,vstrain
2419200,0,0,0,0,0,0,0,0,0,0,0,0,0,0,0,0,0,0,0,0,0,0,0,0,0,0,0,0,0,0,0,0,0,0,0,0,0,0,0,0,0,0,0,0,0,0,0,0,0,0,0,0,0,0,0,0,0,0,0,0,0,0,0,0,0,0,0,0,0,0,0,0,0,0,0
2619200,0.019564757379341,0.0004013437523118,0.0001337812507706,0.0001337812507706,0.0001337812507706,-3.4620771274898e-05,3.4622199716033e-05,6.6528572649444e-10,7.520611665902e-10,-1.9976413361807e-09,3.5117158994402e-09,-3.4242078125047e-05,3.4241655035887e-05,-3.424199537587e-05,3.42416301409e-05,-3.4240292326902e-05,3.4243466328719e-05,-3.4240262191064e-05,3.4243493978857e-05,-3.5036019742343e-05,3.5039176232475e-05,-3.5035925297867e-05,3.5039251646269e-05,1.8570586902163e-09,-3.8216700083159e-09,-1.2183398178826e-08,1.0307456786204e-08,-3.5864868975428e-05,3.5862982305424e-05,-3.5276306306906e-05,3.5268931738421e-05,-3.5269127941712e-05,3.527647414839e-05,-3.5278112855989e-05,3.5267035421487e-05,-3.5270934534894e-05,3.5274577768132e-05,-3.5952233732205e-05,3.5926404622347e-05,-3.5930496255541e-05,3.5948813945987e-05,-3.6331235417443e-05,3.6342347317718e-05,-3.6336761289531e-05,3.6336660805709e-05,-2.1553132752125e-09,-2.2445801930783e-09,-3.2751625586051e-05,3.2747185454131e-05,8.6031052809591e-09,-1.3417721601704e-08,-3.2592347717319e-05,3.2595345821739e-05,-3.2599643131798e-05,3.2588043580688e-05,-3.2592382933467e-05,3.2595321645686e-05,-3.2599676890572e-05,3.2588017874513e-05,-3.401644555889e-05,3.4004621422154e-05,-3.4016343579166e-05,3.4004694393764e-05,0.81992966732265,128566,2924,0.00014424572208816,0.00014942178871982,0.00013644654841682,31.545911886097,1.2367295088778e-05,1.2367295088778e-05,1.2367295088778e-05,609001.60368188,0.00043020680167577
2819200,0.041156564245204,0.0008366975082885,0.00027974416308566,0.00028161660262343,0.00027533674257942,-7.1391373408859e-05,7.1388194531746e-05,-1.5981326457704e-09,-1.5632380899798e-09,2.9955863051515e-09,-6.3225977828454e-09,-7.1557798799849e-05,7.1557689956797e-05,-7.1557711108824e-05,7.1557626108847e-05,-7.1560732019664e-05,7.1554550687997e-05,-7.1560722900785e-05,7.1554564545356e-05,-7.1762172928219e-05,7.1755900536474e-05,-7.176211530832e-05,7.1755910258449e-05,-2.5568515092944e-09,6.6579313632781e-09,-1.6072033965851e-08,2.0033712063705e-08,-7.449491630276e-05,7.4498890955857e-05,-7.399145319887e-05,7.398056255922e-05,-7.3979896774961e-05,7.3992642680471e-05,-7.3988522086804e-05,7.3983648625562e-05,-7.3976966058381e-05,7.3995728289997e-05,-7.4041148831139e-05,7.4012723494359e-05,-7.4006215021179e-05,7.4048663253098e-05,-7.497518189719e-05,7.498211122905e-05,-7.4966226468212e-05,7.499133679317e-05,-2.306456139051e-09,-2.3379509909301e-09,-6.6543988584923e-05,6.6539268920397e-05,1.5170853782489e-08,-2.0474856924023e-08,-6.7383241686808e-05,6.7390523908282e-05,-6.7395084032647e-05,6.7378686449074e-05,-6.7383242196771e-05,6.7390504089403e-05,-6.7395086686322e-05,6.7378667907983e-05,-6.8992040649636e-05,6.8975471226422e-05,-6.8992036397002e-05,6.897552976438e-05,0.82138490433107,128566,2924,0.00029741302141328,0.00031035535497005,0.00027721866792797,32.73910588576,2.1912847086077e-05,2.1912847086077e-05,2.1912847086077e-05,886874.41000322,0.00088537926661277
3019200,0.062604492214807,0.001263978028317,0.00042396514019042,0.00043124410433195,0.00040876878379466,-0.00010494421562995,0.00010494032505597,-1.9387834270615e-09,-1.9340692810259e-09,5.6413259176528e-09,-9.7635289815644e-09,-0.00010579145341369,0.00010579264276631,-0.00010579138785033,0.00010579258430117,-0.00010579632165845,0.00010578747479047,-0.000105796337171,0.00010578749008993,-0.00010505468443562,0.00010504570881274,-0.00010505470529168,0.00010504572847788,-5.1578958645498e-09,1.0413640206635e-08,-1.8941584087002e-08,2.3950941289019e-08,-0.00011073826397031,0.00011074329895397,-0.00011035703004219,0.00011034284596329,-0.00011034322430833,0.00011035716952409,-0.00011035205467564,0.00011034805249824,-0.00011033825244947,0.00011036237240143,-0.00010934486861486,0.00010931294441266,-0.00010930332294003,0.0001093555931791,-0.00011133932979536,0.00011134334407058,-0.00011132416500732,0.00011135893496809,-2.3468527969087e-09,-2.2999331556376e-09,-9.5868308481744e-05,9.5863609892223e-05,1.8344851324043e-08,-2.3730236052432e-08,-9.7661685434453e-05,9.767113621526e-05,-9.7675682752054e-05,9.7657182527999e-05,-9.7661653665454e-05,9.7671139823279e-05,-9.7675655421309e-05,9.7657183062455e-05,-9.9918709612363e-05,9.9900055136886e-05,-9.99187848438e-05,9.9900049257883e-05,0.82013324767463,128566,2924,0.00043716345714393,0.00046131284699268,0.00039936287965791,32.491784219532,1.9934273756259e-05,1.9934273756259e-05,1.9934273756259e-05,1205075.3149032,0.0012986829061321
3219200,0.0838170213037,0.0016750949019558,0.00056289163849554,0.00057869662499295,0.00053350663846735,-0.00013710837253151,0.00013710470658741,-1.8044142504906e-09,-1.8557546692575e-09,6.5559925051661e-09,-1.048041526117e-08,-0.0001389355267904,0.00013893749964146,-0.00013893548856115,0.00013893743148586,-0.00013894091373487,0.00013893178785677,-0.00013894095592923,0.00013893179334888,-0.00013663839148866,0.00013662913222926,-0.0001366384988161,0.00013662912975822,-5.9071078825046e-09,1.1245043626011e-08,-2.0453307342052e-08,2.5515094021627e-08,-0.0001463804428529,0.00014638553209477,-0.00014645286745074,0.00014643717343805,-0.00014643801880337,0.00014645250704665,-0.0001464473583064,0.0001464428974069,-0.00014643251272004,0.00014645822793251,-0.00014351932959844,0.00014348496475045,-0.00014347478065818,0.0001435306540052,-0.00014681240356106,0.00014681594945779,-0.00014679567951605,0.00014683311393924,-2.2334877805173e-09,-2.1340196781477e-09,-0.0001231000098184,0.00012309561142539,2.0004543015049e-08,-2.5152570186443e-08,-0.0001261344078574,0.00012614519321393,-0.00012614943494026,0.00012613022173522,-0.00012613436137312,0.00012614521760501,-0.00012614939484669,0.00012613024451243,-0.00012869040244883,0.00012867104304397,-0.00012869051443024,0.00012867097131852,0.80675913752314,128566,2924,0.00057111333774113,0.00060974185830821,0.00051277884944484,32.20385782475,1.7630862597997e-05,1.7630862597997e-05,1.7630862597997e-05,1464030.4094774,0.0016950710710142
3419200,0.1047696635302,0.0020666181754649,0.00069491198451942,0.00072267309696811,0.00064903309397739,-0.00016757701868368,0.0001675737747591,-1.5695947711686e-09,-1.6766694008806e-09,6.8457866209769e-09,-1.0360775312316e-08,-0.00017074585983273,0.00017074833329821,-0.00017074584436991,0.00017074825072275,-0.00017075129974154,0.00017074256512097,-0.00017075136325148,0.00017074255515458,-0.00016612960366781,0.00016612075131585,-0.00016612978366129,0.00016612071316053,-5.9758174805838e-09,1.1335356421047e-08,-2.1225069464168e-08,2.6301644742418e-08,-0.00018117769923908,0.00018118280295694,-0.00018218142094316,0.00018216516130308,-0.00018216604271151,0.0001821810026633,-0.00018217584591059,0.00018217092946191,-0.00018216047046969,0.00018218676799878,-0.00017620294361522,0.00017616711343061,-0.00017615687722649,0.00017621435120116,-0.00018099411817968,0.00018099805391621,-0.0001809772383699,0.00018101537111632,-2.1042147493359e-09,-1.951873619328e-09,-0.00014819846425822,0.00014819439006101,2.0922321795975e-08,-2.5788674603525e-08,-0.0001527720999246,0.0001527837254445,-0.00015278764303086,0.00015276823941784,-0.00015277203812788,0.00015278376969538,-0.00015278758744278,0.00015276828207784,-0.00015511796585217,0.00015509845012117,-0.00015511811726236,0.0001550983139298,0.78589836758981,128566,2924,0.00069798590392202,0.00075463060446966,0.00061730017537663,31.914374162375,1.5314993299001e-05,1.5314993299001e-05,1.5314993299001e-05,1692948.7118556,0.0020720633228784
3619200,0.1259830354709,0.0024505713968332,0.00082387023337475,0.00086692509428259,0.00075977606917589,-0.00019796061877385,0.00019795793792216,-1.2687428588294e-09,-1.4189706752826e-09,6.7372971599524e-09,-9.6865558995282e-09,-0.00020278595713478,0.00020278875165651,-0.00020278595523846,0.00020278865666115,-0.00020279114603775,0.00020278324667423,-0.00020279122415446,0.00020278321973633,-0.00019506377905669,0.00019505578838149,-0.00019506401146509,0.00019505570992444,-5.6905520985837e-09,1.0876574295158e-08,-2.1359652073931e-08,2.6274460271377e-08,-0.00021677118666862,0.00021677612661276,-0.00021925588094797,0.00021923966539089,-0.00021924045863173,0.00021925553755401,-0.0002192505400422,0.00021924518257254,-0.00021923512326462,0.00021926104913187,-0.00020896073844226,0.00020892439726909,-0.00020891457254387,0.000208971739195,-0.00021549588672418,0.00021550043360436,-0.00021547974283842,0.00021551700127485,-1.9181526447685e-09,-1.7003005040269e-09,-0.00017284708704426,0.00017284345747504,2.1167915782166e-08,-2.5604085913262e-08,-0.00017901420319294,0.0001790262753016,-0.00017902976078587,0.00017901076890428,-0.00017901411808522,0.00017902634272382,-0.00017902968545531,0.00017901083270614,-0.00018107846646183,0.00018105942709775,-0.00018107867077736,0.00018105922385142,0.77011575380724,128566,2924,0.00082448839184912,0.00090281213236598,0.00071993952878745,31.993860421973,1.5950883375786e-05,1.5950883375786e-05,1.5950883375786e-05,1935813.5070571,0.0024502408218098
3819200,0.14780290390456,0.002841253143143,0.00095457038268332,0.0010161276413131,0.00087055511914651,-0.00022916083391251,0.0002291586052647,-1.0045979032374e-09,-1.2335362096871e-09,6.5665643848957e-09,-9.0586225774454e-09,-0.00023578133382271,0.00023578434655195,-0.00023578136170807,0.00023578422256699,-0.00023578626944581,0.0002357791086065,-0.00023578636775068,0.00023577905681117,-0.00022469441290482,0.0002246872015049,-0.00022469471053441,0.00022468705542295,-5.3898611896463e-09,1.0308028552127e-08,-2.1150656576636e-08,2.581174128247e-08,-0.00025407644670308,0.00025408113040182,-0.00025842425680336,0.00025840829544723,-0.00025840904985156,0.00025842393782413,-0.00025841919916139,0.00025841351829939,-0.00025840399109452,0.00025842916184352,-0.00024299884378588,0.00024296260773501,-0.00024295331861152,0.00024300929479986,-0.00025143410850136,0.00025143901613546,-0.00025141880423662,0.00025145472901972,-1.7299019463618e-09,-1.4818094979704e-09,-0.00019795328165528,0.00019795006290445,2.1083074136822e-08,-2.5108232458662e-08,-0.00020567322357193,0.00020568550606884,-0.00020568858776826,0.00020567018897861,-0.00020567313086084,0.00020568557950138,-0.00020568849820933,0.00020567026596243,-0.00020775009711896,0.00020773169884998,-0.000207750338777,0.0002077314530994,0.77140161012779,128566,2924,0.00095437354927852,0.0010580954759596,0.00082447558383266,32.325236500418,1.8601892003348e-05,1.8601892003348e-05,1.8601892003348e-05,2175806.8133953,0.0028409777702919
4019200,0.17021931007818,0.0032397440518808,0.001087501210929,0.0011706146717597,0.00098162816919203,-0.00026080453517003,0.00026080264145855,-8.1200415106356e-10,-1.0932911322994e-09,6.4495250137325e-09,-8.6022560103808e-09,-0.00026937080603763,0.00026937398383168,-0.00026937085327778,0.00026937384376512,-0.0002693755592109,0.00026936893922713,-0.00026937567400688,0.00026936886850081,-0.00025457775340592,0.00025457111654015,-0.00025457810056618,0.00025457091599178,-5.2145831801221e-09,9.9176341822452e-09,-2.0901120487293e-08,2.5357415340706e-08,-0.00029274768137417,0.00029275215807661,-0.00029923111033028,0.00029921536498677,-0.0002992161310126,0.00029923076898703,-0.00029922623709843,0.00029922039677518,-0.00029921125635132,0.00029923580210179,-0.00027813338495326,0.00027809744735122,-0.00027808854187268,0.00027814343581707,-0.00028843847654505,0.0002884434930861,-0.00028842372350037,0.00028845864449399,-1.5979824915728e-09,-1.2933962934656e-09,-0.00022310843357997,0.00022310553791721,2.0896733287561e-08,-2.4592570600091e-08,-0.00023250568511683,0.00023251803869579,-0.0002325208149359,0.00023250295427163,-0.00023250557316495,0.00023251813062096,-0.00023252070630029,0.00023250304899802,-0.00023474597153383,0.00023472818332298,-0.00023474626714149,0.00023472788280169,0.77299485127539,128566,2924,0.0010860869743656,0.0012190383151232,0.00092920741244643,32.662745923071,2.1301967384568e-05,2.1301967384568e-05,2.1301967384568e-05,2395437.3832465,0.0032395760550246
4219200,0.19320623520129,0.0036464656082897,0.0012227556280386,0.001330649607903,0.0010930603723481,-0.00029290535776693,0.00029290370233574,-6.671489968663e-10,-1.0016093325944e-09,6.367406337916e-09,-8.278788359272e-09,-0.00030358288722227,0.00030358618746875,-0.00030358295478011,0.0003035860322678,-0.0003035875112174,0.00030358128193421,-0.00030358764380348,0.00030358119278541,-0.00028480835453436,0.00028480214226325,-0.00028480875458685,0.00028480188838514,-5.1005510118148e-09,9.6307444020458e-09,-2.0650812354196e-08,2.4942479317599e-08,-0.00033287049129414,0.00033287480164927,-0.00034166288672442,0.00034164732918824,-0.00034164812257941,0.00034166250921505,-0.00034165814296276,0.0003416522260926,-0.00034164337787483,0.00034166740696875,-0.00031452760414399,0.00031449202193977,-0.00031448340823078,0.00031453735156911,-0.00032664455907213,0.00032664957636311,-0.00032663019601557,0.00032666433058356,-1.5150489766012e-09,-1.1547910817232e-09,-0.00024829227432513,0.00024828960246718,2.0682787835558e-08,-2.4147580669158e-08,-0.00025966364906035,0.00025967598926734,-0.00025967855802817,0.00025966112448475,-0.00025966351789029,0.00025967609930618,-0.00025967843041603,0.00025966123676781,-0.00026196495067182,0.00026194766019506,-0.00026196530011451,0.00026194730558073,0.77488673084657,128566,2924,0.0012196847529589,0.0013859938838537,0.0010340512319892,33.00048484503,2.4003878760237e-05,2.4003878760237e-05,2.4003878760237e-05,2595124.1454151,0.0036463717794294
4419200,0.21713255389146,0.0040679202961857,0.0013623193900619,0.0014990398586784,0.0012065610474455,-0.00032641395647387,0.00032641246594002,-5.2263283909831e-10,-9.8294383543148e-10,6.2924459333074e-09,-8.0370818397402e-09,-0.00033941250887859,0.00033941592083119,-0.00033941263013275,0.00033941571790167,-0.00033941704342,0.00033941111605721,-0.00033941720857556,0.00033941099336182,-0.00031633069876784,0.00031632485181285,-0.00031633119352885,0.00031632449813382,-4.9701607769117e-09,9.3307062408733e-09,-2.0298268588784e-08,2.4428912825805e-08,-0.00037562221192474,0.00037562635953281,-0.00038686635941277,0.00038685107536431,-0.00038685188153953,0.00038686595548876,-0.00038686176220701,0.00038685581881396,-0.00038684726577527,0.00038687071739959,-0.00035329906981894,0.0003532640069351,-0.00035325568445997,0.00035330850132632,-0.00036731013252867,0.00036731509041766,-0.00036729616157241,0.00036732944437211,-1.421995646215e-09,-1.0787669723798e-09,-0.00027436135071644,0.00027435884949829,2.0419785720181e-08,-2.3702640700643e-08,-0.00028806475207955,0.00028807703956071,-0.00028807943285696,0.00028806240095821,-0.00028806463480741,0.00028807713461257,-0.00028807930101437,0.00028806251552507,-0.00029022673678392,0.00029020986330875,-0.00029022709606968,0.00029020949926686,0.77612068057304,128566,2924,0.0013591217788858,0.0015638565968005,0.0011425730273354,33.5945913579,2.8756730863197e-05,2.8756730863197e-05,2.8756730863197e-05,2787623.4321554,0.0040738407636293
4619200,0.24213536943244,0.0045061872317224,0.0015066618335998,0.001676944081688,0.0013225813164345,-0.00036114088214409,0.0003611395133381,-4.1725215872194e-10,-9.6805910261685e-10,6.2257285739329e-09,-7.8469440805829e-09,-0.00037666997415221,0.00037667346337571,-0.00037667013480631,0.00037667322803445,-0.00037667443894008,0.00037666873920714,-0.00037667462995021,0.00037666859196747,-0.00034898109507971,0.00034897552746095,-0.00034898166403936,0.00034897509807094,-4.8902367707117e-09,9.1105861192302e-09,-1.9996269315243e-08,2.3994253128228e-08,-0.00042094013020403,0.00042094414379626,-0.00043480793169806,0.00043479286729752,-0.00043479369976679,0.00043480749261857,-0.00043480343938899,0.00043479750162808,-0.00043478917661615,0.00043481215625666,-0.00039430540557104,0.0003942708228896,-0.00039426272059188,0.00039431459487668,-0.00041034877991212,0.0004103536383878,-0.00041033509000229,0.00041036770612133,-1.3756613608335e-09,-1.0144764967875e-09,-0.00030117250123882,0.00030117011111833,2.0150028779761e-08,-2.3309154452601e-08,-0.00031757029169033,0.00031758246690803,-0.00031758475721043,0.0003175680412697,-0.00031757017273183,0.00031758256222806,-0.00031758461521497,0.00031756816539591,-0.00031936724782835,0.00031935073657068,-0.00031936763831391,0.00031935034274477,0.77693646560854,128566,2924,0.0015036073172,0.0017523592461904,0.0012541771286977,34.292441450179,3.433953160143e-05,3.433953160143e-05,3.433953160143e-05,2973024.1810341,0.0045203483847538
4819200,0.26818331157295,0.0049606185360146,0.0016554074879534,0.0018642275327544,0.0014409835153068,-0.00039679512622244,0.00039679384651465,-3.5476129157283e-10,-9.4261959752889e-10,6.1717929691865e-09,-7.7025156072001e-09,-0.00041506062606072,0.00041506415322465,-0.00041506080158903,0.00041506391006969,-0.00041506503046949,0.00041505949792885,-0.00041506523808687,0.00041505933719644,-0.00038254016016865,0.00038253478997851,-0.00038254077448485,0.00038253431812848,-4.8468981753084e-09,8.9757674365543e-09,-1.9778255917593e-08,2.3690208073567e-08,-0.0004685689249406,0.0004685728512917,-0.00048526414762487,0.00048524923118431,-0.00048525008630414,0.00048526368169647,-0.00048525971372628,0.00048525380462482,-0.000485245624058,0.00048526828084551,-0.00043727343846117,0.00043723923426293,-0.00043723126944082,0.00043728247560523,-0.00045548852418434,0.00045549330475228,-0.00045547501853617,0.00045550718552753,-1.3871068314887e-09,-9.5486020800352e-10,-0.00032853215260033,0.00032852980956148,1.991082590973e-08,-2.3010500406959e-08,-0.00034794912819794,0.00034796114372517,-0.00034796341368634,0.00034794689623364,-0.00034794898385138,0.00034796126350202,-0.00034796325072588,0.00034794704126386,-0.00034915008065211,0.00034913386079416,-0.00034915053413747,0.00034913340299525,0.777921793943,128566,2924,0.0016519284299065,0.0019504332577545,0.0013680585678216,34.992854914872,3.9942839318976e-05,3.9942839318976e-05,3.9942839318976e-05,3149490.4198002,0.004982818260718
5019200,0.29522742260308,0.0054289104767878,0.0018076327857608,0.0020600193804258,0.0015612583106011,-0.00043315276041857,0.00043315154723581,-2.958454008724e-10,-9.3602055334007e-10,6.1286688943758e-09,-7.5915589151156e-09,-0.00045438840005009,0.00045439196065423,-0.00045438859589454,0.0004543917030846,-0.00045439275646136,0.0004543873598432,-0.0004543929839544,0.00045438718191701,-0.00041681601801234,0.0004168108185239,-0.00041681668690389,0.00041681029353257,-4.8026271987563e-09,8.8725700052826e-09,-1.9594024920209e-08,2.3451204153311e-08,-0.00051829807291948,0.00051830194350534,-0.00053806976958879,0.00053805498621197,-0.00053805584538332,0.00053806929650012,-0.00053806538272258,0.00053805950957018,-0.00053805143186265,0.00053807384417463,-0.00048198501635933,0.0004819511260572,-0.00048194325825145,0.00048199394237332,-0.00050243298565611,0.00050243771664149,-0.0005024196270462,0.000502451446925,-1.4115378998574e-09,-9.2342903317332e-10,-0.00035633334477763,0.0003563310067456,1.9709829203056e-08,-2.2793359742828e-08,-0.00037909094338218,0.00037910280166518,-0.00037910508979635,0.0003790886918666,-0.00037909078078198,0.0003791029394589,-0.00037910490831807,0.00037908885518367,-0.00037939505540946,0.00037937903726804,-0.00037939556284521,0.00037937852335712,0.776773260497,128566,2924,0.0018031517844937,0.0021571966115104,0.0014837733311811,35.693364691751,4.554691753401e-05,4.554691753401e-05,4.554691753401e-05,3314599.8631573,0.0054590007472004
5219200,0.32257097967216,0.0059007909829155,0.001959885873144,0.0022598216046485,0.001681083505123,-0.00046867732690504,0.00046867613184607,-2.8660670366249e-10,-9.2769281078058e-10,6.1386967779362e-09,-7.5844245084933e-09,-0.00049301570384464,0.00049301927861938,-0.00049301589447064,0.00049301902668023,-0.00049302005620709,0.00049301468461459,-0.000493020290447,0.00049301450035693,-0.00045037655238807,0.00045037138924539,-0.00045037723877529,0.00045037084369052,-4.8299384849006e-09,8.8889324749792e-09,-1.9707683221747e-08,2.3555646872804e-08,-0.00056827687517871,0.00056828073588792,-0.00059131366586851,0.00059129878234819,-0.00059129966870716,0.00059131317374377,-0.00059130925950623,0.00059130332543251,-0.00059129524812776,0.00059131772907112,-0.00052672106805195,0.00052668698503817,-0.00052667911854655,0.00052673000480259,-0.00054941135567845,0.00054941612325803,-0.00054939797318871,0.00054942987978333,-1.5158389109283e-09,-9.2007162791323e-10,-0.00038337260145699,0.00038337015941865,1.9736686232078e-08,-2.2925784660395e-08,-0.00040962051550223,0.00040963227890021,-0.00040963470842148,0.00040961812158161,-0.00040962031164031,0.00040963245790279,-0.00040963449687899,0.00040961831494948,-0.00040887339971218,0.00040885731746766,-0.00040887399477663,0.00040885671365355,0.77855552599661,128566,2924,0.0019508865765594,0.0023649504386419,0.0015963148555376,36.022880792533,4.8183046340263e-05,4.8183046340263e-05,4.8183046340263e-05,3459012.9891635,0.0059297056529964
5419200,0.35000929944301,0.0063662288772025,0.0021087732551815,0.0024593925189747,0.0017980631030463,-0.00050317265104473,0.00050317147777094,-2.5355182751406e-10,-9.3954781910485e-10,6.1423843550388e-09,-7.5666819301787e-09,-0.00053086800149304,0.00053087160566157,-0.00053086820557724,0.00053087134031546,-0.00053087234670964,0.00053086702038559,-0.00053087259735676,0.00053086681967437,-0.00048304775883858,0.00048304267040757,-0.00048304849284575,0.00048304207618075,-4.8263963996383e-09,8.8875806830991e-09,-1.9787876179377e-08,2.3639454785736e-08,-0.00061813906307236,0.00061814292685138,-0.00064468211231211,0.00064466717513752,-0.00064466805878487,0.00064468162574821,-0.00064467770392692,0.00064467171829138,-0.00064466364136054,0.0006446861777365,-0.00057115245332538,0.00057111821149306,-0.00057111034669663,0.00057116139443275,-0.00059592390115861,0.00059592873340466,-0.00059591052610168,0.00059594248224691,-1.5840200655767e-09,-9.2434433473768e-10,-0.00040967043471558,0.00040966791867206,1.9775265733103e-08,-2.3040729305712e-08,-0.00043968146969888,0.00043969318496874,-0.00043969571139111,0.00043967897827371,-0.00043968124381485,0.00043969338662159,-0.00043969547903021,0.00043967919237281,-0.0004373852745787,0.00043736912969498,-0.00043738592862517,0.00043736846445489,0.76958003584224,128566,2924,0.0020943184519016,0.0025721708659205,0.0017057707959999,36.275749878042,5.0205999024337e-05,5.0205999024337e-05,5.0205999024337e-05,3580594.1580342,0.0063926598051129
5619200,0.37746191458979,0.0068083424526877,0.0022487280591834,0.0026517895701095,0.0019078248233948,-0.00053571096605707,0.00053570982293049,-2.1066189700453e-10,-9.5314064795396e-10,6.1288127355827e-09,-7.5226041523716e-09,-0.00056736310629278,0.00056736673915663,-0.00056736332858246,0.00056736645512608,-0.0005673674315815,0.00056736217389577,-0.00056736770034398,0.00056736195462671,-0.00051381809398966,0.00051381310908413,-0.00051381888245268,0.00051381246025005,-4.7988440177858e-09,8.8563446693672e-09,-1.9808879969579e-08,2.3657589588524e-08,-0.00066662560206807,0.00066662946281523,-0.0006971804891834,0.00069716555325541,-0.00069716642053303,0.00069718001823607,-0.00069717609869515,0.00069717007627226,-0.00069716202169181,0.00069718455016702,-0.00061384704904979,0.00061381274239531,-0.00061380490008522,0.0006138559667702,-0.00064041604329105,0.00064042094250701,-0.00064040272363547,0.00064043463373378,-1.6280433801459e-09,-9.1581867118579e-10,-0.00043435082342002,0.00043434827157609,1.9779281779372e-08,-2.3081710067108e-08,-0.00046881486807232,0.00046882654264334,-0.0004688291243043,0.00046881232126701,-0.00046881462462772,0.00046882676251929,-0.00046882887379015,0.00046881255357531,-0.00046347432208729,0.00046345817894392,-0.00046347502691635,0.0004634574604272,0.7363704891491,128566,2924,0.0022295924439907,0.0027736262505913,0.0018084982961286,36.52666201154,5.2213296092324e-05,5.2213296092324e-05,5.2213296092324e-05,3679418.620808,0.0068350347922669
5819200,0.40484789262395,0.0072310794989917,0.0023812778399142,0.0028378196185999,0.0020119820404777,-0.00056670462467365,0.00056670349419196,-1.7694077824888e-10,-9.7514334754125e-10,6.0931924189299e-09,-7.4727910967733e-09,-0.0006029439220527,0.00060294755721208,-0.0006029441636285,0.00060294725578284,-0.00060294821934799,0.00060294302023103,-0.00060294850741501,0.00060294278404878,-0.00054319538480806,0.00054319049359797,-0.00054319623067026,0.00054318979453957,-4.761201876345e-09,8.8075760694792e-09,-1.9782272967493e-08,2.3621014242817e-08,-0.00071404927731072,0.00071405312812857,-0.00074899788194873,0.00074898298453221,-0.00074898383151864,0.00074899742796446,-0.00074899351887829,0.00074898747757593,-0.00074897945977847,0.00074900193031933,-0.00065511824153843,0.00065508395668202,-0.00065507614987988,0.00065512711715673,-0.00068369289423849,0.00068369784788047,-0.000683679657548,0.00068371145189423,-1.662723579004e-09,-8.9718610470581e-10,-0.00045769291519434,0.00045769034888624,1.9744169875913e-08,-2.3060285459483e-08,-0.0004972182377749,0.00049722985931962,-0.00049723247528147,0.00049721565631765,-0.00049721797689556,0.00049723009763816,-0.00049723220717032,0.00049721590707326,-0.00048762338234451,0.00048760729401378,-0.00048762413760173,0.00048760652106976,0.71317584129232,128566,2924,0.0023584270682396,0.0029706191944014,0.0019056596422607,36.777500068693,5.4220000549543e-05,5.4220000549543e-05,5.4220000549543e-05,3768983.311077,0.0072610184052657
6019200,0.431682617337,0.0076353207475543,0.0025070225641561,0.003017187217904,0.0021111109654943,-0.00059588091471505,0.00059587975669333,-2.0249272090917e-10,-9.7767492317917e-10,6.1028197085425e-09,-7.509927707893e-09,-0.00063713591445228,0.0006371395176127,-0.00063713613468418,0.00063713923694831,-0.00063714021479483,0.00063713497769933,-0.00063714051039935,0.00063713473630255,-0.0005711223963179,0.00057111747811092,-0.00057112326146375,0.00057111676335268,-4.7926117708531e-09,8.8376772549675e-09,-1.9956297403166e-08,2.3792597083079e-08,-0.00075978111136993,0.00075978495987615,-0.00079897012423716,0.00079895507646718,-0.00079895594883041,0.00079896964983645,-0.0007989657267516,0.00079895960366482,-0.00079895157054824,0.0007989741590146,-0.00069473693657044,0.00069470237088192,-0.00069469455438436,0.00069474583849001,-0.0007257253059556,0.00072573035297144,-0.00072571205032013,0.00072574397668734,-1.7750769090215e-09,-8.7720762000034e-10,-0.00047930123529212,0.00047929857642299,1.9839547763111e-08,-2.3254886318852e-08,-0.00052416515891902,0.0005241767270879,-0.0005241794784137,0.0005241624410518,-0.00052416484070797,0.00052417702295962,-0.00052417918110981,0.00052416272227984,-0.00050982497864524,0.00050980879091455,-0.00050982582107848,0.00050980792654398,0.70261523470879,128566,2924,0.0024796928128657,0.0031605408457259,0.0019956083803004,36.775491473831,5.4203931790651e-05,5.4203931790651e-05,5.4203931790651e-05,3825950.1575714,0.0076651645238748
6219200,0.45789665976823,0.0080316691340012,0.0026300544106047,0.0031932711077156,0.0022083436156809,-0.00062448565746805,0.00062448447276187,-1.7488552123134e-10,-1.0320718304162e-09,6.1084075556308e-09,-7.5420326291979e-09,-0.00067060574593409,0.00067060936596564,-0.00067060599552131,0.00067060905445192,-0.00067061006473473,0.00067060480834459,-0.00067061038237596,0.00067060454670301,-0.00059857185173543,0.00059856695756732,-0.00059857278209314,0.00059856618141766,-4.8199508694271e-09,8.8436739544195e-09,-2.0005739155872e-08,2.3820555219683e-08,-0.00080477147298383,0.00080477529995344,-0.00084802127512576,0.00084800616709324,-0.00084800707294426,0.00084802076688229,-0.00084801686582533,0.00084801070450111,-0.00084800268162458,0.00084802528982193,-0.00073373254142511,0.00073369788071948,-0.00073369008194876,0.00073374144021107,-0.00076730898611797,0.00076731399339711,-0.00076729569041889,0.00076732766213463,-1.8182033711443e-09,-8.9271451966904e-10,-0.00050022562266248,0.00050022290495556,1.9854920914177e-08,-2.3333525472299e-08,-0.0005503867393916,0.00055039827341462,-0.00055040109301868,0.00055038395234143,-0.00055038641544346,0.00055039857532892,-0.0005504007805513,0.00055038424994656,-0.00053143219770707,0.00053141596466582,-0.00053143308247828,0.00053141505600701,0.70745492023908,128566,2924,0.0025985705975316,0.0033473426835146,0.0020827123504215,36.758765969942,5.4070127759537e-05,5.4070127759537e-05,5.4070127759537e-05,3855530.885896,0.0080610558180293
6419200,0.48344987907951,0.0084149620606932,0.0027491273437353,0.0033639772641164,0.0023018574528415,-0.00065223051339976,0.00065222930426048,-1.5943369326673e-10,-1.0719911008052e-09,6.0996721261723e-09,-7.5575276720997e-09,-0.00070307173741783,0.00070307535428846,-0.00070307200565405,0.00070307502539371,-0.00070307606061195,0.00070307079392902,-0.00070307639690717,0.00070307051567182,-0.00062514865323043,0.00062514378521907,-0.00062514963786122,0.00062514295782733,-4.8342145352702e-09,8.8345877932308e-09,-1.9993358982989e-08,2.3784823039865e-08,-0.00084845840334203,0.00084846220686541,-0.00089571679969962,0.00089570168017526,-0.00089570261100258,0.00089571626481373,-0.00089571238786235,0.00089570621980908,-0.00089569821703202,0.00089572079013857,-0.00077152256351951,0.00077148792541083,-0.00077148014865365,0.00077153144134276,-0.00080762520564982,0.00080763016648084,-0.00080761190304186,0.00080764384195402,-1.8602700374593e-09,-8.8068155622784e-10,-0.00052024385070272,0.0005202411032918,1.9818092712224e-08,-2.3327707267178e-08,-0.00057575195872265,0.00057576343102568,-0.0005757662977959,0.0005757491240637,-0.00057575161659728,0.00057576375157685,-0.0005757659674633,0.00057574944029084,-0.00055211049192314,0.00055209429697917,-0.00055211142865676,0.00055209333484941,0.70210892983405,128566,2924,0.0027138630085601,0.0035286938456021,0.0021660469633804,36.741605826083,5.3932846608663e-05,5.3932846608663e-05,5.3932846608663e-05,3884584.5592744,0.0084441913837406
6619200,0.50871772721504,0.008817334016524,0.002874908911645,0.0035411885508482,0.0024012365540307,-0.00068163916752813,0.00068163797531456,-1.207286830716e-10,-1.0938229610522e-09,6.0278872207585e-09,-7.4675149024574e-09,-0.00073645662251969,0.00073646022417786,-0.00073645691383223,0.00073645987679522,-0.00073646089606431,0.00073645571710576,-0.00073646125168116,0.00073645542110391,-0.0006536153843698,0.00065361064243274,-0.00065361642559239,0.00065360976121512,-4.7663271992993e-09,8.7381463281866e-09,-1.9651066844103e-08,2.3414450545785e-08,-0.00089341427060696,0.00089341804590072,-0.00094467206144523,0.00094465720051578,-0.00094465809879852,0.00094467154452484,-0.00094466770292452,0.00094466168471417,-0.00094465375607262,0.00094467601648353,-0.00081043021313697,0.0008103961895786,-0.00081038847947187,0.00081043899333854,-0.0008495532107311,0.00084955806530972,-0.0008495400659838,0.00084957158225216,-1.8382446478106e-09,-8.0984122100632e-10,-0.00054162776380916,0.00054162511144964,1.9522266120288e-08,-2.2924723745014e-08,-0.00060190311028246,0.00060191442831975,-0.00060191721910377,0.00060190035140229,-0.00060190275295204,0.00060191476491791,-0.00060191687153202,0.00060190068555837,-0.0005747226761685,0.00057470685607559,-0.00057472366320624,0.00057470584323466,0.74070666335804,128566,2924,0.002836057051763,0.0037152765133952,0.0022550619601927,37.008926162412,5.6071409299297e-05,5.6071409299297e-05,5.6071409299297e-05,3905419.779302,0.0088454449039967
6819200,0.53479630748132,0.0092663366970259,0.0030166691248903,0.0037367201745192,0.0025129473976164,-0.00071568292347601,0.00071568182933582,-6.4440915093028e-11,-1.0523376757681e-09,5.8611678845227e-09,-7.1972211824509e-09,-0.00077354790851427,0.00077355146276493,-0.00077354820571293,0.00077355112180735,-0.00077355203702549,0.0007735471080278,-0.00077355240358838,0.00077354680350296,-0.00068674213204774,0.00068673766046069,-0.00068674320346067,0.00068673675249318,-4.5710416226985e-09,8.4977587032459e-09,-1.8703074107689e-08,2.242338869822e-08,-0.00094304790987686,0.00094305164186205,-0.00099855114582263,0.00099853701322767,-0.00099853779189978,0.00099855070877292,-0.00099854692217311,0.00099854135645422,-0.00099853359364328,0.00099855503030007,-0.00085337173879143,0.00085333944729459,-0.00085333187770491,0.00085338028557427,-0.00089614900835079,0.00089615362107612,-0.00089613630195624,0.00089616668929969,-1.7286975239249e-09,-6.0560145910638e-10,-0.00056688914385626,0.00056688681121445,1.8735333581008e-08,-2.1779226724483e-08,-0.00063117870580724,0.00063118965800145,-0.00063119217177467,0.00063117622414172,-0.00063117831239966,0.00063119003192347,-0.00063119179782964,0.00063117658499555,-0.00060212271834208,0.0006021079264951,-0.00060212378325313,0.00060210683553023,0.79221450701437,128566,2924,0.0029774905698671,0.003921233431701,0.0023602068316165,38.073882032617,6.4591056260936e-05,6.4591056260936e-05,6.4591056260936e-05,3974669.3717693,0.0093021103659921
7019200,0.56158528883797,0.009691221194207,0.0031505748570372,0.0039252344018886,0.0026154119352811,-0.00074868591009664,0.00074868492540932,2.4581051569424e-11,-1.0322689887497e-09,5.7554623868524e-09,-6.976480819241e-09,-0.00081057095197709,0.00081057453056423,-0.00081057127567385,0.00081057416873814,-0.00081057497813365,0.00081057028421083,-0.00081057536454147,0.00081056995831249,-0.00071851292609,0.00071850873239283,-0.00071851405540264,0.00071850775961462,-4.4317880993274e-09,8.3067017156998e-09,-1.8114693174499e-08,2.1785289984227e-08,-0.000992570254084,0.00099257393611073,-0.0010521217673729,0.0010521080942425,-0.0010521088021498,0.0010521213768045,-0.0010521176493588,0.0010521123257623,-0.0010521047096734,0.0010521255887414,-0.00089626494353988,0.00089623369296337,-0.00089622625437547,0.00089627330374072,-0.00094203508161482,0.00094203955721081,-0.00094202269107608,0.00094205230100398,-1.6532760233189e-09,-4.8930814533784e-10,-0.00059074591113616,0.00059074377218469,1.8247470201134e-08,-2.106954737654e-08,-0.00066006582372411,0.00066007655227565,-0.00066007889645483,0.00066006351175775,-0.00066006541740877,0.00066007693976932,-0.00066007850656436,0.00066006388857158,-0.00062739187874032,0.00062737771864306,-0.00062739298913491,0.00062737658255673,0.73335807088213,128566,2924,0.0031145788270539,0.0041266747816081,0.0024595163069612,39.158067542584,7.3264540340669e-05,7.3264540340669e-05,7.3264540340669e-05,3995017.5640987,0.0097481859965888
7219200,0.58893263899877,0.010107706358845,0.0032819195596432,0.0041111332708329,0.0027146535283689,-0.00078136024370549,0.00078135934879541,9.7626101666813e-11,-1.0157117867151e-09,5.6928789156572e-09,-6.8198593407726e-09,-0.00084783573009794,0.00084783934448778,-0.00084783607431937,0.00084783896579461,-0.00084783968759265,0.00084783517163458,-0.00084784009144045,0.00084783482693484,-0.00074954938531285,0.00074954540660491,-0.0007495505670052,0.00074954437899483,-4.3477967346472e-09,8.1686076352321e-09,-1.7757113893418e-08,2.1375514734286e-08,-0.001041879059797,0.0010418826894088,-0.0011057899034845,0.0011057765015674,-0.0011057771804937,0.0011057895252074,-0.0011057858570196,0.001105780658357,-0.0011057731584296,0.001105793663232,-0.0009388240056114,0.00093879337976333,-0.00093878604441208,0.00093883221793705,-0.00098749119900197,0.0009874955827648,-0.00098747902104168,0.00098750810692612,-1.6223085525561e-09,-4.0508831447206e-10,-0.00061414856752645,0.00061414654550717,1.7942193197667e-08,-2.0626419687461e-08,-0.00068884622295592,0.00068885679761651,-0.00068885904961609,0.00068884400335917,-0.00068884579881215,0.00068885720318548,-0.00068885864148729,0.00068884439816483,-0.00065195362442395,0.00065193987704537,-0.00065195478755978,0.0006519386884115,0.70718848252447,128566,2924,0.003250281107616,0.0043311804035653,0.0025569409864268,40.242974439849,8.1943795518792e-05,8.1943795518792e-05,8.1943795518792e-05,4035154.4172809,0.010190212678922
7419200,0.61584298968365,0.010502439731896,0.0034064405077061,0.0042881855009316,0.0028078137232583,-0.00081147679980563,0.00081147587903285,6.9767186994886e-11,-1.0136791610781e-09,5.7619062688234e-09,-6.9153482931801e-09,-0.0008829954139764,0.00088299903563987,-0.00088299573335733,0.00088299867590137,-0.0008829994142464,0.00088299481961946,-0.00088299981989319,0.00088299447152946,-0.00077778531680926,0.00077778126278328,-0.00077778650089843,0.00077778022661276,-4.4538116381705e-09,8.2364300370102e-09,-1.8274993600343e-08,2.1855230906374e-08,-0.0010883315755199,0.0010883351669458,-0.0011567507288278,0.0011567368931509,-0.0011567376763005,0.0011567502641663,-0.0011567466139169,0.0011567411203783,-0.0011567336100759,0.0011567544485691,-0.00097874648157058,0.00097871492881493,-0.00097870759601855,0.00097875473504491,-0.0010300197650105,0.0010300243035958,-0.0010300074524214,0.0010300369640507,-1.7840646945289e-09,-4.2718922882084e-10,-0.00063527479435685,0.00063527258425752,1.8313740563267e-08,-2.1201034847971e-08,-0.00071573923033481,0.00071574987318038,-0.00071575235812217,0.00071573677703409,-0.00071573874701894,0.00071575033663442,-0.00071575191618067,0.00071573720580622,-0.00067395170844571,0.00067393756914915,-0.00067395297238275,0.00067393627763606,0.68501443935854,128566,2924,0.0033753420363617,0.0045237932943495,0.002644901363791,40.770924205406,8.6167393643246e-05,8.6167393643246e-05,8.6167393643246e-05,4071185.2500821,0.010600098042876
7619200,0.6415763521057,0.01087076824111,0.0035224368974276,0.0044538914944863,0.0028944398491963,-0.00083873112621214,0.00083873010206628,7.4437346251197e-11,-1.1203597353978e-09,5.8591016801677e-09,-7.1209519631585e-09,-0.00091571826097106,0.00091572192266069,-0.00091571861526766,0.00091572151348306,-0.00091572236711457,0.00091571759658815,-0.00091572279701876,0.00091571721971159,-0.00080341482397935,0.00080341065071723,-0.00080341608524953,0.00080340952901859,-4.6142343996594e-09,8.3761095289564e-09,-1.8991517700112e-08,2.2550128718694e-08,-0.0011314374236018,0.0011314409934548,-0.0012041877945251,0.0012041733806598,-0.0012041742988039,0.0012041872233797,-0.0012041835866219,0.0012041777028422,-0.0012041701319167,0.0012041915161765,-0.0010156860098387,0.0010156531250687,-0.0010156457568696,0.0010156943831668,-0.0010696593000941,0.0010696639616122,-0.0010696466739576,0.001069676950822,-1.9221169042987e-09,-5.6649807795576e-10,-0.00065403691902346,0.00065403442465028,1.8869505853725e-08,-2.2072603575884e-08,-0.00074034540454545,0.00074035625029345,-0.00074035901177993,0.00074034267446473,-0.00074034492639398,0.00074035670696741,-0.00074035855887687,0.00074034311375809,-0.00069317088332271,0.00069315602410632,-0.00069317217445943,0.00069315470896742,0.67223241129889,128566,2924,0.0034885039364541,0.0047024895438102,0.0027230297752317,40.851751338879,8.6814010711031e-05,8.6814010711031e-05,8.6814010711031e-05,4094037.0854606,0.010974113121139
7819200,0.66609872352826,0.011217496101103,0.0036314098242592,0.0046100735445209,0.0029760127323228,-0.00086438374752111,0.00086438263828977,5.7230292447968e-11,-1.1872175516e-09,5.913843207791e-09,-7.2640155748987e-09,-0.00094675196390334,0.0009467556235353,-0.0009467523296995,0.00094675519216284,-0.00094675613327865,0.00094675123021404,-0.00094675657783889,0.00094675083447036,-0.00082745612796292,0.0008274518556545,-0.00082745743431537,0.00082745067949741,-4.719617960911e-09,8.4690820708856e-09,-1.936293832229e-08,2.2908332870803e-08,-0.0011723238224582,0.0011723273792056,-0.0012492550024334,0.0012492402718595,-0.0012492412795801,0.0012492543632556,-0.0012492507312161,0.0012492446612872,-0.0012492370476213,0.0012492587233851,-0.0010506340544887,0.0010506005033014,-0.0010505931126405,0.001050642510266,-0.0011072184324295,0.0011072231264689,-0.0011072056128291,0.0011072363136747,-2.0300465146232e-09,-6.1443238362412e-10,-0.00067143610012029,0.00067143344454177,1.9136269812975e-08,-2.2524169649099e-08,-0.00076313050855918,0.00076314141648669,-0.00076314435052398,0.00076312760549207,-0.00076313000953022,0.00076314189333664,-0.00076314387893404,0.00076312806317241,-0.00071093796472803,0.00071092277020324,-0.00071093931206496,0.00071092140163042,0.66655083646003,128566,2924,0.0035950046838511,0.0048719510591247,0.0027954881616688,40.921630431906,8.7373043455246e-05,8.7373043455246e-05,8.7373043455246e-05,4102318.5747192,0.011326457614117
8019200,0.68940295120302,0.01154352331938,0.0037338140845729,0.0047571138471145,0.0030525953876924,-0.00088856953302817,0.00088856836791805,5.7511391165742e-11,-1.2426250095792e-09,5.9383076987797e-09,-7.3466139861327e-09,-0.00097585505287053,0.00097585871162314,-0.00097585543414646,0.00097585825833436,-0.00097585925736685,0.00097585428153586,-0.00097585971851384,0.00097585386629804,-0.00085007172965514,0.00085006742199175,-0.00085007308821398,0.00085006618936135,-4.7779212363153e-09,8.5178688486595e-09,-1.9498895033377e-08,2.3034083991428e-08,-0.0012109425925243,0.0012109461392436,-0.0012919668326228,0.0012919519710919,-0.0012919530294915,0.0012919661526461,-0.0012919625271243,0.0012919563967827,-0.001291948761898,0.0012919705494512,-0.0010834596366123,0.0010834258526934,-0.0010834184531353,0.0010834681342622,-0.0011425843642723,0.0011425890286394,-0.0011425714405553,0.0011426023247342,-2.0868255237987e-09,-6.1764720526463e-10,-0.00068764466651537,0.00068764194852783,1.9228013698115e-08,-2.2691457558473e-08,-0.00078445335772945,0.00078446427433719,-0.00078446728449425,0.00078445037839936,-0.00078445284010927,0.00078446476904687,-0.00078446679474359,0.00078445085380839,-0.00072727589549841,0.00072726060862877,-0.00072727729745552,0.00072725918900325,0.66097249294774,128566,2924,0.003695406476484,0.0050319838453454,0.0028629928484676,40.991096764554,8.7928774116435e-05,8.7928774116435e-05,8.7928774116435e-05,4106736.5310066,0.01165820527321
8219200,0.71163335883075,0.011851525316236,0.0038306007169472,0.0048961189999833,0.0031248055993056,-0.00091173405595652,0.00091173287480342,7.5945948353777e-11,-1.2766346018914e-09,5.9188771079996e-09,-7.344016063968e-09,-0.0010037481570436,0.0010037518099152,-0.0010037485545647,0.0010037513390067,-0.0010037523542834,0.001003747387468,-0.0010037528324575,0.0010037469537394,-0.00087183827065098,0.00087183400739491,-0.00087183968175944,0.00087183272369694,-4.772240737733e-09,8.5006525027835e-09,-1.9292896697131e-08,2.2816345716065e-08,-0.0012477503761409,0.0012477539112127,-0.0013328334953137,0.0013328187679196,-0.0013328198287396,0.001332832808843,-0.0013328291967116,0.0013328231868706,-0.0013328155683927,0.0013328371979207,-0.0011145521914389,0.0011145188059366,-0.0011145114237739,0.0011145606683921,-0.0011762158781071,0.0011762204145409,-0.0011762029795074,0.0011762336885896,-2.0875133574844e-09,-5.6138700937067e-10,-0.00070306339143088,0.00070306072939873,1.9046282539907e-08,-2.2452260559262e-08,-0.00080477671634866,0.00080478753032294,-0.0008047905030911,0.00080477377454177,-0.00080477617886388,0.0008047880447206,-0.0008047899946783,0.00080477426820715,-0.00074263205223188,0.00074261701226522,-0.00074263351054833,0.00074261554033953,0.65549139701111,128566,2924,0.0037915601616096,0.0051844857984665,0.0029272090004099,41.181507497614,8.9452059980912e-05,8.9452059980912e-05,8.9452059980912e-05,4112644.5302551,0.011974813945508
8419200,0.73284165622797,0.012144514863277,0.0039227853908047,0.0050282717969829,0.0031934576754897,-0.00093392002476598,0.00093391884474688,1.0799059067114e-10,-1.307056246278e-09,5.8816770312121e-09,-7.306357541263e-09,-0.0010303072605644,0.0010303109119064,-0.0010303076810078,0.001030310419905,-0.0010303114347727,0.0010303065131507,-0.0010303119321524,0.00103030606041,-0.00089277830067422,0.00089277412199841,-0.00089277977134041,0.00089277278387045,-4.7416028379351e-09,8.4557543812726e-09,-1.8995876167022e-08,2.2505393164687e-08,-0.0012828086005658,0.0012828121217465,-0.0013719048826505,0.0013718903664804,-0.0013718914111946,0.001371904201677,-0.0013719006096661,0.0013718947588894,-0.0013718871735324,0.0013719085670198,-0.0011440109051021,0.0011439780735738,-0.0011439707186611,0.0011440193319456,-0.0012081990250612,0.0012082034162296,-0.0012081861987711,0.0012082166229968,-2.0688798790203e-09,-4.9575587630894e-10,-0.0007177526950523,0.00071775011986527,1.8795090112634e-08,-2.2106356661218e-08,-0.00082414233359113,0.00082415302078548,-0.00082415592424636,0.00082413946119978,-0.00082414178125369,0.00082415354978693,-0.00082415539820958,0.00082413997192094,-0.00075725135791396,0.00075723664769107,-0.00075725286870916,0.00075723512747544,0.65380935199506,128566,2924,0.0038836435411424,0.0053297151045514,0.002988388306691,41.430826614147,9.1446612913178e-05,9.1446612913178e-05,9.1446612913178e-05,4118555.5743903,0.012276964968943
8619200,0.75301265357367,0.012422689388592,0.0040104348681625,0.0051536509810048,0.0032586035394242,-0.00095499940367516,0.0009549982293852,1.3737535695913e-10,-1.3309926833701e-09,5.8417625245913e-09,-7.2592039530963e-09,-0.0010554769223406,0.0010554805681974,-0.0010554773615602,0.001055480059409,-0.001055481068667,0.0010554761989631,-0.0010554815836741,0.0010554757281642,-0.0009126840169519,0.00091267992402423,-0.00091268554026337,0.00091267853371302,-4.7056003190227e-09,8.4037462536735e-09,-1.8733517061384e-08,2.2227407691423e-08,-0.0013160108482356,0.001316014353859,-0.0014090038200376,0.001408989494049,-0.0014089905200461,0.001409003147137,-0.001408999575244,0.0014089938571573,-0.0014089863103451,0.0014090074828437,-0.001171805505048,0.001171773159599,-0.0011717658396491,0.0011718138774742,-0.0012385043676964,0.0012385086511567,-0.0012384916257091,0.0012385217682687,-2.0552205005623e-09,-4.2610077627774e-10,-0.0007316525260959,0.00073165003611414,1.8574574642201e-08,-2.1793220048297e-08,-0.00084249887271971,0.00084250944866186,-0.00084251228694307,0.00084249606557537,-0.00084249830170897,0.00084250999676151,-0.00084251174264988,0.00084249659474214,-0.00077113310067346,0.00077111870326145,-0.00077113466489591,0.00077111712876004,0.65260875524554,128566,2924,0.0039711261590616,0.0054672338118526,0.0030462814459557,41.681604131595,9.3452833052757e-05,9.3452833052757e-05,9.3452833052757e-05,4124786.9766959,0.012563412051446
8819200,0.77213773980113,0.012676025481665,0.0040902025548457,0.0052686439369421,0.0033171789898775,-0.0009744242488564,0.00097442308243047,1.68725103347e-10,-1.3548036918019e-09,5.8032270636412e-09,-7.21161206079e-09,-0.001078971351201,0.0010789749948601,-0.0010789718098313,0.0010789744684118,-0.0010789754701764,0.0010789706544473,-0.0010789760033788,0.0010789701653351,-0.00093090889841763,0.00093090489466773,-0.00093091047592717,0.00093090345139062,-4.6704837042817e-09,8.3518636512396e-09,-1.8553276490374e-08,2.2030765687584e-08,-0.0013469238574703,0.0013469273467183,-0.0014437085738373,0.0014436943831887,-0.0014436953924192,0.001443707908555,-0.001443704356991,0.0014436987170368,-0.0014436912101828,0.0014437122152603,-0.0011975986404664,0.0011975666195606,-0.0011975593353042,0.0011976069585014,-0.0012665526169545,0.0012665568443567,-0.0012665399584186,0.0012665698740551,-2.0498816367952e-09,-3.6669004568055e-10,-0.00074428749360798,0.00074428507009685,1.8426220693136e-08,-2.1571587072077e-08,-0.00085951440136285,0.00085952490202431,-0.00085952769359618,0.00085951164100965,-0.0008595138123902,0.00085952546839283,-0.00085952713133209,0.00085951218819961,-0.00078356039292077,0.0007835462349719,-0.00078356201000331,0.00078354460694438,0.62941992842554,128566,2924,0.0040517355939878,0.0055952497862281,0.0030989114433874,41.932436803239,9.545949442591e-05,9.545949442591e-05,9.545949442591e-05,4139242.5144428,0.012828024839235
9019200,0.78981655424053,0.012910269875051,0.0041640413277325,0.0053747798218294,0.0033714487254886,-0.00099155757861607,0.00099155640724039,1.8852343263009e-10,-1.3799574700478e-09,5.7888443176474e-09,-7.2014427905131e-09,-0.0010997132954913,0.0010997169386816,-0.0010997137660882,0.0010997163989427,-0.001099717404002,0.0010997126087472,-0.0010997179545598,0.0010997121016831,-0.00094686275350429,0.00094685880213251,-0.00094686438025863,0.00094685730696843,-4.6654089678409e-09,8.3314012811745e-09,-1.8727877806306e-08,2.2190223023683e-08,-0.001374592902579,0.0013745963767808,-0.0014750092511236,0.0014749949409638,-0.0014749959574602,0.0014750085797796,-0.0014750050397029,0.0014749992687717,-0.0014749917856376,0.0014750128754599,-0.0012204480121419,0.0012204156468243,-0.0012204083886491,0.0012204563094621,-0.0012913877761802,0.0012913921322381,-0.0012913751492976,0.0012914051270238,-2.0885478986262e-09,-3.4159106116111e-10,-0.00075511418089691,0.00075511174371778,1.8582941608419e-08,-2.1745282062504e-08,-0.00087427108985891,0.00087428166407219,-0.00087428448948206,0.00087426829564301,-0.00087427047723006,0.00087428225427455,-0.00087428390878663,0.00087426886141461,-0.00079422738786703,0.00079421316348235,-0.00079422905968043,0.00079421147859384,0.62977530252086,128566,2924,0.0041228314109404,0.0057098169866774,0.0031440159262809,41.750042527404,9.4000340219235e-05,9.4000340219235e-05,9.4000340219235e-05,4140861.936198,0.013061817207212
9219200,0.80604296674687,0.01312274806082,0.0042310415112403,0.0054711362949535,0.0034205702546257,-0.0010068639353494,0.0010068627579516,2.1565108004246e-10,-1.4131257646846e-09,5.7783504025877e-09,-7.1967860764784e-09,-0.0011182937904973,0.0011182974435066,-0.0011182942804017,0.0011182968813961,-0.0011182978949646,0.0011182931170682,-0.0011182984633346,0.0011182925905519,-0.00096097785152628,0.00096097395369952,-0.00096097953115152,0.00096097240187289,-4.6647504036654e-09,8.3167644219675e-09,-1.8910658137669e-08,2.2359217764481e-08,-0.0013995176856733,0.0013995211461221,-0.0015033224627153,0.0015033080286535,-0.0015033090554844,0.0015033217840018,-0.0015033182571423,0.0015033123501019,-0.0015033048870101,0.0015033260760073,-0.001240972675823,0.0012409399416154,-0.0012409327071238,0.00124098095928,-0.0013135717349056,0.0013135762044731,-0.001313559118479,0.00131358918796,-2.1214274545515e-09,-3.2601541555946e-10,-0.00076465214365911,0.00076464968805961,1.8749238632865e-08,-2.1934407688932e-08,-0.00088743622274222,0.00088744688262095,-0.00088744974147987,0.00088743339500741,-0.00088743559479371,0.00088744748811894,-0.00088744914313986,0.00088743397838165,-0.00080368675622807,0.00080367244868881,-0.0008036884800026,0.00080367071200649,0.62300580410133,128566,2924,0.0041863428029437,0.0058130079190638,0.0031837559089005,41.452196507404,9.1617572059233e-05,9.1617572059233e-05,9.1617572059233e-05,4139858.5412146,0.013271013525103
9419200,0.82092628632993,0.013315350354667,0.0042917863117356,0.0055585389833945,0.0034650250595371,-0.0010206746832486,0.0010206735026953,2.4210547607919e-10,-1.4426178701139e-09,5.76287199697e-09,-7.1846264475349e-09,-0.0011350917088301,0.0011350953685257,-0.0011350922163642,0.0011350947863586,-0.0011350958045647,0.0011350910506713,-0.0011350963903992,0.001135090505195,-0.00097363442761698,0.00097363058966084,-0.00097363615969884,0.00097362898314885,-4.6574019508027e-09,8.2960795708167e-09,-1.9012259334881e-08,2.2447667291761e-08,-0.0014221164091812,0.001422119856509,-0.0015290626719707,0.0015290481710803,-0.0015290492027363,0.0015290619900084,-0.0015290584753962,0.0015290524830271,-0.0015290450427873,0.0015290662730866,-0.0012595552145625,0.0012595222694209,-0.0012595150599494,0.0012595634784142,-0.0013335833192885,0.0013335878649009,-0.0013335707295486,0.0013336008224977,-2.151040214573e-09,-3.028485529686e-10,-0.00077319568719901,0.00077319322428765,1.8840201071319e-08,-2.203537165145e-08,-0.00089930766771816,0.00089931836787594,-0.00089932125060686,0.00089930481606076,-0.00089930702243552,0.00089931899067841,-0.0008993206341904,0.00089930541747089,-0.00081219013421871,0.00081217580897296,-0.00081219191091159,0.00081217402009207,0.61620824215802,128566,2924,0.0042436454651779,0.0059065583957573,0.00321935457821,41.151426437031,8.9211411496251e-05,8.9211411496251e-05,8.9211411496251e-05,4139930.9520068,0.013459991416336
9619200,0.8345728261747,0.013489833607009,0.0043468169833734,0.0056377794450357,0.0035052371785994,-0.0010331299790119,0.0010331287999608,2.7039644291251e-10,-1.4693623298957e-09,5.7467744602681e-09,-7.1666656436369e-09,-0.0011502750424155,0.0011502787108487,-0.0011502755673226,0.001150278109307,-0.0011502791271684,0.001150274403926,-0.0011502797305245,0.0011502738396878,-0.00098499558031559,0.00098499180845892,-0.00098499736475799,0.00098499014747718,-4.6465674689651e-09,8.2723529903533e-09,-1.905464204953e-08,2.2477367908369e-08,-0.0014426059208477,0.0014426093555333,-0.00155245882548,0.0015524442993017,-0.0015524453327504,0.0015524581423914,-0.0015524546398055,0.0015524485996056,-0.0015524411833033,0.0015524624141945,-0.001276366898398,0.0012763338572724,-0.001276326673481,0.0012763751400399,-0.0013516474029228,0.0013516519930678,-0.0013516348463263,0.0013516649168725,-2.1765703076076e-09,-2.7466656668926e-10,-0.00078084668365069,0.00078084422271064,1.8877175430925e-08,-2.207208938902e-08,-0.00091000040097493,0.00091001111071434,-0.00091001400854994,0.00090999753420011,-0.00090999973791319,0.00091001175137681,-0.00091001337407571,0.00090999815367584,-0.00081980149670431,0.00081978720241699,-0.00081980332625704,0.00081978536078747,0.60938040739195,128566,2924,0.0042953214847362,0.0059913689246113,0.0032512361191895,40.850545406531,8.6804363252252e-05,8.6804363252252e-05,8.6804363252252e-05,4139897.1113634,0.013630672162997
9819200,0.84684789766152,0.01364768801544,0.0043966424270407,0.0057092632236668,0.0035417823647328,-0.0010435571363601,0.0010435559541791,3.0134049310589e-10,-1.5037325456156e-09,5.7434807156379e-09,-7.1656846409588e-09,-0.0011631025939522,0.0011631062830405,-0.0011631031427337,0.0011631056549925,-0.0011631066809043,0.0011631019735439,-0.0011631073015071,0.0011631013906218,-0.00099443584552121,0.00099443212515832,-0.00099443768148266,0.00099443040720042,-4.6491674524786e-09,8.2642060232376e-09,-1.9177189439379e-08,2.258929927159e-08,-0.0014602256805544,0.0014602291045434,-0.0015726999675392,0.0015726853583638,-0.0015726864022503,0.0015726992766109,-0.0015726957868538,0.0015726896530369,-0.0015726822502835,0.0015727035503256,-0.0012906791354801,0.0012906458395556,-0.0012906386728758,0.0012906873689666,-0.0013670923165847,0.0013670969672303,-0.0013670797518554,0.0013671098953458,-2.2046915189871e-09,-2.5969245123058e-10,-0.00078703676344014,0.00078703428821812,1.8991707763188e-08,-2.2205174824245e-08,-0.00091883753231313,0.00091884830034407,-0.00091885122557835,0.00091883463809405,-0.0009188368584082,0.00091884895205626,-0.0009188505730176,0.00091883527576265,-0.00082601107949668,0.00082599674147165,-0.00082601295989596,0.00082599484729172,0.61213711322062,128566,2924,0.0043385816861607,0.0060642936120318,0.0032770375169035,40.184271660989,8.1474173287913e-05,8.1474173287913e-05,8.1474173287913e-05,4131777.4179904,0.013774632420483
10019200,0.85788085540496,0.01379064976417,0.0044417924359866,0.0057737892482389,0.0035750680799447,-0.0010527132624048,0.0010527120785271,3.2360696703664e-10,-1.5276610684953e-09,5.7398974918805e-09,-7.163658012518e-09,-0.0011743957730666,0.0011743994726102,-0.0011743963349918,0.0011743988297848,-0.0011743998566615,0.0011743951665743,-0.0011744004939771,0.0011743945656052,-0.0010027607273279,0.0010027570584144,-0.0010027626149798,0.0010027552897222,-4.6514688832303e-09,8.2567153479549e-09,-1.921393753128e-08,2.2616259822257e-08,-0.0014758250402216,0.0014758284545596,-0.0015906358865848,0.0015906212464148,-0.0015906222990326,0.0015906351881514,-0.0015906317051852,0.001590625541536,-0.0015906181501859,0.001590639458102,-0.001303315292257,0.0013032819278274,-0.0013032747742729,0.0013033235167792,-0.0013808117488376,0.001380816422339,-0.001380799194762,0.0013808293388584,-2.2353664642342e-09,-2.2822282482712e-10,-0.00079245388204094,0.00079245140707828,1.901745511883e-08,-2.2232536466269e-08,-0.00092659161680139,0.00092660238178299,-0.00092660532626023,0.00092658870337375,-0.00092659092062059,0.00092660305576156,-0.00092660465508297,0.00092658935961155,-0.00083145557532868,0.00083144127598538,-0.00083145751135756,0.0008314393270444,0.61574677205241,128566,2924,0.0043765673428414,0.0061288505034201,0.0032996195539854,39.480105113671,7.5840840909368e-05,7.5840840909368e-05,7.5840840909368e-05,4121419.9395142,0.013901514020339
10219200,0.86781103737573,0.013920478946837,0.0044828147587277,0.0058321860862034,0.0036054781019063,-0.0010608145379969,0.0010608133531221,3.5057810062011e-10,-1.5554858246482e-09,5.7319388589193e-09,-7.1567250943727e-09,-0.0011844179353129,0.0011844216468927,-0.0011844185145071,0.001184420985568,-0.0011844220137017,0.0011844173460209,-0.0011844226693266,0.0011844167260179,-0.0010102731105376,0.0010102694999052,-0.0010102750519519,0.0010102676770057,-4.6483959663411e-09,8.2444091275486e-09,-1.9172740043599e-08,2.2565926641784e-08,-0.001489699543313,0.0014897029485804,-0.0016065959319144,0.0016065813176068,-0.0016065823739403,0.0016065952289901,-0.0016065917550525,0.0016065856078353,-0.0016065782298937,0.0016065994937291,-0.0013145202620118,0.0013144869738795,-0.0013144798337946,0.0013145284716269,-0.0013930748003588,0.0013930794498511,-0.0013930622621772,0.0013930923505458,-2.2561021819285e-09,-1.955389451212e-10,-0.00079725621689988,0.00079725375371104,1.8979123944968e-08,-2.2182296830943e-08,-0.00093347530952303,0.00093348603906688,-0.00093348898922637,0.00093347239039342,-0.00093347459518236,0.00093348673119853,-0.00093348830061306,0.0009334730640189,-0.00083633968095454,0.00083632547360716,-0.00083634166864032,0.00083632347384521,0.62007023125069,128566,2924,0.0044101759658213,0.0061862642949024,0.0033196409110286,38.774907720951,7.0199261767607e-05,7.0199261767607e-05,7.0199261767607e-05,4110262.4268187,0.014014130974477
10419200,0.87677638407031,0.014038882173056,0.0045202435916114,0.0058852539648338,0.003633384616611,-0.0010680812251033,0.001068080041925,3.789053749325e-10,-1.582006543081e-09,5.7183338910491e-09,-7.1414934759235e-09,-0.0011934056727242,0.0011934093950041,-0.0011934062702642,0.0011934087152437,-0.0011934097420733,0.0011934051036168,-0.0011934104155442,0.001193404465277,-0.0010170640449155,0.0010170604988566,-0.001017066039325,0.0010170586229233,-4.6382212422896e-09,8.2251346784286e-09,-1.9050268993947e-08,2.2434509887476e-08,-0.0015021616840425,0.0015021650803833,-0.0016209318413314,0.0016209173112379,-0.001620918365362,0.0016209311374722,-0.0016209276739363,0.0016209215915671,-0.0016209142304496,0.0016209353926521,-0.0013245731411033,0.001324540083045,-0.0013245329582305,0.0013245813287474,-0.0014041415116085,0.001404146096319,-0.0014041290023811,0.0014041589691193,-2.269837745651e-09,-1.5585802973471e-10,-0.00080158792952101,0.00080158549259227,1.8868116529433e-08,-2.2042645050005e-08,-0.00093966529005059,0.00093967594477977,-0.00093967888685984,0.0009396623790389,-0.00093966455808516,0.00093967665456984,-0.0009396781802096,0.0009396630706404,-0.00084077032345112,0.00084075627752186,-0.00084077236430555,0.00084075422524296,0.62506142991395,128566,2924,0.0044403216753027,0.0062378296945288,0.0033377014604445,38.099856310519,6.4798850484148e-05,6.4798850484148e-05,6.4798850484148e-05,4097682.4641733,0.014115327029774
10619200,0.88514628111676,0.014147324230669,0.0045544869816533,0.0059339735084917,0.0036588637405241,-0.0010758304472895,0.0010758292778258,4.1138579524597e-10,-1.6006559091789e-09,5.676353061145e-09,-7.0850376489044e-09,-0.0012028052295456,0.0012028089484143,-0.001202805843798,0.0012028082542675,-0.0012028092657116,0.0012028046916691,-0.0012028099578402,0.001202804034868,-0.0010243572539909,0.0010243538085184,-0.001024359303864,0.0010243518797784,-4.5969004240828e-09,8.1719912712762e-09,-1.8662920704054e-08,2.203581325856e-08,-0.0015147777556552,0.0015147811406939,-0.0016353037627268,0.0016352895096059,-0.0016352905389821,0.0016353030738064,-0.0016352996243037,0.001635293759895,-0.0016352864360126,0.0016353072958586,-0.0013349177577473,0.0013348854335824,-0.0013348783404824,0.00133492589219,-0.0014154199160396,0.0014154243264921,-0.001415407504036,0.0014154371010143,-2.2620796140739e-09,-9.0979642864141e-11,-0.00080652256830233,0.00080652020559567,1.8513552921225e-08,-2.1604673310056e-08,-0.00094641129535264,0.00094642173904005,-0.00094642462804961,0.00094640843749969,-0.00094641054298337,0.00094642246939426,-0.00094642390383776,0.00094640914663119,-0.00084578520888988,0.00084577154906481,-0.0008457873020919,0.00084576944539287,0.61395112736129,128566,2924,0.0044724673527478,0.0062900297327727,0.0033582650544191,38.029498566252,6.4235988530013e-05,6.4235988530013e-05,6.4235988530013e-05,4094532.7419905,0.014221744207099
10819200,0.8929625208418,0.014246802096332,0.00458587873701,0.0059787769334523,0.0036821464258698,-0.0010829826168806,0.0010829814603519,4.4647183680509e-10,-1.6229964675737e-09,5.6435997419e-09,-7.0384206828442e-09,-0.0012115055504358,0.0012115092767739,-0.0012115061870308,0.0012115085630724,-0.0012115095630898,0.001211505045163,-0.0012115102731925,0.001211504371842,-0.001031061983485,0.0010310586270443,-0.0010310640850642,0.0010310566495739,-4.5605357885268e-09,8.1248525400379e-09,-1.8362416941296e-08,2.172505233627e-08,-0.0015264621546827,0.0015264655293306,-0.0016486526752107,0.0016486386416456,-0.0016486396494673,0.0016486519991635,-0.0016486485654955,0.0016486428621979,-0.001648635571184,0.0016486561950788,-0.0013444699804667,0.0013444382125466,-0.0013444311489471,0.0013444780679016,-0.0014258347446574,0.0014258390177893,-0.0014258224078912,0.0014258517150949,-2.2571782821463e-09,-3.5265745194295e-11,-0.00081105947773234,0.00081105717735984,1.8248092850584e-08,-2.1268900546109e-08,-0.00095263186612755,0.00095264215528347,-0.00095264500141083,0.00095262905162324,-0.00095263109874712,0.00095264290071,-0.00095264425838742,0.00095262977966837,-0.0008503447880588,0.00085033144247297,-0.00085034693636501,0.00085032928297725,0.60386754127936,128566,2924,0.0045021354522822,0.006338372274643,0.0033771712238329,37.973676148749,6.3789409189991e-05,6.3789409189991e-05,6.3789409189991e-05,4094856.9689169,0.014320064565204
11019200,0.9002584227782,0.014337867573275,0.0046145949590669,0.0060199036627189,0.003703368951489,-0.0010895448090768,0.001089543662762,4.7849038689382e-10,-1.6448639693614e-09,5.6219169419141e-09,-7.0055754683018e-09,-0.0012195147795707,0.0012195185155059,-0.0012195154346518,0.0012195177855483,-0.0012195187743625,0.0012195143028894,-0.0012195195029718,0.0012195136111491,-0.0010371971225205,0.0010371938485427,-0.0010371992786494,0.0010371918163751,-4.5387073243714e-09,8.0921897237469e-09,-1.8155807323196e-08,2.1507901721895e-08,-0.0015372380550036,0.0015372414191023,-0.0016610052882318,0.0016609913999324,-0.0016609923965647,0.001661004615143,-0.001661001195063,0.0016609956027687,-0.0016609883363177,0.001661008792274,-0.0013532450687827,0.0013532136900677,-0.0013532066458138,0.0013532531195238,-0.0014354150949395,0.0014354192729398,-0.0014354028123637,0.0014354319135136,-2.261763556845e-09,1.4478206230609e-11,-0.0008151948281096,0.00081519257452986,1.806599816051e-08,-2.1034076960212e-08,-0.00095832726067973,0.00095833743810985,-0.00095834025735515,0.00095832447305986,-0.00095832647471559,0.00095833820237466,-0.00095833949663177,0.00095832521866632,-0.00085444980776641,0.00085443669658615,-0.00085445200735131,0.00085443448567728,0.59320720055929,128566,2924,0.0045293554145713,0.0063829539895373,0.0033944040693184,37.918398682205,6.3347189457641e-05,6.3347189457641e-05,6.3347189457641e-05,4097371.5540515,0.014410397462958
11219200,0.90705652558091,0.014422671945713,0.0046413442161841,0.006058157138262,0.0037231705912665,-0.0010955851132283,0.0010955839705604,5.0737490654121e-10,-1.6702540574743e-09,5.6183047547051e-09,-6.9976255259906e-09,-0.0012268708975884,0.0012268746516496,-0.0012268715716509,0.0012268739039082,-0.001226874889261,0.0012268704427411,-0.0012268756358278,0.0012268697332983,-0.0010428550999102,0.0010428518850654,-0.0010428573082365,0.0010428498007471,-4.5364430641313e-09,8.0816125645189e-09,-1.8098792454667e-08,2.1442702534392e-08,-0.0015471665383578,0.0015471698943122,-0.0016724126948825,0.0016723988423883,-0.0016723998409656,0.0016724120156363,-0.0016724086057675,0.0016724030405364,-0.001672395784188,0.0016724161887947,-0.0013613002669416,0.0013612689947633,-0.0013612619590919,0.0013613083014476,-0.0014442564550846,0.0014442605960772,-0.001444244182939,0.0014442732238461,-2.2784978637797e-09,5.171386003553e-11,-0.00081898289753826,0.0008189806654032,1.8019619235502e-08,-2.0963594950652e-08,-0.00096352775202071,0.00096353789384479,-0.00096354071034073,0.00096352496697017,-0.00096352694843078,0.00096353867576176,-0.00096353993137524,0.00096352573084256,-0.0008581993594184,0.0008581863606393,-0.00085820161229078,0.00085818409595602,0.59263236584804,128566,2924,0.0045544100968457,0.0064240285796391,0.0034101890123099,37.837604626104,6.270083700883e-05,6.270083700883e-05,6.270083700883e-05,4100281.0214656,0.014493513134971
11419200,0.91334694725426,0.014501725931489,0.0046662971859097,0.0060937222832155,0.0037417064623635,-0.0011009388050244,0.0011009376581704,5.3210421323963e-10,-1.6993126741529e-09,5.632511106595e-09,-7.0158030359155e-09,-0.0012334165605017,0.0012334203391722,-0.0012334172523995,0.0012334195732587,-0.0012334205631019,0.0012334161193764,-0.0012334213274357,0.0012334153919645,-0.0010478874618465,0.0010478842841818,-0.0010478897218892,0.001047882146528,-4.5547619043268e-09,8.094345837232e-09,-1.82008071526e-08,2.1539019754908e-08,-0.0015560915381273,0.0015560948884286,-0.001682698765132,0.001682684830825,-0.0016826858455709,0.0016826980699888,-0.0016826946656024,0.0016826890392766,-0.0016826817782949,0.0016827022536163,-0.0013684967483665,0.0013684652856714,-0.0013684582466908,0.0013685047888282,-0.0014521948334974,0.0014521990036259,-0.001452182529691,0.0014522116615462,-2.3096774020842e-09,7.494869745146e-11,-0.00082227719170751,0.00082227495153673,1.8115969408864e-08,-2.1069424156518e-08,-0.00096810370591931,0.00096811388922575,-0.00096811673158781,0.00096810089496876,-0.00096810288428191,0.00096811468917759,-0.00096811593441468,0.00096810167704976,-0.000861472646515,0.00086145962632455,-0.00086147495244297,0.00086145730793923,0.59626238435381,128566,2924,0.0045766167595831,0.006460949889099,0.0034239185732887,37.63057247805,6.1044579824398e-05,6.1044579824398e-05,6.1044579824398e-05,4099526.9031756,0.014567445389244
11619200,0.91916785969024,0.014575266034856,0.0046895219655397,0.0061267352373861,0.0037590088319299,-0.0011058671459593,0.0011058659928396,5.5648694271324e-10,-1.7297486783011e-09,5.6475947605369e-09,-7.037809731626e-09,-0.0012394402170027,0.0012394440200349,-0.0012394409265148,0.0012394432355793,-0.0012394442317814,0.0012394397878936,-0.00123944501428,0.0012394390419098,-0.0010525422139685,0.0010525390721973,-0.0010525445277019,0.0010525368805168,-4.5760834039696e-09,8.1113368503447e-09,-1.8339467344861e-08,2.1673182587031e-08,-0.0015643153563582,0.0015643187022355,-0.0016921716290601,0.0016921575874394,-0.0016921586203879,0.0016921709178344,-0.0016921675167744,0.0016921618089247,-0.0016921545405826,0.001692175114213,-0.0013751222616852,0.0013750905396742,-0.0013750834945251,0.001375130312584,-0.0014595156943931,0.0014595199130419,-0.0014595033541122,0.001459532609452,-2.3444867715458e-09,9.354267274962e-11,-0.00082531002889614,0.00082530777213835,1.8240954321308e-08,-2.1213206159527e-08,-0.00097232083472719,0.00097233107355234,-0.00097233394971499,0.00097231798998756,-0.00097231999504669,0.00097233189136586,-0.0009723331347596,0.00097231878968743,-0.00086451239453334,0.00086449932106116,-0.00086451475317428,0.00086449695122727,0.59873359393226,128566,2924,0.0045970588958305,0.0064949688312523,0.0034365592882089,37.420500369637,5.9364002957093e-05,5.9364002957093e-05,5.9364002957093e-05,4096641.8344554,0.014635541943403
11819200,0.92455566099424,0.01464382299804,0.0047111858655275,0.0061574363176297,0.0037752008148826,-0.0011104131723486,0.001110412013167,5.8071993811959e-10,-1.7598535896184e-09,5.659798119354e-09,-7.0564923241209e-09,-0.0012449941217365,0.0012449979472084,-0.001244994848642,0.001244997143989,-0.0012449981466581,0.0012449937045819,-0.0012449989469597,0.0012449929402151,-0.0010568578090586,0.0010568547044226,-0.0010568601751289,0.0010568524589096,-4.5933887374212e-09,8.1248866819361e-09,-1.8472641277254e-08,2.1802462899077e-08,-0.0015719058327677,0.0015719091747799,-0.0017009090591507,0.0017008949168473,-0.0017008959652508,0.0017009083350873,-0.0017009049366998,0.0017008991487421,-0.0017008918752714,0.0017009125418931,-0.0013812373377307,0.001381205364127,-0.001381198315795,0.0013812453981202,-0.0014662865096089,0.0014662907807661,-0.0014662741394875,0.0014663035083972,-2.3802022115739e-09,1.1168398384557e-10,-0.00082811336345901,0.0008281110884376,1.8361527775077e-08,-2.1354811327545e-08,-0.00097621648621473,0.00097622677676567,-0.00097622968833266,0.00097621360604074,-0.00097621562850198,0.00097622761244118,-0.00097622885535271,0.0009762144236439,-0.00086734310551896,0.00086732998045887,-0.00086734551727885,0.00086732755827428,0.60218092529216,128566,2924,0.0046159150845305,0.0065263663376456,0.0034482440873942,37.210314289088,5.7682514312707e-05,5.7682514312707e-05,5.7682514312707e-05,4092292.1603433,0.014698402780539
12019200,0.92955139869236,0.014709470455862,0.0047319683388725,0.0061866239763777,0.0037908781406115,-0.0011147528096005,0.0011147516471237,6.0593241019918e-10,-1.7881765230614e-09,5.6636578442839e-09,-7.0639679247465e-09,-0.001250234116409,0.0012502379603686,-0.0012502348606153,0.0012502371386742,-0.0012502381450973,0.0012502337137472,-0.0012502389628436,0.0012502329313014,-0.0010610347162869,0.0010610316570743,-0.0010610371337299,0.001061029358819,-4.6003626883718e-09,8.1278048307886e-09,-1.855814010397e-08,2.1883856260742e-08,-0.0015790517328105,0.0015790550707314,-0.0017090947321159,0.0017090805273233,-0.0017090815841162,0.0017090940014438,-0.0017090906063415,0.0017090847625348,-0.0017090774907325,0.0017090982117618,-0.0013870219380571,0.0013869897993835,-0.0013869827538436,0.0013870299997614,-0.0014727250668225,0.0014727293791894,-0.0014727126873741,0.0014727421176044,-2.4131924860635e-09,1.3334730221334e-10,-0.00083083477683212,0.00083083248992314,1.8439440285492e-08,-2.1446556669966e-08,-0.00097992599426927,0.00097993631179354,-0.00097993925281112,0.00097992308460639,-0.00097992511834447,0.00097993716554146,-0.00097993840146526,0.00097992392042924,-0.00087014581417865,0.00087013267543706,-0.00087014828014279,0.00087013019992346,0.61929850550843,128566,2924,0.0046339150789894,0.006555923849617,0.0034595866713099,37.027951579996,5.622361263997e-05,5.622361263997e-05,5.622361263997e-05,4085814.1334447,0.014758182741048
12219200,0.93420156221865,0.014772677666419,0.0047520150523541,0.0062145334083305,0.0038061292057347,-0.0011190060682653,0.001119004906235,6.3167273578556e-10,-1.8133295096128e-09,5.6589198258194e-09,-7.0588581311413e-09,-0.0012553186128826,0.001255322471142,-0.0012553193739125,0.0012553216321341,-0.0012553226385643,0.0012553182277103,-0.0012553234729337,0.0012553174282733,-0.0010651943168753,0.0010651913110809,-0.001065196783245,0.0010651889630032,-4.5940653506923e-09,8.1165623047107e-09,-1.8570040824823e-08,2.1890908071079e-08,-0.0015859362134752,0.0015859395466251,-0.0017169052712591,0.0017168910611717,-0.001716892117096,0.0017169045418275,-0.0017169011511581,0.0017168952905229,-0.0017168880290684,0.001716908746505,-0.0013926563900996,0.0013926242217742,-0.0013926171872073,0.0013926644414345,-0.0014789830774195,0.0014789874074972,-0.0014789707145443,0.0014790001288581,-2.4419865528841e-09,1.618437055483e-10,-0.0008335666605061,0.00083356437302606,1.8455812998581e-08,-2.1463816942745e-08,-0.00098360022483124,0.0009836105341995,-0.00098361349468679,0.00098359729582741,-0.00098359932992201,0.00098361140687046,-0.00098361262402805,0.0009835981508378,-0.00087302407587268,0.00087301098208055,-0.00087302659861103,0.00087300845050369,0.63789981266907,128566,2924,0.0046515567802508,0.0065843981018916,0.0034709731022106,36.914290680398,5.5314325443182e-05,5.5314325443182e-05,5.5314325443182e-05,4075566.5889642,0.014816547227047
12419200,0.93853053127701,0.014829545324965,0.0047700233613728,0.0062398013615162,0.0038197206020759,-0.0011228489611883,0.0011228478015767,6.6160256421639e-10,-1.8408945840127e-09,5.6486448996139e-09,-7.0456926903953e-09,-0.0012600035084788,0.0012600073804545,-0.0012600042883434,0.0012600065222455,-0.0012600075265239,0.0012600031448,-0.0012600083798655,0.0012600023258752,-0.0010689441394882,0.0010689412000573,-0.0010689466617687,0.0010689387949385,-4.5880353852566e-09,8.105963407735e-09,-1.8561562391834e-08,2.1877942542755e-08,-0.0015922993724513,0.0015923027010922,-0.0017241151875975,0.0017241009852802,-0.0017241020400981,0.0017241144587912,-0.001724111072639,0.0017241052090942,-0.001724097957478,0.0017241186577952,-0.0013978734036959,0.0013978412465042,-0.0013978342221899,0.0013978814454752,-0.001484700592763,0.0014847049282549,-0.0014846882462337,0.0014847176327473,-2.4644143688382e-09,1.9006990453717e-10,-0.00083599991637082,0.00083599763447161,1.844167140995e-08,-2.1444081652048e-08,-0.00098700164839717,0.00098701193541795,-0.00098701490714123,0.00098699870817278,-0.00098700073650849,0.00098701282516878,-0.000987014019612,0.0009869995799967,-0.00087556190296817,0.00087554887564993,-0.00087556447502401,0.00087554629471849,0.61826606628814,128566,2924,0.0046674965670539,0.0066107129049568,0.0034811190453318,36.802287426544,5.4418299412353e-05,5.4418299412353e-05,5.4418299412353e-05,4063574.5963729,0.014869738389733
12619200,0.94256067774299,0.014879572426262,0.0047858204617598,0.0062622601552202,0.0038314918092825,-0.0011262588248865,0.0011262576677912,6.9003154698784e-10,-1.8668246795652e-09,5.6398488932744e-09,-7.0340726262626e-09,-0.0012642177390906,0.0012642216249349,-0.0012642185370336,0.0012642207486017,-0.0012642217505926,0.0012642173960395,-0.0012642226219129,0.0012642165589354,-0.0010722028025732,0.0010721999253012,-0.001072205377778,0.0010721974669255,-4.5802090544044e-09,8.0935169307899e-09,-1.8528864443322e-08,2.1840741798624e-08,-0.0015980422902515,0.0015980456143977,-0.0017306820859188,0.0017306679087658,-0.0017306689608656,0.0017306813587784,-0.0017306779774542,0.0017306721257368,-0.001730664884711,0.0017306855509773,-0.0014025400670473,0.0014025079670043,-0.0014025009531485,0.001402548096884,-0.0014897864157523,0.0014897907435516,-0.0014897740887702,0.0014898034276136,-2.4870162294533e-09,2.2128155518513e-10,-0.00083812106858426,0.00083811879545238,1.8411656232246e-08,-2.1404682567502e-08,-0.00099001818342358,0.00099002843814898,-0.00099003141925548,0.00099001523379411,-0.00099001725360011,0.00099002934582827,-0.000990030513774,0.00099001612358177,-0.00087770497265953,0.00087769202959278,-0.00087770759739112,0.00087768939582153,0.58731202336274,128566,2924,0.0046816398796565,0.0066344623741381,0.0034899636690767,36.6903463061,5.35227704488e-05,5.35227704488e-05,5.35227704488e-05,4058295.3044753,0.014917183998986
12819200,0.94627890980615,0.014926122193986,0.0048005280449113,0.0062830968311886,0.0038424973178863,-0.0011290785898062,0.0011290774306191,7.1422869649844e-10,-1.8932479752676e-09,5.6437617238376e-09,-7.0397686590174e-09,-0.0012677025776781,0.0012677064814529,-0.0012677033922665,0.0012677055880116,-0.0012677065923339,0.0012677022494246,-0.0012677074804502,0.0012677013951319,-0.0010748698463205,0.0010748670131386,-0.0010748724704067,0.0010748645041253,-4.5845181938808e-09,8.0946062646291e-09,-1.8543336257806e-08,2.1851958962418e-08,-0.0016029236562902,0.0016029269772008,-0.0017363519412267,0.0017363377502235,-0.0017363388074281,0.0017363512089649,-0.0017363478306958,0.0017363419690294,-0.0017363347293997,0.0017363554029782,-0.0014064169903106,0.0014063848636132,-0.0014063778522561,0.0014064250197445,-0.0014940977596755,0.0014941020875632,-0.0014940854268493,0.0014941147760652,-2.5158586807332e-09,2.4996220610789e-10,-0.00083979756298255,0.00083979528949153,1.8428720576942e-08,-2.142287108982e-08,-0.00099240438721591,0.00099241463425701,-0.00099241763462968,0.00099240141829326,-0.00099240343825247,0.00099241556109404,-0.00099241671010976,0.00099240232714396,-0.0008793735032335,0.00087936060460053,-0.00087937618362113,0.00087935791440796,0.59134553668482,128566,2924,0.0046933356395108,0.006654650277294,0.0034969540805719,36.40690459201,5.1255236736079e-05,5.1255236736079e-05,5.1255236736079e-05,4056735.4767333,0.014956647957409
13019200,0.94966642275369,0.014968688939699,0.0048139807894208,0.0063021179714348,0.0038525901788436,-0.0011311292034546,0.0011311280374803,7.4123003529336e-10,-1.9269953754171e-09,5.6571705765115e-09,-7.0602355181219e-09,-0.0012703432491713,0.0012703471778627,-0.0012703440837077,0.0012703462637886,-0.0012703472752925,0.0012703429342304,-0.0012703481831127,0.0012703420598584,-0.0010768035598858,0.001076800767409,-0.0010768062423766,0.001076798199238,-4.6058829949067e-09,8.1147275582315e-09,-1.862181696651e-08,2.1928975422795e-08,-0.0016068307453513,0.0016068340648722,-0.0017409714913877,0.0017409572343615,-0.0017409583075614,0.0017409707449854,-0.0017409673675724,0.0017409614668907,-0.0017409542157136,0.0017409749530257,-0.0014094247699168,0.0014093925020434,-0.0014093854805524,0.0014094328139236,-0.0014974934593086,0.0014974977957769,-0.001497481084737,0.0014975105259792,-2.5442600327238e-09,2.6899014020773e-10,-0.00084086088149341,0.0008408585982884,1.849234671559e-08,-2.1498111191482e-08,-0.0009940936197277,0.00099410388813342,-0.00099410691366282,0.00099409062568488,-0.00099409265497271,0.00099410483068486,-0.00099410597293374,0.00099409155065876,-0.00088041141547444,0.00088039850927687,-0.00088041414345618,0.00088039577173342,0.59302696744828,128566,2924,0.0047018421115308,0.0066708075628924,0.0035013940073967,35.874211953218,4.6993695625742e-05,4.6993695625742e-05,4.6993695625742e-05,4050070.6855486,0.014986195586899
13219200,0.95275618998983,0.015007693134659,0.0048263104643524,0.006319511389396,0.0038618712809103,-0.0011329038657814,0.0011329026942058,7.6259661140471e-10,-1.9538512362122e-09,5.6687808798339e-09,-7.0773201396102e-09,-0.0012726473154249,0.0012726512638125,-0.0012726481654683,0.0012726503333809,-0.0012726513506494,0.0012726470107935,-0.0012726522746264,0.0012726461197383,-0.0010784847943477,0.0010784820349838,-0.001078487524229,0.0010784794177798,-4.6179946514921e-09,8.1251638413514e-09,-1.8654562868027e-08,2.1959972685438e-08,-0.0016102887153812,0.0016102920331507,-0.0017450720511743,0.0017450577636152,-0.0017450588464162,0.0017450712958592,-0.0017450679196144,0.0017450620039343,-0.0017450547474441,0.0017450755112915,-0.0014120694304545,0.0014120371062565,-0.0014120300807604,0.0014120774816283,-0.0015004916069728,0.0015004959410676,-0.0015004792105151,0.0015005086921185,-2.5767585818842e-09,2.964608874516e-10,-0.00084175238007213,0.00084175009159772,1.8528915781577e-08,-2.1541187355537e-08,-0.00099554987978996,0.00099556014959927,-0.00099556319973101,0.00099554686099231,-0.00099554889488417,0.00099556111216435,-0.00099556223937416,0.00099554780557932,-0.00088128483522492,0.00088127195565358,-0.00088128762118952,0.00088126916036717,0.59512403647827,128566,2924,0.0047092042550378,0.0066851070578727,0.0035051180655866,35.335485888022,4.2683887104173e-05,4.2683887104173e-05,4.2683887104173e-05,4042342.0428663,0.015011969489943
13419200,0.95557852593872,0.015042738087209,0.0048373785626653,0.0063351729602045,0.0038701865643393,-0.0011344026183443,0.0011344014437303,7.8939019388835e-10,-1.9834996011864e-09,5.671294163632e-09,-7.0834655910473e-09,-0.0012746396083821,0.0012746435756747,-0.0012746404771831,0.0012746426262823,-0.0012746436466921,0.0012746393197024,-0.0012746445892278,0.0012746384098849,-0.0010798976890997,0.0010798949792697,-0.0010799004739538,0.0010798923074483,-4.6241918631716e-09,8.1296358206179e-09,-1.866187024638e-08,2.1965450870671e-08,-0.0016133265585981,0.0016133298745769,-0.0017486951313348,0.0017486808341582,-0.0017486819224664,0.0017486943707529,-0.0017486909963472,0.0017486850780196,-0.0017486778198017,0.0017486985899362,-0.0014143726055447,0.0014143402701195,-0.0014143332425417,0.0014143806582841,-0.0015030955283443,0.0015030998541709,-0.0015030831221982,0.0015031126175371,-2.6018550279825e-09,3.2307170359538e-10,-0.00084246355455465,0.00084246126747802,1.8532846700608e-08,-2.1543672725009e-08,-0.00099678905228038,0.00099679930856171,-0.00099680237457531,0.00099678601769584,-0.00099678805013515,0.00099680028824018,-0.00099680139674591,0.00099678697958223,-0.00088196797994409,0.00088195515056181,-0.00088197081753208,0.00088195230484077,0.58608287552856,128566,2924,0.0047154221947997,0.0066976684623535,0.0035080912779513,34.79653367917,3.8372269433364e-05,3.8372269433364e-05,3.8372269433364e-05,4034281.6034235,0.015034055969502
13619200,0.95817411990082,0.015074547195863,0.0048474175356056,0.0063494073819224,0.0038777222783347,-0.0011358623002709,0.0011358611292436,8.2237672988923e-10,-2.0127334018514e-09,5.6571289013324e-09,-7.065886243849e-09,-0.0012765430638429,0.0012765470456818,-0.0012765439541721,0.0012765460753436,-0.0012765470927216,0.0012765427996857,-0.0012765480553589,0.001276541870105,-0.001081271233391,0.0010812685974751,-0.001081274078372,0.0010812658668185,-4.6135128183502e-09,8.1157776865038e-09,-1.8591116464036e-08,2.1891706884088e-08,-0.0016161827667357,0.0016161860797272,-0.0017520981569582,0.0017520839134994,-0.0017520849957483,0.0017520974012386,-0.0017520940308822,0.0017520881486589,-0.0017520809003404,0.0017521016127058,-0.0014165473157509,0.0014165151088594,-0.0014165080910924,0.0014165553551437,-0.0015055528225739,0.0015055571185545,-0.0015055404388089,0.0015055698600723,-2.6169662425879e-09,3.5396282726913e-10,-0.0008432013585089,0.00084319908740953,1.8462743956434e-08,-2.1455180024206e-08,-0.00099799577425808,0.00099800597862368,-0.00099800904483004,0.00099799273974649,-0.00099799475731015,0.00099800697306596,-0.0009980080508811,0.00099799371774067,-0.00088267092119746,0.00088265820587942,-0.00088267380571618,0.00088265531391909,0.57889843099753,128566,2924,0.0047214777983981,0.0067094794023424,0.003511172633983,34.355834962788,3.4846679702308e-05,3.4846679702308e-05,3.4846679702308e-05,4029522.5866214,0.015055325372091
13819200,0.9605754888795,0.015103966973558,0.004856702807909,0.0063625576530581,0.0038847065125909,-0.0011373192921593,0.0011373181279139,8.5086240140681e-10,-2.0344589583969e-09,5.6380447596193e-09,-7.0396153700532e-09,-0.0012783965408626,0.0012784005307203,-0.0012783974478169,0.0012783995442298,-0.0012784005544168,0.0012783963002403,-0.001278401534221,0.0012783953535001,-0.0010826490418076,0.0010826464775459,-0.001082651936672,0.0010826436966987,-4.5912837171987e-09,8.0893215719552e-09,-1.8475413663912e-08,2.1771853160537e-08,-0.001618909954841,0.0016189132636216,-0.0017553361986658,0.0017553220439138,-0.00175532311287,0.0017553354527293,-0.0017553320877829,0.0017553262631567,-0.0017553190336492,0.0017553396476037,-0.0014186387972564,0.0014186068028462,-0.0014185998007638,0.0014186468128972,-0.0015079190422061,0.0015079233059565,-0.0015079067075159,0.0015079359980591,-2.6355117450062e-09,3.9341772121437e-10,-0.00084398884506012,0.00084398659543811,1.8360711137555e-08,-2.1329174088834e-08,-0.00099919932865583,0.00099920945856072,-0.00099921252316738,0.0009991962956502,-0.00099919829204659,0.00099921047273116,-0.00099921151028144,0.00099919729256455,-0.00088342746879972,0.00088341490664249,-0.00088343040965361,0.00088341195831301,0.57842147688261,128566,2924,0.0047275219468303,0.0067207574781649,0.0035144583656125,34.003589962855,3.2028719702838e-05,3.2028719702838e-05,3.2028719702838e-05,4027149.5747757,0.015076249409884
14019200,0.96279945779805,0.015131216289292,0.0048653040293771,0.0063747251695483,0.003891187090367,-0.0011386240421328,0.001138622884458,8.7974317100883e-10,-2.056930898056e-09,5.6211476591817e-09,-7.0155029043784e-09,-0.0012800645128174,0.0012800685125591,-0.0012800654372046,0.0012800675094162,-0.0012800685128489,0.0012800642960656,-0.0012800695100654,0.0012800633319188,-0.0010838862405397,0.0010838837469004,-0.0010838891862269,0.0010838809152249,-4.5714342131169e-09,8.0653440980388e-09,-1.8378616738639e-08,2.1671131338343e-08,-0.0016213811092655,0.0016213844141328,-0.0017582786375948,0.0017582645578185,-0.0017582656148555,0.0017582779006155,-0.0017582745405507,0.0017582687625453,-0.0017582615498735,0.0017582820807244,-0.0014205256529892,0.001420493834679,-0.0014204868482303,0.0014205336474853,-0.0015100580393597,0.00151006227759,-0.0015100457476383,0.0015100749251426,-2.6547410769419e-09,4.3102214479085e-10,-0.00084468326523859,0.00084468103446682,1.8276315890742e-08,-2.1223641047284e-08,-0.0010002758140143,0.0010002858801025,-0.001000288945216,0.0010002727803823,-0.0010002747584617,0.0010002869133251,-0.001000287913714,0.0010002737959664,-0.00088409440902142,0.00088408198290708,-0.00088409740447191,0.00088407897937543,0.57820996693188,128566,2924,0.0047329346806436,0.0067309766100064,0.0035173562249279,33.653493938512,2.9227951508092e-05,2.9227951508092e-05,2.9227951508092e-05,4024390.3399542,0.015095063862643
14219200,0.96486100836985,0.015155525360857,0.0048729618304204,0.006385651976559,0.0038969115538772,-0.0011397356647914,0.0011397345128344,9.097653395452e-10,-2.0814162693377e-09,5.6068620813647e-09,-6.9951950950621e-09,-0.0012815269591153,0.0012815309713907,-0.0012815279021286,0.0012815299504097,-0.0012815309480501,0.0012815267664706,-0.0012815319634048,0.0012815257842942,-0.0010849246092389,0.0010849221855668,-0.0010849276082614,0.0010849193010531,-4.5560287728601e-09,8.0462120273339e-09,-1.8302401950772e-08,2.1591360391173e-08,-0.0016235747521445,0.0016235780534558,-0.0017609135778015,0.0017608995569709,-0.0017609006049995,0.0017609128473789,-0.0017609094919291,0.0017609037500849,-0.0017608965510348,0.0017609170160536,-0.0014221817860492,0.0014221501056378,-0.0014221431314405,0.0014221897629397,-0.0015119245093007,0.0015119287261389,-0.001511912250989,0.0015119413396608,-2.6737855835406e-09,4.6564978759454e-10,-0.000845242083909,0.00084523986918454,1.8207675469013e-08,-2.1136849407095e-08,-0.0010012020071055,0.001001212019296,-0.0010012150868561,0.0010011989710427,-0.0010012009338147,0.0010012130703944,-0.0010012140374102,0.0010012000046063,-0.00088460756605629,0.00088459525955987,-0.00088461061393377,0.000884592203004,0.55856305709534,128566,2924,0.0047375464698505,0.0067400477176039,0.0035196895640538,33.303478382931,2.6427827063445e-05,2.6427827063445e-05,2.6427827063445e-05,4021799.2731117,0.015111327205922
14419200,0.96674195300324,0.015177956556998,0.0048800335787503,0.0063956989617953,0.0039022240164527,-0.0011401215735878,0.0011401204208548,9.4724744025195e-10,-2.1200053705457e-09,5.6084723781437e-09,-6.9964076473724e-09,-0.0012821805130928,0.0012821845519535,-0.0012821814824511,0.0012821835040716,-0.0012821845048635,0.0012821803441238,-0.0012821855432812,0.0012821793386977,-0.0010852230358039,0.0010852206776761,-0.0010852261037309,0.0010852177247011,-4.5672778046805e-09,8.056163079042e-09,-1.8385678598551e-08,2.1673167018036e-08,-0.0016248755997164,0.0016248788997915,-0.0017626343678018,0.0017626202867362,-0.0017626213438195,0.0017626336304612,-0.0017626302769198,0.0017626244851256,-0.0017626172808602,0.0017626378074488,-0.0014229959571397,0.0014229641150167,-0.0014229571382221,0.0014230039432449,-0.0015129468739796,0.0015129511178754,-0.001512934585107,0.0015129637541082,-2.6937023739437e-09,4.7797936569497e-10,-0.00084519508585831,0.00084519286318511,1.8265249605751e-08,-2.1204691456126e-08,-0.0010014009248885,0.0010014109622571,-0.001001414048479,0.0010013978701627,-0.001001399842184,0.0010014120228885,-0.0010014129861967,0.0010013989167716,-0.00088448896820343,0.00088447665109418,-0.00088449205295719,0.00088447355626857,0.56383118093504,128566,2924,0.0047391488302706,0.0067454274992218,0.0035195015671607,32.647886663752,2.1183093310015e-05,2.1183093310015e-05,2.1183093310015e-05,4018194.083961,0.015118227238301
14619200,0.9684450405862,0.015198384274206,0.0048864758763974,0.0064048266456556,0.0039070817521529,-0.0011400458129392,0.0011400446601523,9.5284482758649e-10,-2.1258144602182e-09,5.6135256615451e-09,-7.0011870538943e-09,-0.0012823360595694,0.0012823401018656,-0.0012823370281383,0.0012823390529933,-0.0012823400503409,0.0012823358952011,-0.0012823410964284,0.0012823348795462,-0.0010850758097785,0.0010850734733023,-0.0010850789005181,0.0010850704926854,-4.5566508547971e-09,8.0431064756182e-09,-1.8494477131713e-08,2.1779889863727e-08,-0.0016256002182393,0.0016256035160192,-0.0017637294754205,0.0017637153239721,-0.0017637163754407,0.0017637287437081,-0.0017637253877498,0.0017637195187176,-0.0017637123261418,0.0017637329091073,-0.0014232992706118,0.0014232672195673,-0.0014232602600527,0.0014233072521993,-0.0015134238229288,0.0015134281723663,-0.0015134115723257,0.0015134407721523,-2.7535789355647e-09,5.1517272224378e-10,-0.00084476789807792,0.00084476565188718,1.839579192989e-08,-2.1362316128718e-08,-0.0010011850953621,0.0010011951690797,-0.0010011983097139,0.0010011819865232,-0.0010011839773911,0.0010011962663174,-0.0010011972205966,0.0010011830603881,-0.00088398932527213,0.00088397697276333,-0.00088399248995364,0.00088397379601302,0.56645233452569,128566,2924,0.0047388369944123,0.0067484234835965,0.0035177329496553,31.823551302132,1.4588410417059e-05,1.4588410417059e-05,1.4588410417059e-05,4009879.8527406,0.015119159423918
14819200,0.96998982899419,0.015217042178317,0.0048923625839904,0.0064131406709064,0.0039115389234204,-0.001139835537041,0.0011398343838662,9.7931678409227e-10,-2.1523142807155e-09,5.6128634657784e-09,-7.0018128498354e-09,-0.0012823290450985,0.0012823331029992,-0.0012823300297365,0.0012823320379777,-0.0012823330339907,0.0012823288980507,-0.0012823340996866,0.0012823278636189,-0.0010848067774016,0.001084804497488,-0.0010848099246311,0.0010848014625804,-4.5586091284438e-09,8.043344215826e-09,-1.8586721439066e-08,2.1870195573655e-08,-0.0016260988963265,0.0016261021922393,-0.0017645557743413,0.0017645415576264,-0.0017645426141729,0.0017645550412795,-0.0017645516837039,0.001764545754943,-0.0017645385641981,0.0017645592059497,-0.0014234274882554,0.001423395262531,-0.0014233883021117,0.0014234354684911,-0.0015137009187477,0.0015137053306625,-0.0015136886732581,0.001513717929638,-2.7878410063066e-09,5.3596363900042e-10,-0.00084425712133489,0.00084425486159158,1.8475505760893e-08,-2.145686559276e-08,-0.0010008608775539,0.0010008709761734,-0.0010008741480235,0.0010008577374845,-0.0010008597393072,0.0010008720926483,-0.00100087304157,0.0010008588277932,-0.00088341502427162,0.00088340264841,-0.00088341824031239,0.00088339942368623,0.56961685080809,128566,2924,0.0047379673531049,0.0067504848423972,0.0035156164075548,30.995084956758,7.9606796540653e-06,7.9606796540653e-06,7.9606796540653e-06,4000174.0744463,0.015118223145069
15019200,0.97137223689106,0.015233677784449,0.0048976105546774,0.0064205493953098,0.003915517834462,-0.0011389748789449,0.0011389737308271,1.0260350412695e-09,-2.194641039163e-09,5.5940200521541e-09,-6.9759770897472e-09,-0.0012816387886118,0.0012816428704411,-0.0012816398068717,0.0012816417706567,-0.0012816427667125,0.0012816386747224,-0.0012816438584382,0.0012816376173534,-0.0010838929752099,0.0010838907851969,-0.0010838961942656,0.0010838876777474,-4.5498293689536e-09,8.0324224108326e-09,-1.8731991519105e-08,2.2013056929104e-08,-0.0016258270485348,0.0016258303422234,-0.0017645692428982,0.0017645549408495,-0.0017645559965762,0.0017645685179072,-0.0017645651634853,0.0017645591266291,-0.0017645519463971,0.0017645726798933,-0.0014228503462818,0.0014228178138727,-0.0014228108688199,0.0014228583242294,-0.0015132302859397,0.001513234796274,-0.0015132180400496,0.0015132473858488,-2.8057467992693e-09,5.3710075502609e-10,-0.00084317960809623,0.00084317733007445,1.85817491727e-08,-2.1585487663759e-08,-0.00099993039114417,0.00099994054821495,-0.00099994374432586,0.00099992722650579,-0.00099992925028531,0.00099994166618931,-0.00099994262609971,0.00099992832878532,-0.00088225772962127,0.00088224529233365,-0.00088226097797518,0.00088224203275618,0.56737759693975,128566,2924,0.0047344009376298,0.0067493586756808,0.0035111439384816,29.892129351492,-8.6296518806565e-07,-8.6296518806565e-07,-8.6296518806565e-07,3985098.166715,0.015108921607339
15219200,0.97259100562218,0.015247678627838,0.0049020167350746,0.0064268315112277,0.0039188303815356,-0.001137380012082,0.0011373788687614,1.0322190718497e-09,-2.1965224503749e-09,5.5805535373153e-09,-6.9564738857332e-09,-0.0012801774713117,0.0012801815447253,-0.0012801784859167,0.001280180445741,-0.0012801814329356,0.0012801773650243,-0.0012801825315872,0.0012801762970987,-0.0010822324686392,0.0010822303171606,-0.0010822357084736,0.0010822271821216,-4.5166627753467e-09,7.994740939211e-09,-1.8862104114726e-08,2.2139220063495e-08,-0.0016246856992816,0.0016246889887874,-0.0017636794429179,0.0017636650697235,-0.001763666106131,0.0017636787364778,-0.0017636753807561,0.0017636692366802,-0.0017636620867983,0.0017636828702906,-0.0014214665834299,0.0014214337881155,-0.0014214268784398,0.0014214745414131,-0.0015119055815571,0.0015119102599346,-0.0015118934223321,0.0015119227624245,-2.8708038713241e-09,5.7269321995578e-10,-0.00084145987613446,0.0008414575679014,1.8731304603267e-08,-2.1770762673843e-08,-0.00099830508712962,0.00099831528778474,-0.00099831854582307,0.00099830186081045,-0.00099830390880427,0.00099831644535871,-0.00099831740051943,0.00099830299081099,-0.00088042261483358,0.00088041012386032,-0.00088042594465092,0.00088040677982586,0.5439118035834,128566,2924,0.004727789964735,0.0067446359833669,0.003504000974418,28.486466618657,-1.2108267050742e-05,-1.2108267050742e-05,-1.2108267050742e-05,3965840.3350354,0.015090167349993
15419200,0.97366778542555,0.015261881166853,0.0049065207211708,0.006433024889528,0.0039223355561546,-0.0011357532135485,0.0011357520730313,1.0752549944719e-09,-2.2361445753271e-09,5.5672566289238e-09,-6.9419930092905e-09,-0.0012785791318418,0.0012785832298267,-0.0012785801773302,0.0012785821007723,-0.0012785830885174,0.001278579056215,-0.0012785842104281,0.0012785779647006,-0.0010805464411327,0.0010805443735641,-0.0010805497527141,0.0010805411709246,-4.5149334121187e-09,7.9909396086331e-09,-1.8912128627041e-08,2.2187330542988e-08,-0.0016233514200479,0.0016233547076943,-0.0017625707926053,0.0017625563912011,-0.0017625574286971,0.0017625700874742,-0.0017625667358301,0.0017625605530236,-0.0017625534066845,0.0017625742226887,-0.0014199148827723,0.0014198819764,-0.0014198750667385,0.0014199228334425,-0.0015104679940315,0.0015104726956677,-0.0015104558314581,0.0015104852074852,-2.8857908110551e-09,5.8332293537003e-10,-0.0008397609234591,0.00083975861130567,1.8754919760016e-08,-2.1797099284315e-08,-0.0009965688892156,0.00099657909783513,-0.0009965823686333,0.00099656565019237,-0.00099656770528398,0.00099658026034678,-0.00099658121037984,0.00099656679255228,-0.00087863728317589,0.00087862480410813,-0.00087864064996385,0.00087862142662717,0.61487580136177,128566,2924,0.0047210460551219,0.0067391178239326,0.0034969406667504,27.073499644931,-2.3412002840555e-05,-2.3412002840555e-05,-2.3412002840555e-05,3949833.6417259,0.015070552454538
15619200,0.97463841581112,0.015274966825647,0.0049106755646415,0.0064387046192705,0.0039255866417349,-0.001134608853932,0.0011346077128917,1.1438121676653e-09,-2.3045416603079e-09,5.5671355349338e-09,-6.9440917525283e-09,-0.0012775741215153,0.0012775782743049,-0.0012775752215316,0.0012775770922512,-0.0012775780889246,0.0012775740906837,-0.0012775792457596,0.0012775729631752,-0.0010794489577826,0.0010794469967732,-0.0010794523758661,0.001079443688245,-4.5666392028364e-09,8.0451665373318e-09,-1.8794019893417e-08,2.2071416321852e-08,-0.0016226348027817,0.0016226380926321,-0.0017619747234645,0.0017619603774754,-0.0017619614451125,0.0017619739835717,-0.0017619706420539,0.0017619645652183,-0.0017619573802674,0.0017619781631315,-0.0014190676607435,0.0014190349923928,-0.001419028033996,0.0014190756385245,-0.0015096253933737,0.0015096298859362,-0.0015096130999026,0.001509642534559,-2.8544530712949e-09,5.8606621564604e-10,-0.00083851308353966,0.0008385108072423,1.856818072206e-08,-2.1568719410591e-08,-0.00099549311666922,0.00099550324173929,-0.00099550646899552,0.0009954899208071,-0.00099549195036758,0.00099550438668086,-0.00099550530996869,0.0009954910638508,-0.00087737056809859,0.00087735825890469,-0.00087737393533183,0.00087735488230902,0.62694796866468,128566,2924,0.0047163037784808,0.0067361487746929,0.0034917632850769,25.964532973392,-3.2283736212862e-05,-3.2283736212862e-05,-3.2283736212862e-05,3922885.3930368,0.015057472487731
15819200,0.97555136640615,0.015288204934878,0.0049148934586567,0.0064443755245413,0.0039289359516798,-0.0011347417713976,0.0011347406033404,1.0842024837811e-09,-2.2714429715363e-09,5.6710258353016e-09,-7.0777310357635e-09,-0.0012778664495049,0.001277870609269,-0.0012778675066399,0.0012778694724125,-0.0012778704795682,0.0012778663638777,-0.0012778716230775,0.001277865250641,-0.0010796798938855,0.0010796777857842,-0.0010796832703414,0.0010796745204945,-4.584938423749e-09,8.0658304053589e-09,-1.8299400880805e-08,2.1578999229562e-08,-0.0016232702173163,0.0016232735092791,-0.0017627012719821,0.0017626872223077,-0.0017626882961449,0.0017627005152931,-0.0017626971618853,0.0017626914391552,-0.0017626842328833,0.0017627046933669,-0.0014195684687993,0.0014195368337977,-0.0014195298525225,0.0014195764522777,-0.0015101566945858,0.0015101608708574,-0.0015101444144439,0.0015101735135165,-2.9273741232961e-09,7.1459958187817e-10,-0.00083846901992842,0.00083846680024249,1.82859570283e-08,-2.1221166381563e-08,-0.00099567975070478,0.00099568963771144,-0.0009956928763632,0.00099567654330873,-0.0009956785030984,0.00099569086228501,-0.0009956916670535,0.00099567773610081,-0.00087737636211849,0.00087736446743525,-0.00087737988265328,0.00087736094176825,0.66919699764311,128566,2924,0.0047168576275902,0.0067387721510482,0.0034915898862637,25.548208514661,-3.5614331882709e-05,-3.5614331882709e-05,-3.5614331882709e-05,3905327.7820611,0.015060525176929
16019200,0.97641156936115,0.015300646630806,0.0049188566425953,0.0064497100828109,0.0039320799053996,-0.0011348389228722,0.001134837745528,1.0924368013699e-09,-2.289260145383e-09,5.7080999754823e-09,-7.1241412798447e-09,-0.0012781865958398,0.0012781907772471,-0.0012781876568545,0.0012781896387385,-0.0012781906487952,0.0012781865095366,-0.0012781918056994,0.0012781853826928,-0.001079929774136,0.0010799276684919,-0.0010799331901459,0.0010799243640468,-4.6248199832182e-09,8.1085545399895e-09,-1.798354004349e-08,2.126541343857e-08,-0.0016239535893853,0.0016239568837372,-0.0017634255840344,0.0017634117100301,-0.0017634128048739,0.001763424797999,-0.0017634214414404,0.001763415959817,-0.0017634087201052,0.0017634289992808,-0.0014201663633074,0.0014201353898429,-0.0014201283729357,0.0014201743697783,-0.0015107210883182,0.0015107249929608,-0.0015107087412465,0.0015107377015017,-2.9433114427933e-09,7.807162652574e-10,-0.00083838399851582,0.00083838182967604,1.8013984389936e-08,-2.0892140903271e-08,-0.00099593323805684,0.00099594294210246,-0.00099594615950875,0.00099593005215774,-0.00099593195791798,0.00099594419994581,-0.00099594492773008,0.00099593126695198,-0.00087735667587355,0.00087734509421202,-0.00087736026025107,0.00087734150467183,0.66742792571942,128566,2924,0.004717263826883,0.0067415905978595,0.0034912504396612,25.148430681426,-3.8812554548592e-05,-3.8812554548592e-05,-3.8812554548592e-05,3881901.0384174,0.015063459353737
16219200,0.97722269529072,0.015312326331416,0.0049225759180163,0.0064547215598478,0.003935028853552,-0.0011348719731724,0.0011348707951868,1.1430942221404e-09,-2.3406055880625e-09,5.7124450925251e-09,-7.1290625850316e-09,-0.0012784298866342,0.0012784341092275,-0.0012784309871814,0.0012784329334192,-0.0012784339483825,0.0012784298338117,-0.001278435134346,0.0012784286785857,-0.0010801085623997,0.0010801065360988,-0.0010801120632257,0.0010801031510231,-4.6594369819868e-09,8.1460895869666e-09,-1.7804693128494e-08,2.1089158651562e-08,-0.0016245541012217,0.001624557398244,-0.0017640609204307,0.001764047146796,-0.0017640482603607,0.0017640601112135,-0.0017640567593457,0.0017640514156386,-0.0017640441474121,0.0017640643413258,-0.0014206901344595,0.0014206595209433,-0.0014206524722749,0.001420698162574,-0.0015112122790872,0.0015112159841281,-0.0015111998465496,0.0015112287784524,-2.9267161000803e-09,8.0349230540894e-10,-0.00083825105020151,0.00083824892152881,1.7801297041889e-08,-2.063380381399e-08,-0.00099611469463515,0.00099612428381687,-0.0009961274654182,0.00099611154480182,-0.00099611341666122,0.00099612553949913,-0.00099612622641537,0.00099611276695594,-0.00087727963013811,0.0008772682632702,-0.00087728323388703,0.00087726465345025,0.66425605033206,128566,2924,0.0047174039854515,0.0067440666266465,0.0034907109505423,24.749266534782,-4.2005867721743e-05,-4.2005867721743e-05,-4.2005867721743e-05,3861254.8862651,0.015065572188227
16419200,0.97799089075635,0.015322213369249,0.0049257068729672,0.0064590477357816,0.0039374587605,-0.0011349114110849,0.0011349102339067,1.1797174763747e-09,-2.3763104611101e-09,5.7103020693036e-09,-7.126254946803e-09,-0.0012786848783321,0.0012786891255811,-0.0012786860046024,0.001278687924674,-0.0012786889400744,0.0012786848504384,-0.0012786901486775,0.0012786836728458,-0.0010802707596846,0.0010802688022941,-0.0010802743274738,0.0010802653507645,-4.6535404325929e-09,8.1390645282832e-09,-1.7738316188558e-08,2.1021752460304e-08,-0.0016251465596722,0.0016251498556893,-0.0017646940376553,0.0017646803137307,-0.001764681422475,0.0017646932309343,-0.0017646898824048,0.0017646845764276,-0.0017646773127033,0.0017646974579845,-0.0014212061546025,0.0014211756631649,-0.001421168617454,0.0014212141748584,-0.0015116794992502,0.0015116831666579,-0.0015116670753317,0.0015116959530163,-2.9398203597155e-09,8.2665272647876e-10,-0.0008381347617872,0.00083813264364752,1.7743639522316e-08,-2.0563542898036e-08,-0.00099630740861081,0.00099631695455245,-0.00099632013864178,0.00099630425623267,-0.00099630611969454,0.00099631822097424,-0.00099631888586857,0.00099630549218474,-0.00087718645174932,0.00087717517733308,-0.00087719009588065,0.00087717152700889,0.59981698029233,128566,2924,0.0047175702585453,0.0067465096176923,0.003490239674214,24.411801980353,-4.4705584157176e-05,-4.4705584157176e-05,-4.4705584157176e-05,3844803.6690696,0.015067747159667
16619200,0.97872248259658,0.015333430272564,0.004929287816699,0.0064638067968288,0.0039403356590365,-0.0011351744863505,0.0011351733160393,1.2232025217232e-09,-2.4129365567954e-09,5.6837430191552e-09,-7.0922853863145e-09,-0.0012790271257927,0.0012790313915347,-0.0012790282836281,0.0012790301590766,-0.00127903117281,0.0012790271309683,-0.001279032402896,0.0012790259323795,-0.0010806021204732,0.001080600252712,-0.0010806057519834,0.0010805967392585,-4.6451636502038e-09,8.1296427377595e-09,-1.7803572182444e-08,2.1086039470733e-08,-0.0016257917186676,0.0016257950136518,-0.001765426793782,0.0017654130374954,-0.0017654141420887,0.0017654259926763,-0.0017654226498134,0.0017654172891497,-0.0017654100329368,0.0017654302185416,-0.0014217226205725,0.0014216919791159,-0.0014216849409486,0.0014217306347734,-0.0015122736771907,0.0015122773887179,-0.0015122612545244,0.0015122901729135,-2.9554717604253e-09,8.3947344498694e-10,-0.00083826438876515,0.00083826226784277,1.7764280168376e-08,-2.0587277086543e-08,-0.00099653829334059,0.00099654784696568,-0.00099655104367765,0.00099653512826133,-0.00099653699984967,0.0009965491180795,-0.00099654977606148,0.0009965363792558,-0.00087734954852805,0.00087733830031773,-0.00087735323645255,0.00087733460603305,0.70235632180531,128566,2924,0.0047186625177703,0.0067491762197376,0.003490783101769,24.157962813355,-4.6736297493158e-05,-4.6736297493158e-05,-4.6736297493158e-05,3841666.0769377,0.015072114812098
16819200,0.97941960991348,0.015344168865101,0.0049327156566105,0.0064683653000703,0.0039430879084202,-0.0011353957205895,0.0011353945558392,1.2461505041818e-09,-2.4304677644094e-09,5.66387382289e-09,-7.0661302740411e-09,-0.0012794694493145,0.0012794737162879,-0.0012794706178566,0.001279472472043,-0.0012794734784336,0.0012794694732787,-0.0012794747243767,0.0012794682586924,-0.0010810176142683,0.0010810158142844,-0.0010810212920888,0.0010810122520385,-4.6141168390155e-09,8.0951339864487e-09,-1.7909723310482e-08,2.118902531341e-08,-0.0016265860800468,0.0016265893718819,-0.0017662044033662,0.0017661905947548,-0.0017661916819308,0.0017662036220647,-0.001766200278188,0.0017661948268013,-0.001766187596558,0.0017662078233639,-0.0014224817865642,0.0014224509223202,-0.0014224439122744,0.00142248977917,-0.0015129763131563,0.0015129801621004,-0.0015129639608385,0.0015129928731166,-3.0005839728829e-09,8.6241076856708e-10,-0.00083832212032195,0.00083831997673406,1.7875051943374e-08,-2.0723806799142e-08,-0.00099694575580522,0.00099695534435241,-0.0009969585856193,0.00099694254617228,-0.00099694443738659,0.00099695664044446,-0.00099695729776143,0.0009969438174392,-0.00087748649076521,0.00087747519864459,-0.00087749023803435,0.00087747144436395,0.70571571995611,128566,2924,0.0047195830833359,0.0067524524653615,0.0034910377752016,23.906126302536,-4.8750989579709e-05,-4.8750989579709e-05,-4.8750989579709e-05,3820852.2651181,0.015076638875056
17019200,0.98008419265797,0.01535420112416,0.0049359145876535,0.0064726386512228,0.0039456478852837,-0.0011355530480264,0.0011355518905416,1.2816470163796e-09,-2.4588660430976e-09,5.6366758546718e-09,-7.0309007028686e-09,-0.0012798497263604,0.0012798540030058,-0.0012798509176187,0.0012798527350345,-0.0012798537366754,0.0012798497785489,-0.0012798550018534,0.0012798485445143,-0.0010813653271079,0.0010813636115507,-0.0010813690612104,0.0010813599919387,-4.5898693955229e-09,8.0680840270417e-09,-1.8055525220334e-08,2.1332290032359e-08,-0.0016273217852378,0.0016273250745263,-0.0017669177101817,0.0017669038226141,-0.0017669048972479,0.0017669169450327,-0.0017669136035464,0.0017669080355866,-0.0017669008264714,0.0017669211310831,-0.0014231853668294,0.0014231541935743,-0.0014231472071093,0.0014231933442197,-0.00151362275043,0.0015136267376412,-0.0015136104423849,0.0015136394027078,-3.0342534070824e-09,8.7331592975875e-10,-0.0008383287185425,0.00083832655160413,1.7994207136559e-08,-2.0869631345218e-08,-0.00099729734011741,0.00099730698117466,-0.00099731025975241,0.00099729409319262,-0.0009972960088808,0.0009973082902703,-0.00099730895516336,0.0009972953813093,-0.00087757013893456,0.00087755878595066,-0.00087757393508217,0.00087755498213456,0.69245976219828,128566,2924,0.0047202384863499,0.0067554856997545,0.0034910801753824,23.654364019993,-5.0765087840053e-05,-5.0765087840053e-05,-5.0765087840053e-05,3801649.1242593,0.015080431336957
17219200,0.98070276376803,0.015363282224953,0.0049388059153029,0.0064765243948682,0.0039479519147814,-0.00113488735101,0.0011348862106482,1.3328172317988e-09,-2.4937209180648e-09,5.5737266082704e-09,-6.9472613197002e-09,-0.0012793619416569,0.001279366218705,-0.0012793631649204,0.0012793649172323,-0.0012793659073737,0.0012793620387833,-0.0012793671974453,0.0012793607800837,-0.0010808558898946,0.0010808543107603,-0.0010808596942861,0.0010808506151528,-4.5640973245479e-09,8.038870216033e-09,-1.8379078486886e-08,2.1652437271434e-08,-0.0016271326903317,0.0016271359765885,-0.0017667159126117,0.0017667018332759,-0.0017667028966972,0.0017667151675885,-0.0017667118274374,0.0017667060237731,-0.0017666988391542,0.0017667193385189,-0.0014229783275595,0.0014229464897616,-0.0014229395357613,0.001422986295684,-0.0015133545624662,0.001513358802587,-0.0015133422913804,0.0015133714187841,-3.0639582635698e-09,8.65892415139e-10,-0.00083758346418126,0.00083758125844121,1.8201461503904e-08,-2.1123485561251e-08,-0.00099681346475433,0.00099682321883405,-0.00099682654175091,0.00099681017358826,-0.00099681212994122,0.0009968245315387,-0.00099682522598037,0.00099681147360883,-0.00087685239270128,0.00087684088536737,-0.00087685621964535,0.00087683704520411,0.67475987452512,128566,2924,0.0047174807952884,0.0067546947230548,0.003487995508265,22.994573439959,-5.6043412480324e-05,-5.6043412480324e-05,-5.6043412480324e-05,3780212.9733824,0.015073701575331
17419200,0.98126729334301,0.01537120722653,0.0049413234752368,0.0064799390792622,0.0039499446720311,-0.0011335188791837,0.0011335177536411,1.3848289852063e-09,-2.531141114127e-09,5.5175252898696e-09,-6.8747841785918e-09,-0.0012781150090125,0.0012781192908531,-0.001278116263165,0.0012781179548001,-0.0012781189348838,0.0012781151489988,-0.0012781202501498,0.0012781138635603,-0.0010796009276508,0.0010795994821179,-0.0010796048075945,0.0010795957061572,-4.5331257973539e-09,8.0037753069231e-09,-1.8724284994358e-08,2.1993988418398e-08,-0.0016261121789677,0.0016261154613993,-0.0017656957909036,0.0017656815094046,-0.0017656825576028,0.0017656950672134,-0.0017656917311919,0.0017656856737318,-0.0017656785198764,0.0017656992191371,-0.0014219522116597,0.0014219196641376,-0.0014219127441786,0.0014219601625552,-0.0015122670450368,0.0015122715635121,-0.0015122548276807,0.0015122841237435,-3.0962634586885e-09,8.5267810103632e-10,-0.00083620335550451,0.00083620110335973,1.844445800641e-08,-2.1420064197515e-08,-0.00099559683434797,0.0009956067205755,-0.00099561009391253,0.00099559349222081,-0.00099559549697641,0.00099560803713689,-0.0009956087684144,0.00099559480258398,-0.0008754507537317,0.00087543905370561,-0.00087545460870493,0.00087543518230615,0.64747798356115,128566,2924,0.0047118085663151,0.006750466493289,0.0034822689601613,21.991439559426,-6.4068483524592e-05,-6.4068483524592e-05,-6.4068483524592e-05,3757911.3558287,0.015057841029332
17619200,0.98178291821424,0.015378160856527,0.0049435280965856,0.0064829523176133,0.0039516804423278,-0.001132087721042,0.0011320866009146,1.4309574354091e-09,-2.5715412768905e-09,5.4945369663291e-09,-6.8466564759915e-09,-0.0012767488922006,0.0012767531961734,-0.0012767501790116,0.0012767518254898,-0.0012767528051565,0.0012767490652643,-0.0012767541455738,0.0012767477576788,-0.0010782359063884,0.0010782345548444,-0.0010782398612829,0.0010782307106803,-4.5158203861988e-09,7.9848693434285e-09,-1.8939480017298e-08,2.220786832822e-08,-0.0016249201195767,0.0016249234005687,-0.0017645266873597,0.0017645122820227,-0.0017645133229373,0.0017645259784176,-0.0017645226452529,0.0017645164292809,-0.0017645092919551,0.0017645301221088,-0.0014207446885281,0.0014207116919882,-0.0014207047905678,0.0014207526305853,-0.0015110210556699,0.0015110257349762,-0.0015110088591079,0.0015110382749786,-3.1206925718352e-09,8.5018138365813e-10,-0.00083478861634682,0.00083478633648652,1.8606196444206e-08,-2.1612474901099e-08,-0.00099425465722864,0.00099426463147933,-0.00099426803906607,0.00099425128078813,-0.00099425331717623,0.00099426595015652,-0.00099426670120368,0.00099425260368922,-0.00087398718137559,0.00087397537193914,-0.00087399107366,0.00087397146512146,0.62390233949274,128566,2924,0.0047058757339738,0.0067455313984833,0.0034763943451067,20.980045097731,-7.2159639218152e-05,-7.2159639218152e-05,-7.2159639218152e-05,3741042.9979757,0.015040846802782
17819200,0.98225507956351,0.01538430148321,0.0049454714946066,0.0064856266270216,0.0039532033615821,-0.0011306595914764,0.0011306584641563,1.4318821138942e-09,-2.5793749857072e-09,5.5173641462869e-09,-6.8790726250533e-09,-0.0012753429558798,0.0012753472713875,-0.0012753442425971,0.0012753458997833,-0.0012753468832859,0.0012753431258458,-0.0012753482300299,0.0012753418116231,-0.0010768313961501,0.0010768300405695,-0.0010768353687962,0.0010768261742713,-4.4946392258569e-09,7.9612071334692e-09,-1.8955831997756e-08,2.2222011224576e-08,-0.0016236428273986,0.0016236461060115,-0.0017632919802414,0.0017632775733786,-0.0017632786026701,0.001763291283453,-0.0017632879489792,0.0017632817092804,-0.0017632745886132,0.0017632954092703,-0.0014194425596666,0.001419409526245,-0.0014194026389148,0.0014194504818516,-0.0015096993009153,0.001509704040602,-0.0015096871617562,0.0015097165312065,-3.1805384329124e-09,8.8993564730939e-10,-0.00083339715365369,0.00083339485359107,1.871959106746e-08,-2.1747293937688e-08,-0.00099286623563526,0.00099287623520678,-0.00099287969550952,0.0009928628064899,-0.00099286485927431,0.00099287758919055,-0.00099287832755375,0.00099286415883466,-0.00087252764558561,0.00087251582101027,-0.00087253162701214,0.00087251182774461,0.60341628768051,128566,2924,0.004699954852902,0.0067402460738756,0.0034706130474388,19.990342164362,-8.0077262685107e-05,-8.0077262685107e-05,-8.0077262685107e-05,3728934.8653037,0.015023603035526
18019200,0.98268841613282,0.015389932964797,0.004947253945987,0.0064880754419807,0.0039546035768296,-0.001129242772713,0.001129241638251,1.4368202821634e-09,-2.5914524069349e-09,5.546915176661e-09,-6.9154804875828e-09,-0.0012739107539614,0.0012739150836322,-0.0012739120403749,0.0012739137120761,-0.0012739146969031,0.001273910922667,-0.0012739160552731,0.0012739095957225,-0.0010754048498368,0.001075403500113,-0.0010754088571317,0.001075399599166,-4.5079489622536e-09,7.9751919764772e-09,-1.8868365618559e-08,2.2135064880844e-08,-0.0016223003250996,0.0016223036043044,-0.0017620070484801,0.0017619926833044,-0.0017619937200668,0.0017620063416567,-0.0017620030017715,0.0017619968347035,-0.0017619897032924,0.0017620104710282,-0.0014180661678781,0.0014180333336565,-0.0014180264370743,0.0014180740999828,-0.0015083244338194,0.0015083291083193,-0.0015083122855202,0.0015083416058695,-3.2232184993818e-09,9.3858313465423e-10,-0.00083203505207489,0.00083203275808849,1.8688259378592e-08,-2.1709970298115e-08,-0.00099144788617148,0.00099145783237387,-0.00099146131651074,0.00099144443334246,-0.00099144647393502,0.00099145922266481,-0.00099145992473483,0.00099144580931374,-0.00087108794656082,0.00087107622308559,-0.00087109199912811,0.00087107215917552,0.60265703784789,128566,2924,0.004694080399479,0.0067346929087379,0.0034649511588403,19.018950877993,-8.7848392976055e-05,-8.7848392976055e-05,-8.7848392976055e-05,3720446.083942,0.015006255041405
18219200,0.98308653953573,0.015395211416279,0.004948926636793,0.0064903591968815,0.0039559255826047,-0.0011278081402551,0.0011278070001013,1.4690536158285e-09,-2.629368021451e-09,5.5674535164733e-09,-6.9425758150156e-09,-0.0012724527934751,0.001272457159211,-0.0012724541057497,0.0012724557623899,-0.0012724567545891,0.0012724529800084,-0.0012724581339067,0.0012724516323466,-0.0010739563513985,0.0010739550419645,-0.0010739604208197,0.0010739510796305,-4.5389333475254e-09,8.0086000656477e-09,-1.8771183260942e-08,2.2039976832072e-08,-0.0016209074483773,0.0016209107296848,-0.0017606668357661,0.0017606525175589,-0.0017606535724344,0.0017606661086955,-0.001760662770684,0.0017606566882072,-0.0017606495324413,0.0017606702619398,-0.0014166468464842,0.0014166142174232,-0.0014166072941838,0.0014166547989177,-0.0015069049153817,0.0015069094577611,-0.0015068926974676,0.0015069220274419,-3.2318938315035e-09,9.6799986684528e-10,-0.00083066691119171,0.00083066463832197,1.8581992081927e-08,-2.1579902682929e-08,-0.0009900155121223,0.00099002539036841,-0.0009900288667324,0.00099001206688638,-0.00099001408942687,0.00099002679099144,-0.00099002745980246,0.00099001345802081,-0.00086964544437736,0.00086963386346302,-0.00086964954079347,0.00086962975542446,0.6133875162948,128566,2924,0.0046881320400821,0.0067289315653734,0.0034592638667191,18.047999037159,-9.5616007702731e-05,-9.5616007702731e-05,-9.5616007702731e-05,3711504.9165695,0.014988595263632
18419200,0.98346193330033,0.015400226259123,0.0049505166989121,0.0064925232497551,0.0039571863104558,-0.0011270985972026,0.0011270974423311,1.4702228401739e-09,-2.6446872490218e-09,5.6228050974562e-09,-7.0145237879368e-09,-0.0012717490602084,0.0012717534550515,-0.0012717503752547,0.0012717520575072,-0.0012717530593455,0.0012717492386444,-0.0012717544489593,0.0012717478811196,-0.0010732520671383,0.0010732507314068,-0.0010732561664806,0.001073246741472,-4.5788647993529e-09,8.0523147804873e-09,-1.8461381375589e-08,2.1733614749753e-08,-0.0016202908974588,0.0016202941821812,-0.0017600897997522,0.001760075655309,-0.0017600767308955,0.0017600890446341,-0.0017600857029614,0.0017600798583026,-0.0017600726676355,0.001760093221836,-0.0014159997911528,0.0014159678114789,-0.0014159608477791,0.0014160077653333,-0.0015062568552767,0.0015062611272759,-0.0015062445706858,0.0015062737691532,-3.2559174277756e-09,1.035933901049e-09,-0.0008299793070888,0.00082997707939464,1.8353543427641e-08,-2.1299151979133e-08,-0.00098932013066048,0.00098932984828528,-0.00098933331161904,0.00098931669850589,-0.00098931867311142,0.00098933128295857,-0.00098933187836701,0.00098931811550996,-0.00086892091270308,0.00086890962133354,-0.00086892508837964,0.00086890543705702,0.61738403535803,128566,2924,0.0046851904832556,0.0067263809237632,0.0034564062326705,17.475451664061,-0.00010019638668751,-0.00010019638668751,-0.00010019638668751,3706359.752898,0.014980119575922
18619200,0.98382349912676,0.015405009269948,0.0049520327195157,0.0064945891582589,0.0039583873921731,-0.0011269875813244,0.001126986414952,1.4917574869302e-09,-2.6775730308108e-09,5.666475039375e-09,-7.0707914815856e-09,-0.0012716669200846,0.0012716713540147,-0.0012716682533798,0.0012716699404368,-0.0012716709518362,0.0012716671056201,-0.001271672360495,0.0012716657294913,-0.0010731577645854,0.0010731564400009,-0.0010731619203124,0.0010731523956293,-4.6276848569336e-09,8.105712643631e-09,-1.813248820552e-08,2.1408779585656e-08,-0.0016203128666676,0.001620316155498,-0.0017601492765065,0.0017601353170998,-0.0017601364182369,0.0017601484878481,-0.0017601451458047,0.0017601395550838,-0.0017601323228783,0.0017601526984785,-0.001415981020844,0.0014159497236937,-0.0014159427136904,0.0014159890242645,-0.0015062406686492,0.001506244629972,-0.0015062282870425,0.0015062573714488,-3.2551243940261e-09,1.0909436758998e-09,-0.00082984960317558,0.00082984743235581,1.8059290732123e-08,-2.0940151758138e-08,-0.0009892244222943,0.00098923395938144,-0.00098923738602455,0.00098922102684894,-0.00098922294577271,0.00098923541292845,-0.00098923593542636,0.00098922246104283,-0.00086877608159944,0.00086876511254597,-0.00086878030818829,0.00086876087776226,0.61178640519695,128566,2924,0.004684730871233,0.0067264713555885,0.0034558679085216,17.230642430458,-0.00010215486055634,-0.00010215486055634,-0.00010215486055634,3705474.8842217,0.014979198538283
18819200,0.98417202394294,0.01540993317096,0.0049535985028759,0.0064966910889188,0.0039596435791656,-0.0011268991587345,0.0011268979874866,1.5170595491001e-09,-2.707883982683e-09,5.6851646814395e-09,-7.0945375092196e-09,-0.0012715966688746,0.0012716011294041,-0.0012715980200974,0.0012715996993053,-0.0012716007137443,0.001271596868338,-0.001271602141934,0.0012715954724253,-0.0010730833286026,0.0010730820421165,-0.0010730875412387,0.0010730779395641,-4.651691025444e-09,8.1314345137278e-09,-1.7913295648938e-08,2.1190969298669e-08,-0.0016203380256994,0.0016203413160633,-0.0017602156700257,0.0017602018386366,-0.0017602029516806,0.0017602148636907,-0.0017602115219709,0.0017602060943041,-0.0017601988416879,0.0017602190897256,-0.0014159619369665,0.0014159310904745,-0.0014159240569636,0.0014159699527115,-0.0015062372362446,0.0015062410092213,-0.0015062248091643,0.0015062537959468,-3.2631726546425e-09,1.1358863477914e-09,-0.00082974387938282,0.00082974174602542,1.7862444170151e-08,-2.0701088454409e-08,-0.00098913670076295,0.00098914611070627,-0.00098914951885123,0.00098913332358549,-0.0009891352052696,0.00098914758328327,-0.00098914805167652,0.00098913477437356,-0.00086865995283041,0.00086864921328844,-0.00086866422718046,0.00086864492969243,0.64922937330237,128566,2924,0.0046843648687809,0.006726575426329,0.0034554286842392,16.993697749235,-0.00010405041800612,-0.00010405041800612,-0.00010405041800612,3705353.4675366,0.014978486663292
19019200,0.98450808085457,0.015414985565446,0.0049552096625856,0.0064988266779107,0.0039609492249498,-0.0011268089787797,0.0011268078067484,1.5524679558277e-09,-2.7441568310646e-09,5.6888535554803e-09,-7.0991090782083e-09,-0.0012715737023262,0.0012715781920985,-0.0012715750811733,0.0012715767354399,-0.0012715777535939,0.0012715739249324,-0.0012715792024717,0.0012715725091849,-0.0010730591263448,0.0010730578957305,-0.0010730634000523,0.0010730537349147,-4.6610995137858e-09,8.142267911775e-09,-1.7786234251635e-08,2.1065235507456e-08,-0.0016204318695078,0.0016204351611286,-0.0017603106404539,0.0017602968907119,-0.001760298007747,0.0017603098276113,-0.0017603064895672,0.0017603011496877,-0.0017602938878214,0.0017603140636773,-0.0014160447660815,0.0014160141652585,-0.0014160071214334,0.0014160527871058,-0.0015062943251819,0.001506297985302,-0.0015062818676184,0.001506310802435,-3.2693956703388e-09,1.1666350376675e-09,-0.0008296234386741,0.00082962133016811,1.7728040282068e-08,-2.0538262543845e-08,-0.00098912372725672,0.00098913305372715,-0.00098913645059773,0.00098912036152863,-0.00098912222271789,0.00098913453535129,-0.00098913496751644,0.00098912182829103,-0.00086855398825159,0.00086854341758507,-0.00086855830874068,0.00086853908720885,0.68719101442703,128566,2924,0.004683992312055,0.0067269608081182,0.0034549321754913,16.757043792446,-0.00010594364966043,-0.00010594364966043,-0.00010594364966043,3698195.2284402,0.014977997259788
19219200,0.9848426313356,0.015420172335773,0.0049568658189931,0.0065010094432505,0.0039622970735295,-0.0011276457310231,0.0011276445610332,1.5938982314443e-09,-2.7828743265796e-09,5.6829282908828e-09,-7.0923649057088e-09,-0.0012725470823614,0.0012725515990461,-0.0012725484908081,0.0012725501144543,-0.0012725511318269,0.0012725473338736,-0.0012725526058614,0.0012725458944519,-0.0010740223884016,0.0010740212383868,-0.0010740267376422,0.0010740170085836,-4.6957503844608e-09,8.1801030199384e-09,-1.7683087506285e-08,2.0965140340354e-08,-0.0016215929700762,0.0016215962646234,-0.0017614384331385,0.0017614247317632,-0.0017614258685406,0.0017614375982533,-0.0017614342612194,0.0017614290129346,-0.0017614217231618,0.0017614418606329,-0.0014172005846261,0.0014171702043849,-0.0014171631268592,0.0014172086266607,-0.001507405696794,0.0015074092148784,-0.0015073931648787,0.0015074221134574,-3.2696083142545e-09,1.1951759861738e-09,-0.00083035364990573,0.00083035157077072,1.7565006330496e-08,-2.0339954706903e-08,-0.00099008620811865,0.00099009543538052,-0.00099009881399142,0.00099008286062779,-0.00099008469595685,0.00099009692445905,-0.00099009731907671,0.00099008433933117,-0.00086935523171753,0.00086934484306224,-0.00086935958836153,0.00086934047869247,0.7067798830141,128566,2924,0.0046874639841304,0.0067317584422993,0.0034579750593796,17.022461452183,-0.00010382030838254,-0.00010382030838254,-0.00010382030838254,3692958.6769676,0.014989482696597
19419200,0.98518083071631,0.015425301371344,0.0049585017936761,0.0065031769717184,0.0039636226059492,-0.001128934250512,0.0011289330982196,1.6141608329063e-09,-2.7854825499435e-09,5.623741706428e-09,-7.0137670804654e-09,-0.001274013357668,0.0012740178563427,-0.0012740147759753,0.0012740163607803,-0.0012740173632052,0.0012740136315095,-0.0012740188409886,0.0012740121893184,-0.0010754671708885,0.0010754660914842,-0.0010754715302002,0.0010754618575762,-4.7666402447066e-09,8.258621832772e-09,-1.7775251383683e-08,2.1063974671562e-08,-0.0016232886605977,0.0016232919608542,-0.001763090713876,0.0017630769062462,-0.0017630780909005,0.0017630898330934,-0.0017630864979957,0.0017630812349644,-0.0017630738930494,0.001763094149026,-0.0014188872556013,0.0014188567332523,-0.0014188495946116,0.001418895352779,-0.0015090420275202,0.0015090454652752,-0.001509029337541,0.0015090585211205,-3.2966518168734e-09,1.2544677872535e-09,-0.00083149272933828,0.00083149068296474,1.7368372233827e-08,-2.0107650070349e-08,-0.00099152205532381,0.00099153114680852,-0.0009915345210926,0.00099151870923962,-0.00099152051802031,0.00099153266199085,-0.00099153299414498,0.00099152022170012,-0.00087058621527644,0.00087057610569643,-0.00087059066905274,0.00087057163853817,0.69264758427044,128566,2924,0.0046928091570892,0.0067387660771519,0.0034627192414122,17.53905550386,-9.9687555969118e-05,-9.9687555969118e-05,-9.9687555969118e-05,3690002.7031189,0.015006840904248
19619200,0.98552255000334,0.015430351179021,0.0049601104081122,0.0065053212594862,0.0039649195114227,-0.0011302217410983,0.0011302205738994,1.6353111001846e-09,-2.821884314004e-09,5.6757282498649e-09,-7.0809226257332e-09,-0.0012754635162078,0.0012754680540154,-0.0012754649491503,0.0012754665432459,-0.0012754675566927,0.0012754637965497,-0.0012754690594543,0.0012754623289013,-0.0010768947627255,0.0010768937018267,-0.0010768991913267,0.0010768893837234,-4.6757724568316e-09,8.1578922392272e-09,-1.7686521967541e-08,2.0966334441286e-08,-0.0016249683954565,0.0016249716878159,-0.0017647473380655,0.0017647336493853,-0.0017647347732685,0.0017647465156358,-0.0017647431792942,0.0017647379166632,-0.0017647306443729,0.0017647507610859,-0.0014205361697749,0.001420505778066,-0.001420498719698,0.0014205441976417,-0.0015106665481684,0.0015106701137233,-0.001510654062076,0.001510682960437,-3.3430426483271e-09,1.2592313284452e-09,-0.00083263182849791,0.00083262973951675,1.7576783818202e-08,-2.0363478755956e-08,-0.00099292124912943,0.00099293043031918,-0.00099293386393034,0.00099291784578057,-0.00099291968955895,0.00099293196643689,-0.00099293232536219,0.00099291936887601,-0.0008718060209486,0.00087179574209173,-0.00087181050510325,0.00087179124542589,0.67638954235808,128566,2924,0.0046981496753857,0.0067457084746711,0.0034674620524727,18.061738400864,-9.5506092793091e-05,-9.5506092793091e-05,-9.5506092793091e-05,3690749.3159033,0.015024126237064
19819200,0.98586751706443,0.015435295849961,0.0049616830744631,0.0065074325618543,0.0039661802136432,-0.0011315007441826,0.0011314995843742,1.6664007069405e-09,-2.8458308153861e-09,5.6471860092923e-09,-7.0444677166997e-09,-0.0012768841122799,0.001276888655218,-0.00127688556439,0.0012768871256053,-0.0012768881324895,0.0012768844186796,-0.0012768896526647,0.0012768829329747,-0.0010782911950738,0.0010782902157174,-0.0010782956762338,0.0010782858468263,-4.6587998876849e-09,8.139133793226e-09,-1.7822526376406e-08,2.1100742129283e-08,-0.001626614701544,0.0016266179923019,-0.0017663911392766,0.001766377367864,-0.001766378484468,0.0017663903274852,-0.0017663869917157,0.0017663816237917,-0.001766374365078,0.0017663945630752,-0.0014221299735252,0.0014220992980293,-0.0014220922561747,0.0014221379922872,-0.0015122616850716,0.0015122653709547,-0.001512249230832,0.0015122781856309,-3.3790556299935e-09,1.2768234643585e-09,-0.00083376417548684,0.00083376206773099,1.7671034750754e-08,-2.0479004003302e-08,-0.00099427428660172,0.00099428350191031,-0.00099428697195464,0.00099427084726752,-0.00099427270995738,0.00099428505573357,-0.00099428541476052,0.00099427238882852,-0.00087300895536057,0.00087299864219549,-0.00087301349400641,0.00087299409191053,0.65786895240959,128566,2924,0.0047034545777394,0.0067525136026288,0.0034721754952507,18.584646790335,-9.1322825677316e-05,-9.1322825677316e-05,-9.1322825677316e-05,3694702.3456395,0.015041205696289
20019200,0.98620617292075,0.01544033347776,0.0049632877632299,0.0065095712083889,0.0039674745061407,-0.0011319751770328,0.0011319740304072,1.7104463209986e-09,-2.8772158137784e-09,5.5988163026687e-09,-6.9802772113815e-09,-0.001277449963565,0.0012774545076259,-0.0012774514401621,0.0012774529508977,-0.0012774539470528,0.0012774503070598,-0.0012774554910685,0.0012774487966979,-0.0010788518695815,0.0010788510103602,-0.0010788564204044,0.001078846568226,-4.6046279460123e-09,8.0794312030992e-09,-1.8140021254861e-08,2.1413159346857e-08,-0.0016273594664537,0.001627362752214,-0.0017671507346946,0.0017671367892615,-0.0017671378768778,0.0017671499592294,-0.00176714662474,0.0017671410061311,-0.0017671337936205,0.001767154157454,-0.0014228239348316,0.0014227925949694,-0.0014227856072768,0.0014228319218946,-0.0015129702153844,0.0015129742148697,-0.0015129578661654,0.0015129869150643,-3.4219273678226e-09,1.2671017743108e-09,-0.00083415031387234,0.00083414815197517,1.7952521794459e-08,-2.0823390072271e-08,-0.00099479367687566,0.00099480303741002,-0.00099480657067901,0.00099479017451158,-0.00099479209019436,0.00099480460204662,-0.00099480500163202,0.00099479172810406,-0.00087342829737679,0.00087341776049392,-0.00087343286955901,0.00087341317446265,0.68048384368657,128566,2924,0.0047054228763209,0.0067555908596161,0.0034737854202507,18.671646096352,-9.0626831229187e-05,-9.0626831229187e-05,-9.0626831229187e-05,3694917.4052476,0.015047962762138
20219200,0.98653611330402,0.015445387765182,0.0049648996343058,0.0065117075302153,0.0039687806006604,-0.0011322218516417,0.0011322207162191,1.7497163043018e-09,-2.9054664876103e-09,5.5557577109468e-09,-6.9244479132223e-09,-0.0012778017168048,0.0012778062620657,-0.0012778032160163,0.0012778046809453,-0.001277805668088,0.0012778020934226,-0.0012778072338943,0.0012778005613755,-0.0010792044180559,0.0010792036659719,-0.001079209031912,0.0010791991598877,-4.5624584654963e-09,8.0331282899155e-09,-1.8452717506853e-08,2.1722107377883e-08,-0.0016278903890229,0.001627893671053,-0.0017676741511598,0.0017676600271401,-0.0017676610938245,0.0017676734052975,-0.0017676700704288,0.0017676642139054,-0.0017676570373184,0.0017676775742582,-0.0014233289682577,0.0014232969828577,-0.001423290035857,0.0014233369307326,-0.0015134615307129,0.0015134658172595,-0.0015134492637391,0.0015134784298035,-3.466539438392e-09,1.2635743088193e-09,-0.00083431759801378,0.00083431538692287,1.8217806318052e-08,-2.1145254508054e-08,-0.00099512291300174,0.00099513240825283,-0.00099513600234229,0.00099511934978175,-0.00099512131323984,0.0009951339854228,-0.00099513441883069,0.0009951209180734,-0.0008736330128157,0.00087362227722802,-0.00087363762774731,0.00087361764786366,0.69908660224538,128566,2924,0.0047064471672099,0.0067577823031813,0.0034744874001437,18.63837770837,-9.0892978333043e-05,-9.0892978333043e-05,-9.0892978333043e-05,3689582.5415077,0.01505194155283
20419200,0.98685751521143,0.015450318181568,0.0049664718907646,0.0065137915821147,0.0039700547086889,-0.0011324470988777,0.0011324459596359,1.7232498691237e-09,-2.882677887409e-09,5.5657282784631e-09,-6.9394146615867e-09,-0.0012781520340043,0.0012781565594066,-0.0012781535074083,0.0012781550015084,-0.0012781559852443,0.0012781523905219,-0.0012781575415332,0.0012781508654933,-0.0010795539395568,0.0010795531522139,-0.0010795585270317,0.0010795486668485,-4.5010248103111e-09,7.9654543890714e-09,-1.8572436266644e-08,2.1836369344435e-08,-0.001628429436498,0.0016284327129506,-0.0017681894708212,0.0017681752990542,-0.0017681763292136,0.0017681887626867,-0.0017681854236948,0.0017681794504,-0.0017681723232896,0.0017681928807813,-0.0014238550897084,0.0014238228499527,-0.0014238159539625,0.001423863005401,-0.0015139570279611,0.001513961535387,-0.0015139449131189,0.0015139739984725,-3.5715880522344e-09,1.3167372883766e-09,-0.00083446127490036,0.00083445901137295,1.8498849381055e-08,-2.1484682578595e-08,-0.00099546264559368,0.00099547223484219,-0.00099547593239332,0.00099545897918237,-0.00099546098520547,0.00099547387284496,-0.00099547430400361,0.00099546059154134,-0.00087382167697989,0.00087381081376294,-0.00087382642412044,0.00087380605546516,0.69998401440677,128566,2924,0.0047073828458141,0.0067600061627051,0.003475092841918,18.60213275132,-9.1182937989443e-05,-9.1182937989443e-05,-9.1182937989443e-05,3681735.4140778,0.015055765981705
20619200,0.98717061079828,0.015454603847866,0.0049678310634787,0.0065156383280434,0.003971134456344,-0.0011326322271002,0.0011326310969084,1.7992108429247e-09,-2.9495458865156e-09,5.5310359690614e-09,-6.894928974888e-09,-0.0012784679725697,0.0012784725353359,-0.0012784695007611,0.0012784709233098,-0.0012784719047954,0.0012784683858776,-0.0012784735021583,0.0012784668198256,-0.0010798524284526,0.0010798517969079,-0.0010798571370634,0.001079847194667,-4.5142275469177e-09,7.9797458076549e-09,-1.8787591666736e-08,2.2052468212292e-08,-0.0016289293433442,0.0016289326207287,-0.0017686705125311,0.001768656193042,-0.0017686572351678,0.0017686697981036,-0.0017686664626794,0.001768660347611,-0.0017686532124445,0.001768673933275,-0.0014243389709335,0.0014243062960203,-0.0014242993942236,0.0014243469024656,-0.0015144045813191,0.0015144091875276,-0.001514392420362,0.0015144216986985,-3.5586053438326e-09,1.2953967024152e-09,-0.00083456950122498,0.00083456722876712,1.856760518626e-08,-2.1564309415628e-08,-0.00099576886020625,0.00099577850845795,-0.00099578220277532,0.00099576519720931,-0.00099576721831736,0.00099578012852309,-0.00099578057937286,0.00099576680476992,-0.00087396307885645,0.00087395214437554,-0.00087396781168395,0.00087394740128319,0.63099125359868,128566,2924,0.0047081520404201,0.0067620681094383,0.0034755509488853,18.565777145062,-9.1473782839502e-05,-9.1473782839502e-05,-9.1473782839502e-05,3674692.7259277,0.015059107545095
20819200,0.98746103075712,0.015458897870061,0.0049691978866442,0.0065174630815001,0.0039722369019169,-0.0011313661116818,0.001131364992014,1.8347499544388e-09,-2.9757726965504e-09,5.4938462097731e-09,-6.8435620315246e-09,-0.0012771910225984,0.0012771955864677,-0.0012771925694933,0.0012771939523102,-0.0012771949251678,0.0012771914651352,-0.001277196542428,0.0012771898789584,-0.0010786000761347,0.0010785995397472,-0.0010786048409749,0.0010785948739169,-4.478514727861e-09,7.9398830791397e-09,-1.9057281745536e-08,2.2318124361856e-08,-0.0016277200676801,0.0016277233412537,-0.0017675015821736,0.001767487110873,-0.0017674881344986,0.0017675008930972,-0.0017674975573427,0.0017674912391913,-0.0017674841369198,0.0017675050022304,-0.0014230972311602,0.0014230640012282,-0.0014230571424927,0.0014231051468902,-0.0015131863678934,0.0015131912210074,-0.0015131742726892,0.0015132036504546,-3.6022372699881e-09,1.2985049503454e-09,-0.00083335236381,0.00083335004869368,1.8791273354792e-08,-2.1839960078185e-08,-0.00099450574729459,0.00099451550575721,-0.00099451925630012,0.00099450202799842,-0.00099450409004923,0.00099451714199781,-0.00099451761704653,0.00099450365206554,-0.00087269612837154,0.00087268503696609,-0.00087270090445129,0.00087268024325673,0.67642718636893,128566,2924,0.004702902286125,0.006757065271089,0.0034704930150295,17.742247832027,-9.8062017343787e-05,-9.8062017343787e-05,-9.8062017343787e-05,3666541.9484842,0.015043564740055
21019200,0.98772917016065,0.015462731386082,0.0049704161802669,0.0065191004605513,0.0039732147452637,-0.0011299122867671,0.0011299111661079,1.8544525020872e-09,-2.9956867013379e-09,5.4928334464605e-09,-6.8458822637019e-09,-0.0012757687143971,0.0012757732904515,-0.0012757702736277,0.0012757716437628,-0.0012757726162243,0.0012757691696606,-0.0012757742478634,0.0012757675692946,-0.00107719590164,0.0010771954085719,-0.0010772007103582,0.0010771907027595,-4.4699631459295e-09,7.9303171677835e-09,-1.9120200500999e-08,2.2380395753272e-08,-0.001626364694606,0.0016263679673024,-0.0017661398482478,0.0017661253397224,-0.0017661263589031,0.0017661391646223,-0.0017661358284067,0.0017661294631371,-0.0017661223682179,0.0017661432670161,-0.0014217624822831,0.0014217291262539,-0.0014217222707319,0.0014217703881047,-0.0015118061650601,0.0015118110790489,-0.0015117940961506,0.0015118234931793,-3.6425241438455e-09,1.3274205066807e-09,-0.0008319522667965,0.00083194994096769,1.8870134138326e-08,-2.1928839104512e-08,-0.00099314118109276,0.00099315096040997,-0.00099315474445113,0.00099313742831024,-0.00099313949986911,0.00099315262024648,-0.00099315308300519,0.00099313907411439,-0.00087125498737475,0.00087124389272821,-0.0008712598310242,0.00087123903657017,0.65601666060383,128566,2924,0.0046968750017673,0.0067514555869158,0.0034646778261288,16.831576208248,-0.00010534739033402,-0.00010534739033402,-0.00010534739033402,3649574.220193,0.015025850238079
21219200,0.98797690934246,0.015466297218909,0.0049715498947912,0.006520619931626,0.0039741273924914,-0.001128443107121,0.0011284419810832,1.872768517733e-09,-3.0192303221537e-09,5.5121621744113e-09,-6.8710374239349e-09,-0.0012742941317214,0.0012742987302412,-0.0012742957042253,0.0012742970706095,-0.0012742980474253,0.0012742945958343,-0.0012742996938779,0.0012742929803916,-0.001075745497994,0.0010757450288533,-0.0010757503504632,0.0010757402794775,-4.4822444878606e-09,7.9435199643295e-09,-1.9053063314288e-08,2.2314077349195e-08,-0.001624930275824,0.0016249335493418,-0.0017647157562072,0.0017647012829217,-0.0017647023090805,0.0017647150641232,-0.0017647117270557,0.0017647054158797,-0.001764698310799,0.0017647191741473,-0.0014203370100701,0.0014203037971164,-0.0014202969303976,0.0014203449232674,-0.0015103589068297,0.0015103637548883,-0.0015103468159188,0.0015103761918207,-3.6712434413564e-09,1.3655090755229e-09,-0.00083055421895759,0.00083055190277164,1.8830906939219e-08,-2.1878892520185e-08,-0.00099171786300368,0.00099172759905973,-0.00099173139583427,0.00099171409745906,-0.0009917161585834,0.00099172928183969,-0.0009917297130978,0.00099171576443439,-0.00086980567461902,0.00086979468120086,-0.00086981058127806,0.00086978976296307,0.65967103077559,128566,2924,0.0046907835399226,0.0067455207068097,0.0034588686769341,15.918600560252,-0.00011265119551799,-0.00011265119551799,-0.00011265119551799,3636208.7144435,0.015007745835127
21419200,0.9882092863716,0.015469665989092,0.0049726214223894,0.0065220522719714,0.0039749922947317,-0.0011273818450445,0.0011273807092624,1.9047273083147e-09,-3.0605358488388e-09,5.5478338953908e-09,-6.9180213399027e-09,-0.0012732366403845,0.0012732412823926,-0.0012732382394009,0.0012732395979627,-0.0012732405847597,0.0012732371193718,-0.0012732422540692,0.0012732354809267,-0.001074707142837,0.0010747067049627,-0.0010747120620685,0.0010747018879387,-4.5364975568783e-09,8.0018115351503e-09,-1.8817020690229e-08,2.2081458021027e-08,-0.0016239208610943,0.0016239241381013,-0.0017637123392264,0.0017636979877207,-0.0017636990444442,0.0017637116094897,-0.0017637082744093,0.0017637021567118,-0.0017636950084797,0.0017637157590187,-0.0014193327190344,0.0014193000030765,-0.0014192930840023,0.0014193406627291,-0.0015093359485182,0.0015093405308893,-0.0015093237452365,0.0015093530860021,-3.6666689252647e-09,1.4054200760303e-09,-0.00082954211442813,0.00082953984426016,1.8592844408366e-08,-2.1588518026818e-08,-0.00099070106515876,0.00099071066044228,-0.00099071442417045,0.0009906973320892,-0.00099069934993091,0.00099071235361628,-0.0009907127278951,0.00099069901215349,-0.00086875863197217,0.00086874789610954,-0.00086876357830281,0.000868742939416,0.66373455121695,128566,2924,0.004686383525569,0.0067413438778016,0.003454663732725,15.230170222845,-0.00011815863821724,-0.00011815863821724,-0.00011815863821724,3625843.6526446,0.014994771644492
21619200,0.98842772754908,0.015472862398221,0.0049736386245772,0.0065234083051157,0.003975815468528,-0.0011263566808925,0.0011263555359744,1.9449265503179e-09,-3.1097883430512e-09,5.5823979465673e-09,-6.9628505602831e-09,-0.0012722202122965,0.0012722249052476,-0.0012722218455771,0.0012722231886559,-0.0012722241868524,0.0012722207131839,-0.0012722258833272,0.001272219048299,-0.001073707833144,0.0010737074400964,-0.0010737128335819,0.0010737025442254,-4.5840580557613e-09,8.0548119366126e-09,-1.8552092545896e-08,2.1821652834838e-08,-0.0016229462414058,0.0016229495234035,-0.0017627399095217,0.001762725706021,-0.0017627267876665,0.0017627391491596,-0.0017627358156694,0.0017627299055517,-0.0017627227161575,0.0017627433354392,-0.0014183681251291,0.001418335952773,-0.0014183289925788,0.0014183761026422,-0.0015083473153199,0.0015083516190934,-0.0015083350063447,0.0015083642859593,-3.651861120383e-09,1.4395034205612e-09,-0.00082856655345129,0.00082856433265082,1.8344625719041e-08,-2.1283448071466e-08,-0.00098972979941712,0.00098973925519838,-0.00098974297823614,0.00098972610741423,-0.00098972808116544,0.00098974095134494,-0.00098974127271057,0.00098972779709064,-0.00086775034192012,0.00086773986364471,-0.00086775531459566,0.00086773488018101,0.66920856517533,128566,2924,0.0046821332447411,0.0067373108205526,0.0034506108184578,14.565847476805,-0.00012347322018556,-0.00012347322018556,-0.00012347322018556,3615370.8768546,0.014982250061855
21819200,0.98863319582936,0.015475823980835,0.0049745804989563,0.0065246670478174,0.003976576434061,-0.001125319175082,0.0011253180201268,1.9432903722064e-09,-3.1181831616414e-09,5.6213939071829e-09,-7.0123220948441e-09,-0.0012711963849224,0.0012712010950344,-0.0012711980169558,0.0012711993811994,-0.0012712003846305,0.0012711968782973,-0.001271202087729,0.0012711952072194,-0.0010726992197252,0.0010726988055227,-0.0010727042392319,0.0010726938919,-4.6018331613322e-09,8.0743522843155e-09,-1.8298059465608e-08,2.1569078398402e-08,-0.0016219581814599,0.0016219614650731,-0.0017617486863654,0.0017617346344061,-0.0017617357241937,0.0017617479127934,-0.0017617445763222,0.0017617388509572,-0.0017617316443962,0.0017617521070117,-0.0014173969414514,0.0014173652935631,-0.0014173583134324,0.0014174049267312,-0.0015073436949032,0.0015073478085974,-0.0015073313597431,0.0015073604973078,-3.685911321454e-09,1.5074337787407e-09,-0.00082758152405048,0.00082757933776004,1.8162805305707e-08,-2.1062804022041e-08,-0.0009887579171304,0.00098876723415096,-0.00098877095794338,0.00098875422440853,-0.00098875616038683,0.00098876896845044,-0.00098876922246123,0.00098875594382633,-0.00086673287937421,0.00086672265721943,-0.00086673794098121,0.00086671758552297,0.65988856030482,128566,2924,0.004677831839095,0.0067332219057195,0.0034465187629528,13.902164247351,-0.00012878268602119,-0.00012878268602119,-0.00012878268602119,3604224.1521409,0.014969580546844
22019200,0.98883834276208,0.015478732682323,0.004975504972792,0.0065259055653081,0.0039773221442227,-0.0011259807275814,0.0011259795536737,1.9485487248431e-09,-3.1413970882906e-09,5.6925695518618e-09,-7.1060005037977e-09,-0.001271896136745,0.0012719008904087,-0.0012718977778819,0.0012718991708262,-0.0012719001896205,0.0012718966223394,-0.0012719019035386,0.0012718949388226,-0.0010733957872223,0.0010733953358835,-0.0010734008410761,0.0010733903899741,-4.6553858906272e-09,8.1325423178264e-09,-1.7845143500704e-08,2.1120502475735e-08,-0.0016227600560239,0.0016227633438649,-0.0017625604347762,0.0017625466443263,-0.0017625477607947,0.0017625596217039,-0.0017625562860865,0.0017625509005922,-0.0017625436469308,0.0017625638519065,-0.0014181626210697,0.0014181319059583,-0.0014181248665767,0.0014181706300686,-0.0015081256334506,0.0015081293479506,-0.0015081131997565,0.0015081421467241,-3.6950761386258e-09,1.5786262012443e-09,-0.00082818686174259,0.00082818474013451,1.7813094484279e-08,-2.0637154307441e-08,-0.00098942641951004,0.00098943551295905,-0.0009894392012767,0.00098942276216336,-0.00098942463382772,0.00098943727569781,-0.00098943744087038,0.00098942450577483,-0.00086736648596195,0.00086735665351047,-0.0008673716225396,0.00086735151190269,0.64982379933494,128566,2924,0.0046805754959936,0.0067365381341715,0.0034490362243371,14.153472544254,-0.00012677221964597,-0.00012677221964597,-0.00012677221964597,3609026.2707832,0.014978286880617
22219200,0.98904435618894,0.015481629495612,0.0049764252577418,0.0065271409405992,0.0039780632972708,-0.0011268237792901,0.001126822603527,1.9854297887291e-09,-3.1806911077291e-09,5.7025973938729e-09,-7.1166550011924e-09,-0.0012727796683269,0.0012727844541328,-0.0012727813372623,0.0012727827082483,-0.0012727837299071,0.0012727801772954,-0.0012727854685422,0.0012727784711452,-0.001074264524714,0.0010742641325431,-0.0010742696496514,0.0010742591188523,-4.6854676263567e-09,8.1661757536421e-09,-1.7659668377724e-08,2.093803149851e-08,-0.0016237453138979,0.0016237486049054,-0.0017635715967815,0.0017635579107033,-0.0017635590435331,0.0017635707646301,-0.001763567429245,0.0017635621865833,-0.0017635549069766,0.0017635750177618,-0.0014190950349655,0.0014190646994058,-0.0014190576361135,0.0014191030678435,-0.0015090881816218,0.0015090917104831,-0.0015090756773519,0.0015091045742938,-3.6912716560082e-09,1.6149211035275e-09,-0.00082895921924553,0.00082895713735269,1.7602961945537e-08,-2.0383183509504e-08,-0.00099025915064473,0.00099026811932017,-0.00099027178023789,0.000990255520816,-0.00099025735594187,0.00099026989119156,-0.00099027000756656,0.00099025727704021,-0.0008681656010451,0.00086815599950032,-0.00086817077249391,0.00086815081951903,0.64497436384469,128566,2924,0.0046840716373942,0.00674061348897,0.0034522471125118,14.499928258865,-0.00012400057392908,-0.00012400057392908,-0.00012400057392908,3617072.3193606,0.014989231301998
22419200,0.98925117387455,0.015484668257062,0.0049773925932344,0.0065284277945254,0.0039788478693023,-0.0011276795694422,0.0011276783972504,2.0145264255564e-09,-3.2063170800923e-09,5.689904225793e-09,-7.1000223361325e-09,-0.0012736710689877,0.0012736758668438,-0.0012736727561953,0.0012736741027537,-0.0012736751209558,0.0012736715997027,-0.0012736768778181,0.0012736698753907,-0.0010751439058751,0.0010751435802685,-0.0010751490839763,0.0010751385125216,-4.6709380419903e-09,8.1503397213044e-09,-1.7650686587229e-08,2.0927871545302e-08,-0.0016247373565685,0.0016247406463986,-0.0017645952481702,0.0017645815774681,-0.0017645827011294,0.0017645944248005,-0.0017645910905952,0.0017645858430614,-0.0017645785745212,0.0017645986676217,-0.0014200270484477,0.0014199967205563,-0.0014199896683705,0.0014200350699066,-0.0015100594992165,0.0015100630505069,-0.0015100470242203,0.0015100758838201,-3.7181470950298e-09,1.6420001388322e-09,-0.0008297409711027,0.00082973888938179,1.7594575264568e-08,-2.0374329449892e-08,-0.00099109285381326,0.00099110179880233,-0.00099110547779133,0.00099108920593364,-0.00099109104106523,0.00099110358876732,-0.00099110368705104,0.00099109098027682,-0.00086897562937131,0.00086896608659987,-0.00086898085368575,0.00086896085351632,0.67139355063212,128566,2924,0.004687620560768,0.0067447171204726,0.0034554967430411,14.848917042285,-0.00012120866366172,-0.00012120866366172,-0.00012120866366172,3625442.240243,0.015000297298788
22619200,0.98945855335681,0.015487751019077,0.0049783743710261,0.0065297316311742,0.0039796450168767,-0.0011285113227118,0.0011285101587073,2.0458882893039e-09,-3.2296309323688e-09,5.6599454784129e-09,-7.0610326465348e-09,-0.0012745768607102,0.0012745816619804,-0.0012745785657449,0.0012745798792828,-0.0012745808898618,0.0012745774175459,-0.0012745826648112,0.0012745756749174,-0.0010760320697957,0.0010760318283716,-0.0010760373008473,0.0010760267064489,-4.6380675552199e-09,8.1142543851572e-09,-1.7780244842078e-08,2.1054552186118e-08,-0.0016257613722071,0.0016257646591467,-0.0017656268174318,0.0017656130822872,-0.001765614187538,0.0017656260154498,-0.0017656226822249,0.0017656173247427,-0.001765610083269,0.001765630235142,-0.0014210114936732,0.0014209808883717,-0.0014209738654421,0.0014210194930587,-0.0015110517454775,0.0015110554466234,-0.0015110393374747,0.0015110682109382,-3.7568582718601e-09,1.6573414115657e-09,-0.00083048731594093,0.00083048521043861,1.7708512210402e-08,-2.0515147752156e-08,-0.00099195683409849,0.00099196582254268,-0.00099196954263309,0.00099195314516344,-0.00099195500341519,0.00099196763061844,-0.0009919677338884,0.00099195493758651,-0.00086976446323963,0.00086975486612463,-0.00086976974032213,0.00086974957978857,0.67880268809584,128566,2924,0.0046910703519247,0.0067489509346853,0.0034586019835334,15.187090623747,-0.00011850327501002,-0.00011850327501002,-0.00011850327501002,3628903.182956,0.015011249694731
22819200,0.98966348093085,0.015490787610969,0.0049793412268787,0.0065310172371627,0.0039804291469273,-0.0011289224912586,0.0011289213412787,2.083575670177e-09,-3.253671369012e-09,5.6077174125493e-09,-6.9928842524803e-09,-0.0012750635673927,0.001275068363562,-0.0012750652925985,0.0012750665587425,-0.0012750675571099,0.0012750641580245,-0.0012750693514483,0.0012750623949784,-0.0010765050544296,0.0010765049240937,-0.0010765103413718,0.0010764997414585,-4.5925398575304e-09,8.0637646551132e-09,-1.8070023206195e-08,2.1339747456952e-08,-0.001626355126544,0.0016263584089528,-0.0017662216706989,0.0017662077741063,-0.0017662088553175,0.0017662208987656,-0.0017662175669923,0.0017662119835867,-0.0017662047816634,0.0017662250870376,-0.0014215799160412,0.0014215487078363,-0.0014215417284126,0.0014215878870597,-0.0015116133767134,0.0015116173569772,-0.0015116010592216,0.0015116300261667,-3.803050365034e-09,1.6582686974855e-09,-0.00083083703245391,0.00083083488076503,1.7940951727946e-08,-2.0800994958741e-08,-0.00099242263350025,0.00099243173466134,-0.00099243551475093,0.00099241888440505,-0.00099242078786338,0.00099243355817027,-0.00099243368967377,0.00099242069333986,-0.00087014547904259,0.00087013571421569,-0.00087015080323529,0.00087013037873296,0.67691803963358,128566,2924,0.0046927763022892,0.0067514042765989,0.0034600594394521,15.303548244923,-0.00011757161404061,-0.00011757161404061,-0.00011757161404061,3627777.4636652,0.015016952445696
23019200,0.98986588558713,0.015493571751262,0.00498022454713,0.0065322108545312,0.0039811363496007,-0.001129306900648,0.0011293057579383,2.1090199985246e-09,-3.2718290858154e-09,5.578581699436e-09,-6.956171206274e-09,-0.0012755204744148,0.0012755252695476,-0.0012755222122419,0.0012755234502182,-0.0012755244410865,0.0012755210864866,-0.0012755262510895,0.0012755193080005,-0.0010769448336437,0.0010769447784798,-0.0010769501671528,0.0010769395504209,-4.5449100491178e-09,8.0118510218038e-09,-1.8311037440964e-08,2.157706975833e-08,-0.0016269175288977,0.0016269208075103,-0.0017667888149937,0.0017667747893145,-0.0017667758443901,0.0017667880754831,-0.0017667847428574,0.0017667789665014,-0.0017667718039689,0.0017667922291594,-0.0014221136794171,0.0014220819680277,-0.0014220750322108,0.0014221216200349,-0.0015121420248736,0.0015121462602073,-0.0015121298083301,0.0015121588277765,-3.8586834055214e-09,1.6679831024781e-09,-0.0008311620666682,0.00083115986822134,1.8190888245498e-08,-2.1103399266802e-08,-0.00099285644804422,0.00099286566402429,-0.00099286951134292,0.00099285263196671,-0.00099285457967146,0.00099286751025325,-0.00099286766552874,0.00099285446161666,-0.00087049731541038,0.00087048738225722,-0.00087050270103373,0.00087048198650704,0.63260004039139,128566,2924,0.0046943711613124,0.0067537280739047,0.0034614140942902,15.414766383105,-0.00011668186893516,-0.00011668186893516,-0.00011668186893516,3627105.5100975,0.015022306486583
23219200,0.99006576530484,0.015496448642336,0.0049811393327374,0.0065334342783717,0.0039818750312266,-0.0011297037002197,0.001129702564733,2.1401818761903e-09,-3.2957784576235e-09,5.5517123487247e-09,-6.9211428502486e-09,-0.001275924070425,0.0012759288703894,-0.0012759258258711,0.0012759270318891,-0.0012759280165243,0.0012759247075385,-0.0012759298446123,0.0012759229104759,-0.0010773433792988,0.0010773434056947,-0.0010773487661376,0.0010773381234554,-4.515798767271e-09,7.9795808475766e-09,-1.8534895858419e-08,2.1798079108175e-08,-0.0016273996696576,0.001627402945417,-0.001767317235658,0.0017673030804227,-0.0017673041209288,0.001767316516074,-0.0017673131832375,0.0017673072370871,-0.0017673001001002,0.0017673206493559,-0.0014225289953344,0.0014224968233695,-0.0014224899167119,0.0014225369190565,-0.0015126108555051,0.0015126152955551,-0.0015125986981057,0.0015126278016911,-3.9038568217215e-09,1.6766145112026e-09,-0.00083151330953374,0.00083151107370096,1.838940759225e-08,-2.1344675105886e-08,-0.00099320574091932,0.00099321504895318,-0.00099321895013712,0.0009932018711008,-0.00099320385478265,0.00099321691315077,-0.00099321708640697,0.00099320371867863,-0.00087085709975727,0.00087084703767445,-0.00087086253836683,0.00087084158949616,0.65900011030861,128566,2924,0.0046960164916752,0.0067557231871363,0.0034628733356442,15.525791407026,-0.00011579366874379,-0.00011579366874379,-0.00011579366874379,3633568.6600767,0.01502748211381
23419200,0.99026397156639,0.015499270039182,0.0049820359473235,0.0065346366138318,0.0039825974780268,-0.0011302225324744,0.0011302213954133,2.1611226185588e-09,-3.3182657798097e-09,5.5552056728388e-09,-6.9269197536505e-09,-0.0012764902836353,0.0012764950990859,-0.001276492052503,0.0012764932463875,-0.0012764942316818,0.0012764909337506,-0.0012764960754352,0.0012764891216141,-0.0010778930824995,0.001077893149842,-0.0010778985151898,0.0010778878231178,-4.5062485847872e-09,7.9691874740282e-09,-1.8613659964877e-08,2.1876086454693e-08,-0.0016280623958486,0.001628065670795,-0.0017680018025231,0.0017679876002783,-0.001767988636393,0.0017680010898887,-0.0017679977556943,0.0017679917511427,-0.0017679846225342,0.0017680052157414,-0.0014231449338192,0.0014231126028818,-0.001423105705209,0.0014231528517008,-0.001513246827517,0.0015132513409142,-0.0015132346934966,0.0015132638262742,-3.9450593201494e-09,1.7008628749469e-09,-0.0008319669179919,0.00083196466483714,1.8489998210306e-08,-2.1464617187111e-08,-0.00099372916383703,0.0009937385054025,-0.00099374244510733,0.00099372525550603,-0.00099372725497339,0.00099374039189402,-0.00099374056032141,0.00099372712388514,-0.00087133433809628,0.0008713242471532,-0.00087133983877225,0.00087131873773301,0.65256369452821,128566,2924,0.0046981683597823,0.0067584634591041,0.0034647606009878,15.704471992301,-0.00011436422406159,-0.00011436422406159,-0.00011436422406159,3636328.2427515,0.01503436422062
23619200,0.99046469611802,0.015502195345503,0.0049829666120447,0.0065358783943983,0.0039833503390602,-0.0011313704665964,0.0011313693248146,2.1989690859028e-09,-3.3605137235952e-09,5.5730079830805e-09,-6.9503717826189e-09,-0.0012776921940575,0.0012776970473012,-0.0012776939920146,0.0012776951667421,-0.0012776961579507,0.0012776928662657,-0.0012776980265875,0.0012776910297988,-0.0010790735198433,0.0010790736422274,-0.0010790790268595,0.0010790682448547,-4.5539246240816e-09,8.0210604478739e-09,-1.8538118562968e-08,2.1804321351479e-08,-0.0016293875803346,0.001629390859065,-0.0017693563505121,0.0017693421694541,-0.0017693432337684,0.0017693556078878,-0.0017693522734328,0.0017693463518214,-0.0017693391857672,0.0017693597692063,-0.0014243993104998,0.0014243671546145,-0.0014243602167707,0.0014244072618111,-0.0015145455664125,0.0015145499309094,-0.001514533329994,0.0015145625224055,-3.9471956316623e-09,1.7275190674434e-09,-0.00083300868217122,0.00083300645417201,1.8364708749489e-08,-2.1310477486384e-08,-0.00099485435756917,0.00099486362344568,-0.00099486754842095,0.00099485046395059,-0.00099485244094795,0.00099486551774286,-0.00099486565199889,0.00099485234398533,-0.00087242409013431,0.00087241414965631,-0.00087242962530126,0.00087240860670445,0.66669035077148,128566,2924,0.00470292866615,0.0067639443774912,0.0034690922260696,16.219128574486,-0.00011024697140411,-0.00011024697140411,-0.00011024697140411,3645188.9461837,0.015049157247478
23819200,0.99066790687534,0.015505322127856,0.004983963700583,0.0065371951285162,0.0039841632987571,-0.0011325395396962,0.0011325383871329,2.2052902390698e-09,-3.3776341481663e-09,5.6132548661302e-09,-7.0024600074182e-09,-0.0012789395244019,0.0012789444029793,-0.0012789413278552,0.001278942517242,-0.0012789435163277,0.0012789401943046,-0.001278945395126,0.0012789383471211,-0.0010802984491687,0.001080298560421,-0.0010803039851657,0.0010802931310593,-4.5701537191174e-09,8.0391965282997e-09,-1.8379345726192e-08,2.1647211250026e-08,-0.00163077236751,0.0016307756478582,-0.0017707582100892,0.0017707441214021,-0.0017707451933232,0.0017707574558406,-0.0017707541194444,0.0017707483176926,-0.0017707411369901,0.0017707616258681,-0.001425720994937,0.0014256891705343,-0.0014256822166861,0.0014257289556868,-0.0015158994827199,0.0015159037178769,-0.0015158872209809,0.0015159163362256,-3.9819296417993e-09,1.7782240338859e-09,-0.00083406114600377,0.0008340589341532,1.8281430965421e-08,-2.1209005314245e-08,-0.00099603075780329,0.00099603994665758,-0.00099604388470892,0.00099602685118097,-0.00099602881002212,0.00099604187181646,-0.00099604196227338,0.00099602875706294,-0.00087353532484065,0.00087352553809141,-0.00087354093612742,0.00087351991874069,0.70079155552793,128566,2924,0.0047077768894936,0.0067696705478058,0.003473470079772,16.741740823736,-0.00010606607341011,-0.00010606607341011,-0.00010606607341011,3651605.1626516,0.015064336370299
24019200,0.99087346305545,0.015508522534813,0.0049849846230337,0.0065385416974838,0.0039849962142954,-0.0011336991236272,0.001133697968079,2.2423888956872e-09,-3.4177506040909e-09,5.6270221856914e-09,-7.018994706118e-09,-0.0012802267342687,0.0012802316475468,-0.0012802285660086,0.0012802297348442,-0.0012802307384839,0.001280227427106,-0.0012802326410132,0.0012802255560307,-0.0010815601167931,0.0010815602847271,-0.0010815657231308,0.0010815547865247,-4.6017010565444e-09,8.0732940444087e-09,-1.8281589612339e-08,2.1551686980874e-08,-0.001632225990305,0.0016322292730042,-0.001772197682645,0.0017721836391683,-0.0017721847293983,0.0017721969077049,-0.0017721935724765,0.0017721878557209,-0.0017721806495984,0.0017722011019813,-0.0014271357115899,0.0014271040946036,-0.0014270971146525,0.0014271436945943,-0.0015173108263899,0.0015173149297269,-0.0015172984936814,0.0015173276181168,-3.9864446197172e-09,1.8054003506699e-09,-0.00083509034294305,0.00083508815415528,1.8159821524947e-08,-2.1061659291803e-08,-0.0009972666295873,0.00099727574299567,-0.00099727966921924,0.00099726273470981,-0.00099726467324075,0.00099727767693339,-0.00099727773442496,0.00099726465312122,-0.00087464171929186,0.00087463208055916,-0.00087464736664056,0.00087462642480193,0.70866201271356,128566,2924,0.0047125863949526,0.0067756787005548,0.00347775492379,17.264646445354,-0.00010188282843717,-0.00010188282843717,-0.00010188282843717,3652557.4552165,0.015079669820369
24219200,0.99107997995942,0.015511596045426,0.0049859629240158,0.0065398451238678,0.003985787997542,-0.0011346631926541,0.0011346620264276,2.2359554920026e-09,-3.4222939053057e-09,5.6691333607772e-09,-7.0711154556296e-09,-0.0012813279612004,0.001281332888722,-0.0012813297865167,0.0012813309815089,-0.0012813319917202,0.0012813286427345,-0.001281333896723,0.0012813267649104,-0.0010826376816552,0.0010826378197703,-0.0010826432952536,0.0010826323005983,-4.5664575995019e-09,8.0330734570612e-09,-1.8137957922836e-08,2.1403280563353e-08,-0.0016334987929317,0.001633502071141,-0.0017734514695501,0.0017734375386669,-0.001773438604769,0.0017734507118459,-0.0017734473778679,0.0017734417341593,-0.0017734345557093,0.0017734548758589,-0.001428374402895,0.0014283430577647,-0.0014283361052528,0.0014283823532892,-0.001518539464456,0.0015185435547763,-0.001518527217477,0.001518556150409,-4.0474784277204e-09,1.8551083440145e-09,-0.00083593300829967,0.00083593080866614,1.8193226482743e-08,-2.1108710999766e-08,-0.00099832627103998,0.00099833535938885,-0.00099833933262421,0.00099832232895988,-0.00099832427246763,0.00099833733577716,-0.00099833736566171,0.00099832427875278,-0.00087555566828391,0.00087554608406185,-0.00087556140805661,0.00087554033578621,0.68010064010627,128566,2924,0.0047165852046251,0.006780938062773,0.0034812654279861,17.692481132549,-9.8460150939612e-05,-9.8460150939612e-05,-9.8460150939612e-05,3651405.8698947,0.015092634563009
24419200,0.99128429436009,0.015514633512308,0.0049869295931329,0.0065411337243579,0.0039865701948176,-0.0011351885819547,0.0011351874276077,2.2742634661449e-09,-3.44898529546e-09,5.6258112937403e-09,-7.014789782105e-09,-0.0012819373274923,0.00128194225621,-0.0012819391761161,0.0012819403276504,-0.0012819413261954,0.0012819380430826,-0.0012819432535466,0.0012819361450266,-0.0010832369380193,0.0010832371831845,-0.0010832426182379,0.0010832316089669,-4.573767800945e-09,8.0424492960475e-09,-1.8250715540286e-08,2.1518020008083e-08,-0.0016342463795983,0.0016342496597193,-0.0017742079566966,0.0017741939423866,-0.0017741950163496,0.0017742071976098,-0.001774203859928,0.0017741981448402,-0.0017741909588886,0.0017742113681637,-0.0014290717925328,0.0014290402281235,-0.0014290332730703,0.0014290797562323,-0.0015192578729403,0.0015192620242393,-0.001519245606718,0.001519274636448,-4.0668389136753e-09,1.879700986694e-09,-0.00083637592077465,0.00083637372566346,1.8187599129213e-08,-2.109823272118e-08,-0.00099889269137013,0.00099890176338794,-0.00099890574740643,0.00099888873902061,-0.00099889067882168,0.00099890375382466,-0.00099890376578319,0.0009988907041351,-0.00087603941851294,0.00087602989069972,-0.00087604520255714,0.00087602409752193,0.6793459030179,128566,2924,0.004718764453244,0.0067840270324549,0.0034831115482282,17.884880822368,-9.6920953421052e-05,-9.6920953421052e-05,-9.6920953421052e-05,3651584.7586898,0.015099857859047
24619200,0.99148629748856,0.015517782381708,0.0049879337502221,0.0065424596949578,0.0039873889365278,-0.0011357117626257,0.0011357106131951,2.3208524476188e-09,-3.4903881359155e-09,5.6059655913897e-09,-6.9907115995593e-09,-0.0012825328334446,0.0012825377858411,-0.0012825347147434,0.0012825358237582,-0.0012825368209845,0.0012825335828844,-0.0012825387740383,0.0012825316596546,-0.001083828811565,0.0010838291513379,-0.0010838345671117,0.0010838235028946,-4.5603162607039e-09,8.027238828658e-09,-1.8313674630458e-08,2.1579475907412e-08,-0.0016349776800472,0.0016349809585306,-0.0017749487592049,0.0017749347177229,-0.0017749357836679,0.0017749480084985,-0.0017749446760573,0.0017749389059373,-0.0017749317326947,0.0017749521731417,-0.0014297537978071,0.0014297220899307,-0.0014297151444788,0.0014297617490404,-0.0015199640298924,0.0015199682382212,-0.0015199517836576,0.0015199808358837,-4.080914938258e-09,1.8865508094743e-09,-0.00083681752098169,0.00083681531888953,1.8225982329515e-08,-2.1143465668806e-08,-0.00099944308776959,0.00099945217784988,-0.00099945617555425,0.00099943912142623,-0.00099944107208199,0.00099945417147991,-0.00099945418307176,0.00099944109736478,-0.00087652268977643,0.00087651315834228,-0.00087652850592403,0.00087650733359273,0.7094445895632,128566,2924,0.0047209344916264,0.0067870490621888,0.003484951596021,18.071690661547,-9.5426474707624e-05,-9.5426474707624e-05,-9.5426474707624e-05,3651954.2404051,0.015106997484432
24819200,0.9916859532233,0.015520662548616,0.0049888487792626,0.0065436885350071,0.0039881252343467,-0.0011362124996988,0.0011362113541406,2.3458542591818e-09,-3.511462628144e-09,5.5912766860871e-09,-6.9717326280597e-09,-0.0012831484013894,0.0012831533604532,-0.0012831502965688,0.0012831513840909,-0.0012831523765946,0.0012831491697163,-0.0012831543462546,0.0012831472302621,-0.0010844272777131,0.0010844276814826,-0.0010844330822868,0.0010844219839975,-4.5480793944141e-09,8.0139630648706e-09,-1.8363092511423e-08,2.1628009491509e-08,-0.0016357456134999,0.0016357488910775,-0.0017757012779435,0.0017756872113506,-0.0017756882701813,0.0017757005357082,-0.001775697201975,0.0017756913921277,-0.0017756842289071,0.0017757046902534,-0.0014304968486919,0.0014304650388703,-0.0014304581045178,0.0014305047920863,-0.0015206914355256,0.0015206957032474,-0.0015206792171544,0.0015207082720025,-4.1151421145512e-09,1.9152577415427e-09,-0.00083722837983225,0.00083722617196923,1.8262142150446e-08,-2.1186165278575e-08,-0.0010000327580475,0.0010000418466243,-0.0010000458709989,0.0010000287651389,-0.0010000307201134,0.0010000438624608,-0.0010000438586385,0.0010000307610874,-0.00087698245563007,0.00087697295093872,-0.00087698833037089,0.00087696706771097,0.66112228019868,128566,2924,0.0047230119920704,0.0067902205107638,0.0034866665946945,18.258294302733,-9.3933645578137e-05,-9.3933645578137e-05,-9.3933645578137e-05,3648012.0382562,0.015114069377578
25019200,0.99188550571117,0.015523506348075,0.0049897516895956,0.0065449039106348,0.0039888507478443,-0.0011370615757811,0.0011370604307704,2.385469728245e-09,-3.5500719389451e-09,5.586274113495e-09,-6.9678661677656e-09,-0.0012840532279126,0.0012840582131466,-0.0012840551515352,0.0012840562091322,-0.0012840572022855,0.0012840540234104,-0.0012840591963747,0.0012840520602847,-0.0010853193262407,0.001085319805499,-0.0010853252031928,0.0010853140392167,-4.5635282812259e-09,8.0309018344616e-09,-1.8351704944423e-08,2.1618109726411e-08,-0.0016367901880663,0.001636793466969,-0.0017767776515188,0.0017767635851857,-0.0017767646533482,0.0017767768998951,-0.0017767735674148,0.0017767677749949,-0.0017767605994894,0.0017767810671076,-0.0014314641988365,0.001431432416682,-0.0014314254660796,0.0014314721505008,-0.0015217123927029,0.0015217166169175,-0.0015217001410457,0.0015217292277977,-4.12518539487e-09,1.9360230169747e-09,-0.00083798183941231,0.00083797964285001,1.8208824757785e-08,-2.1118523469711e-08,-0.0010008640913119,0.0010008731424082,-0.0010008771664455,0.0010008600987176,-0.0010008620448911,0.0010008751663397,-0.0010008751417654,0.0010008621069626,-0.00087777546915376,0.0008777660502475,-0.00087778138105264,0.00087776013181067,0.65362537918362,128566,2924,0.0047265328405342,0.006794539742915,0.0034898010016628,18.629832340241,-9.0961341278075e-05,-9.0961341278075e-05,-9.0961341278075e-05,3654868.8130038,0.015125210367891
25219200,0.99208817019961,0.015526495877953,0.0049907023383856,0.0065461743371731,0.0039896192023939,-0.0011384274700132,0.0011384263185018,2.4042189777808e-09,-3.5751052016931e-09,5.6111318816642e-09,-6.9998463451461e-09,-0.0012854744928026,0.0012854795037642,-0.0012854764299864,0.001285477486451,-0.0012854784844343,0.0012854752961497,-0.0012854804947538,0.0012854733178657,-0.0010867221853668,0.00108672268636,-0.0010867281095342,0.0010867168736907,-4.5836574269414e-09,8.0527471250441e-09,-1.822445124823e-08,2.1492319028524e-08,-0.0016383658372178,0.0016383691176247,-0.0017783950771094,0.0017783810815815,-0.001778382160308,0.0017783943118923,-0.0017783909783277,0.0017783852862702,-0.0017783780943358,0.0017783984918447,-0.0014329425592068,0.0014329110450614,-0.0014329040757891,0.0014329505226839,-0.0015232638638614,0.0015232679679185,-0.0015232515749246,0.0015232806169782,-4.1486719573643e-09,1.9778795457212e-09,-0.00083921697713728,0.00083921479944437,1.8110672813642e-08,-2.0998568534237e-08,-0.0010021806132031,0.001002189587016,-0.0010021936146495,0.0010021766168917,-0.0010021785436977,0.0010021916337207,-0.0010021915691932,0.0010021786456663,-0.00087906575322245,0.00087905648498318,-0.00087907172638902,0.00087905050617235,0.6745467401187,128566,2924,0.004732196454675,0.0068010564421445,0.0034949365186574,19.270786631256,-8.5833706949954e-05,-8.5833706949954e-05,-8.5833706949954e-05,3666948.5755499,0.015142788903137
25419200,0.99229382690327,0.015529791125184,0.0049917539130748,0.0065475576222557,0.0039904795898538,-0.0011398180236726,0.0011398168672271,2.4244844414568e-09,-3.6005658753509e-09,5.6301039786991e-09,-7.0239345530914e-09,-0.0012869515398986,0.0012869565749322,-0.0012869534918054,0.0012869545433405,-0.001286955545265,0.0012869523541462,-0.001286957571145,0.0012869503592517,-0.001088179361358,0.0010881798896286,-0.0010881853309789,0.0010881740281434,-4.5953197784292e-09,8.0654472466524e-09,-1.8125479503984e-08,2.1394206129159e-08,-0.0016400140700323,0.0016400173513188,-0.0017800657883285,0.0017800518494275,-0.0017800529339265,0.0017800650143846,-0.0017800616808603,0.001780056063066,-0.0017800488610054,0.0017800692019244,-0.0014345083039834,0.001434476994446,-0.0014344700153631,0.0014345162754213,-0.0015248815113823,0.0015248855293546,-0.0015248692008107,0.0015248982001556,-4.1746235412726e-09,2.0152989068124e-09,-0.00084046448414304,0.00084046231788829,1.8045035503699e-08,-2.0920522936271e-08,-0.001003564313968,0.001003573229184,-0.0010035772669069,0.0010035603075377,-0.0010035622227279,0.0010035752978748,-0.0010035752012632,0.0010035623566579,-0.00088038433116308,0.00088037518190266,-0.0008803903627097,0.00088036914305167,0.72789190368676,128566,2924,0.0047379627683314,0.0068078716555989,0.0035001257613804,19.918161324987,-8.0654709400106e-05,-8.0654709400106e-05,-8.0654709400106e-05,3675299.946283,0.015160830686188
25619200,0.99250225943305,0.015533151508656,0.0049928262720459,0.006548968773481,0.0039913564631295,-0.0011411914008914,0.0011411902435905,2.4528776846841e-09,-3.6299117536156e-09,5.6360207295586e-09,-7.029919845186e-09,-0.0012884885005163,0.0012884935582198,-0.0012884904725221,0.0012884915069558,-0.0012884925105899,0.0012884893329616,-0.0012884945550789,0.0012884873195157,-0.0010896895870166,0.0010896901645346,-0.0010896956112436,0.0010896842488576,-4.6003168081264e-09,8.0708213663002e-09,-1.8094477926061e-08,2.1363482112933e-08,-0.0016417643001405,0.0016417675817919,-0.0017817894397077,0.0017817755180115,-0.001781776605437,0.001781788662441,-0.0017817853293824,0.0017817797345627,-0.0017817725281848,0.0017817928541309,-0.0014362161683601,0.0014361849208987,-0.001436177938548,0.0014362241440209,-0.0015265824267266,0.0015265864126239,-0.0015265701017366,0.0015265990933162,-4.1982498819766e-09,2.0429866197889e-09,-0.00084167582740554,0.00084167366526755,1.8016149995808e-08,-2.0887457325028e-08,-0.0010050406617208,0.0010050495438373,-0.0010050535946966,0.0010050366422365,-0.0010050385540206,0.0010050516290298,-0.001005051511293,0.0010050387091224,-0.00088169484419581,0.00088168577193862,-0.00088170092772745,0.00088167968085083,0.73243474197932,128566,2924,0.0047436588742467,0.0068151044863566,0.0035051703163254,20.565764397036,-7.5473884823711e-05,-7.5473884823711e-05,-7.5473884823711e-05,3675272.5818821,0.015179081102854
25819200,0.9927080614936,0.015536377307615,0.0049938541540924,0.0065503305021595,0.0039921926513631,-0.0011417832284105,0.0011417820747196,2.4876053680474e-09,-3.6616234469102e-09,5.6228785747575e-09,-7.0114011517429e-09,-0.001289234469778,0.0012892395429023,-0.0012892364636248,0.0012892374681716,-0.0012892384698167,0.0012892353276475,-0.0012892405355357,0.0012892332917179,-0.0010904187537273,0.0010904194072281,-0.0010904248390267,0.0010904134247604,-4.5558393859987e-09,8.0219363321751e-09,-1.8207935427718e-08,2.1472799935584e-08,-0.0016427026178005,0.0016427058954439,-0.0017826980013603,0.0017826840337186,-0.001782685095671,0.0017826972524012,-0.0017826939215157,0.0017826882184568,-0.0017826810480371,0.0017827014128882,-0.0014371286017226,0.0014370970985525,-0.0014370901575472,0.0014371365482793,-0.0015274757084232,0.0015274798546028,-0.0015274634700407,0.0015274924402427,-4.2346263721207e-09,2.0488656123528e-09,-0.00084215757636239,0.00084215538271144,1.8175886724078e-08,-2.1084556715313e-08,-0.0010057621412353,0.0010057710981154,-0.0010057751931926,0.0010057580775493,-0.0010057600199082,0.0010057731969603,-0.0010057730953682,0.0010057601588779,-0.00088224787485038,0.00088223869714325,-0.0008822539997376,0.00088223256256939,0.71386318464094,128566,2924,0.0047461143938276,0.0068189783543777,0.0035071830966885,20.804980778347,-7.356015377322e-05,-7.356015377322e-05,-7.356015377322e-05,3668944.9671299,0.01518755362559
26019200,0.99290667503807,0.015539362441031,0.0049948033514566,0.0065515993425001,0.003992959747074,-0.0011416777563541,0.0011416766135491,2.5149459361647e-09,-3.6783043059007e-09,5.5807276702677e-09,-6.9573305669739e-09,-0.0012892325492008,0.0012892376157806,-0.0012892345570598,0.0012892355258987,-0.0012892365175424,0.0012892334323095,-0.0012892385975389,0.001289231381475,-0.0010904135665787,0.0010904143063054,-0.0010904196953811,0.001090408280891,-4.5126684688994e-09,7.9748312352623e-09,-1.8446180040626e-08,2.1707598369359e-08,-0.0016428497265498,0.0016428530006755,-0.001782832998862,0.0017828188995289,-0.0017828199386881,0.0017828322787257,-0.0017828289478744,0.0017828230546003,-0.0017828159197805,0.0017828364093609,-0.0014372520149303,0.0014372200124913,-0.0014372131114337,0.0014372599350683,-0.0015275894125412,0.0015275938006469,-0.0015275772614136,0.0015276062966345,-4.2859486761695e-09,2.0622200591245e-09,-0.0008419986692963,0.00084199643676513,1.838717799504e-08,-2.1340191340981e-08,-0.0010057545781686,0.0010057636304499,-0.0010057677846797,0.0010057504555906,-0.00100575243544,0.0010057657511086,-0.0010057656653062,0.0010057525585394,-0.0008821212464845,0.00088211194030342,-0.00088212743468663,0.00088210574243467,0.68688291035633,128566,2924,0.0047456782266296,0.0068195812469982,0.0035065306977445,20.675765407251,-7.459387674199e-05,-7.459387674199e-05,-7.459387674199e-05,3660517.2468377,0.015187062548095
26219200,0.99309828665891,0.015542419612269,0.0049957780551551,0.0065528857844333,0.0039937557726807,-0.0011415703692664,0.0011415692340891,2.5464570167618e-09,-3.7019231408216e-09,5.5502314975813e-09,-6.9194902440287e-09,-0.0012891745753593,0.0012891796451127,-0.001289176601001,0.0012891775368109,-0.0012891785207094,0.0012891754842239,-0.0012891806193406,0.0012891734148878,-0.0010903679799847,0.0010903688058073,-0.001090374164693,0.0010903627270041,-4.5022219658565e-09,7.9630683857857e-09,-1.8619075237562e-08,2.1879416309733e-08,-0.0016429163599626,0.0016429196329048,-0.0017829118841375,0.0017828976767745,-0.0017828987118987,0.0017829111719567,-0.0017829078400547,0.0017829018247324,-0.0017828947005697,0.0017829152952579,-0.0014372753619145,0.0014372430130066,-0.0014372361221167,0.0014372832758138,-0.0015276396454183,0.0015276441693116,-0.001527627518738,0.0015276566450535,-4.3219513000971e-09,2.0797937933155e-09,-0.00084185106763326,0.00084184881648415,1.8494070682983e-08,-2.1467560045848e-08,-0.0010056733678861,0.0010056824619207,-0.0010056866518156,0.0010056692096786,-0.0010056712071818,0.0010056846008304,-0.0010056845147646,0.0010056713302536,-0.0008819925364119,0.00088198318609623,-0.00088199877718106,0.0008819769369265,0.72524660513419,128566,2924,0.0047452335397097,0.0068198539123385,0.0035059217770693,20.537714511126,-7.569828391099e-05,-7.569828391099e-05,-7.569828391099e-05,3656589.6982669,0.015186270062589
26419200,0.99328317950284,0.01554545668856,0.0049967474041333,0.0065541584916073,0.0039945507928192,-0.0011414566964027,0.0011414555632484,2.5745374048628e-09,-3.7279645503053e-09,5.5411321229176e-09,-6.9080771358678e-09,-0.0012891539220045,0.001289159004888,-0.0012891559652321,0.0012891568781517,-0.0012891578602967,0.0012891548505823,-0.0012891599770652,0.0012891527632841,-0.0010903549179694,0.0010903558053372,-0.0010903611553243,0.0010903496731395,-4.4956730690384e-09,7.9558275412827e-09,-1.8705057447629e-08,2.1964782287037e-08,-0.0016430360336488,0.0016430393059758,-0.0017830092863432,0.0017829950277855,-0.0017829960597056,0.0017830085794244,-0.0017830052469966,0.001782999170843,-0.0017829920531492,0.0017830126978089,-0.0014373861500119,0.0014373536286174,-0.0014373467452162,0.0014373940608434,-0.0015277314093481,0.0015277360030892,-0.0015277192963863,0.0015277484644917,-4.3545735727021e-09,2.101695908106e-09,-0.00084168779939842,0.00084168553719453,1.8564013372134e-08,-2.1550368815982e-08,-0.0010056536843009,0.0010056628004668,-0.0010056670189658,0.0010056494974218,-0.0010056515053857,0.0010056649575684,-0.0010056648638139,0.001005651636209,-0.00088186368955551,0.0008818543315017,-0.00088186998340948,0.00088184802880575,0.74502754876441,128566,2924,0.0047447635159001,0.0068203436635759,0.0035052507133897,20.399336902892,-7.6805304776865e-05,-7.6805304776865e-05,-7.6805304776865e-05,3647251.2677372,0.015185610809362
26619200,0.99346569026522,0.015548426312088,0.0049976946977249,0.0065554049426761,0.0039953266716868,-0.0011420127664062,0.0011420116217802,2.6037174096744e-09,-3.7679672312647e-09,5.5805958875252e-09,-6.961717233729e-09,-0.0012898423797062,0.0012898475064461,-0.0012898444470706,0.0012898453561498,-0.0012898463496118,0.001289843320511,-0.0012898484887628,0.0012898412110344,-0.0010910426237262,0.0010910435359018,-0.0010910489281589,0.0010910373400171,-4.5180105698784e-09,7.9803461460796e-09,-1.8548702544399e-08,2.1810568020001e-08,-0.0016439095357658,0.0016439128100381,-0.001783845272013,0.0017838311036563,-0.001783832147177,0.0017838445496085,-0.0017838412185538,0.0017838352616083,-0.0017838281247885,0.0017838486842858,-0.0014382459866179,0.001438213785481,-0.0014382068765018,0.0014382539066492,-0.0015285697384868,0.0015285741822396,-0.0015285575813446,0.0015285866966756,-4.3653293690078e-09,2.1303206148743e-09,-0.00084214665882781,0.0008421444153751,1.8473843714108e-08,-2.1437066195919e-08,-0.0010063249564363,0.0010063340108563,-0.0010063382246287,0.001006320774149,-0.0010063227648872,0.0010063361798878,-0.0010063360553945,0.0010063229265888,-0.00088239119911025,0.00088238196533571,-0.00088239753598147,0.00088237562340516,0.73848439433933,128566,2924,0.004747070758415,0.0068239500484695,0.0035071673021891,20.629837727886,-7.496129817691e-05,-7.496129817691e-05,-7.496129817691e-05,3641548.7674514,0.01519356313853
26819200,0.99364802109369,0.015551317745742,0.0049986158227231,0.0065566237739181,0.0039960781491013,-0.0011429388659649,0.0011429377095516,2.6307086939714e-09,-3.8066921126489e-09,5.6256842155636e-09,-7.0195338635883e-09,-0.0012909039362007,0.0012909091082601,-0.0012909060271308,0.0012909069360589,-0.0012909079410877,0.0012909048876879,-0.0012909101022864,0.0012909027577908,-0.0010920970978623,0.0010920980273817,-0.0010921034671895,0.0010920917709125,-4.5542877655761e-09,8.0208047960368e-09,-1.831942723172e-08,2.1584992838756e-08,-0.0016451730370612,0.0016451763150716,-0.0017850827026653,0.0017850686613771,-0.0017850697248213,0.0017850819567145,-0.0017850786248975,0.001785072844745,-0.0017850656760567,0.0017850861177912,-0.001439474402714,0.0014394426739291,-0.001439435732675,0.0014394823479757,-0.0015297977561799,0.0015298019754443,-0.0015297855212738,0.001529814568079,-4.3699690514782e-09,2.1684988684446e-09,-0.0008429538382058,0.00084295162852333,1.830301111678e-08,-2.1227712568005e-08,-0.0010073469719087,0.001007355918482,-0.0010073601143305,0.0010073428078026,-0.0010073447666077,0.0010073581005994,-0.0010073579300768,0.0010073449750145,-0.00088327593575093,0.00088326690464133,-0.00088328231715034,0.00088326051917508,0.72121904571786,128566,2924,0.0047509120159708,0.0068291698990993,0.0035105312087954,21.064484982343,-7.1484120141259e-05,-7.1484120141259e-05,-7.1484120141259e-05,3640894.9606104,0.01520618004221
27019200,0.99383007151404,0.015554121920626,0.0049995077625622,0.0065578117287776,0.0039968024292857,-0.0011438725513209,0.0011438713983071,2.6204414398275e-09,-3.7931642883545e-09,5.6178513013648e-09,-7.0075435515312e-09,-0.0012919509457066,0.0012919561019985,-0.0012919530257281,0.001291953943584,-0.0012919549402622,0.0012919518927355,-0.0012919570976269,0.0012919497672787,-0.0010931363953918,0.0010931373236209,-0.0010931427539068,0.0010931310793638,-4.6234792634116e-09,8.096553525671e-09,-1.8253266086309e-08,2.1524567034487e-08,-0.0016464115171943,0.0016464148010124,-0.0017863157967212,0.001786301748673,-0.0017863028536267,0.0017863150070968,-0.001786311667334,0.0017863059851487,-0.0017862987619329,0.001786319213359,-0.0014406585791001,0.0014406270404622,-0.0014406200434182,0.0014406665777588,-0.0015310044695499,0.0015310085236171,-0.0015309921034627,0.001531021247721,-4.4122145306468e-09,2.2587358785554e-09,-0.00084377275367486,0.00084377059265543,1.8047974227688e-08,-2.0918687604754e-08,-0.0010083408771651,0.0010083496349887,-0.0010083538279737,0.0010083367159432,-0.0010083386236388,0.0010083518660854,-0.0010083516036562,0.001008338923857,-0.0008841614075751,0.0008841527314158,-0.00088416790539318,0.00088414622660486,0.70228505169772,128566,2924,0.00475478432984,0.0068342875263738,0.0035139422176127,21.504071451299,-6.7967428389611e-05,-6.7967428389611e-05,-6.7967428389611e-05,3643413.9823079,0.015218771802529
27219200,0.99401168384621,0.015556830290021,0.0050003677257892,0.0065589655020883,0.003997497062144,-0.0011448092400997,0.0011448080734325,2.6815368364602e-09,-3.8679433542157e-09,5.6686774487675e-09,-7.0731312456956e-09,-0.0012929737043222,0.0012929789356509,-0.0012929758333499,0.0012929767265194,-0.0012929777410351,0.0012929746832666,-0.0012929799394732,0.001292972515867,-0.0010941508184464,0.0010941518133307,-0.0010941572946393,0.0010941454456614,-4.6084340007988e-09,8.0792641027334e-09,-1.8017313530263e-08,2.128652317574e-08,-0.0016476100768202,0.0016476133586517,-0.0017875301747344,0.0017875163025896,-0.0017875173939716,0.0017875293916143,-0.0017875260613476,0.0017875205225207,-0.0017875133098342,0.0017875335901873,-0.0014417844496676,0.0014417533549947,-0.0014417463647365,0.0014417924278825,-0.0015321750895839,0.0015321790031162,-0.001532162744762,0.0015321917058727,-4.3976037977447e-09,2.2458002319157e-09,-0.00084459924213819,0.00084459708341791,1.8018948053359e-08,-2.0886427536684e-08,-0.0010092960178037,0.001009304772112,-0.0010093089534874,0.0010092918676801,-0.0010092937776304,0.0010093069892321,-0.0010093067343756,0.0010092940701543,-0.00088504238623563,0.00088503371508637,-0.00088504886803716,0.00088502722545462,0.68191771970942,128566,2924,0.0047586686365149,0.0068392415629404,0.0035173825341662,21.943840947881,-6.4449272416949e-05,-6.4449272416949e-05,-6.4449272416949e-05,3648939.5225898,0.015231238657975
27419200,0.9941912726359,0.015559595410359,0.0050012469234553,0.0065601373609497,0.0039982111259543,-0.0011455168183757,0.0011455156559177,2.7149897850434e-09,-3.8975061330547e-09,5.6562929408704e-09,-7.0546502422776e-09,-0.0012937290122437,0.0012937342578382,-0.0012937311628104,0.0012937320287741,-0.0012937330396906,0.0012937300162397,-0.0012937352580937,0.0012937278276984,-0.0010949049838912,0.0010949060540695,-0.0010949115213913,0.0010948996253312,-4.6074922175108e-09,8.0781708758366e-09,-1.8023959111186e-08,2.1292902525267e-08,-0.0016485110524332,0.0016485143341513,-0.0017884675611743,0.0017884536803809,-0.0017884547723061,0.0017884667781301,-0.0017884634475003,0.0017884579005902,-0.0017884506877474,0.0017884709766493,-0.0014426016392441,0.0014425705275776,-0.0014425635414113,0.0014426096205465,-0.0015330568049471,0.0015330607245068,-0.0015330444564157,0.0015330734224182,-4.4187965645187e-09,2.2701525548164e-09,-0.00084521513261902,0.00084521297693502,1.799586479633e-08,-2.0861186031099e-08,-0.0010099784736171,0.0010099871989791,-0.0010099913928648,0.0010099743112497,-0.0010099762183494,0.0010099894317355,-0.001009989158229,0.0010099765293511,-0.00088569335437859,0.00088568474945962,-0.00088569988194886,0.00088567821375082,0.70214877778353,128566,2924,0.0047616026148467,0.0068429664829514,0.0035199452766609,22.25212749978,-6.1982980001757e-05,-6.1982980001757e-05,-6.1982980001757e-05,3655257.8245805,0.015240600896324
27619200,0.99436831110707,0.015562364454403,0.0050021278758281,0.0065613083422194,0.0039989282363554,-0.0011461517276211,0.0011461505706459,2.7249397814675e-09,-3.9018191443292e-09,5.6347549161658e-09,-7.0280004445283e-09,-0.0012944321963609,0.0012944374347977,-0.001294434350016,0.0012944352025058,-0.001294436206241,0.0012944332106133,-0.0012944384311519,0.0012944310158623,-0.0010956056128442,0.0010956067242485,-0.0010956121702809,0.0010956002772158,-4.5910909158534e-09,8.0601159509904e-09,-1.8098842055858e-08,2.1366397350522e-08,-0.0016493594328248,0.0016493627130473,-0.0017893338325324,0.0017893199111765,-0.001789320993926,0.0017893330600812,-0.0017893297284603,0.0017893241213549,-0.0017893169223834,0.0017893372455278,-0.0014433865514303,0.0014433552855481,-0.0014433483123498,0.0014433945200913,-0.0015338780839255,0.0015338820896955,-0.0015338657756711,0.0015338947510525,-4.4703078875835e-09,2.3131088851959e-09,-0.00084575203306414,0.00084574986886085,1.8037991572239e-08,-2.0912094275431e-08,-0.0010106218779258,0.0010106305927184,-0.0010106348265391,0.0010106176756874,-0.0010106195896398,0.0010106328585868,-0.0010106325619899,0.0010106199236086,-0.000886271870036,0.00088626331284341,-0.00088627848563745,0.0008862566898893,0.71252806503648,128566,2924,0.004764235749297,0.0068464726084498,0.0035221813086902,22.519135518059,-5.9846915855531e-05,-5.9846915855531e-05,-5.9846915855531e-05,3657416.3185571,0.01524910492618
27819200,0.99454273006953,0.015565139388084,0.0050030113152301,0.0065624789680817,0.0039996491047724,-0.0011467833464138,0.0011467821948823,2.7613314365583e-09,-3.9327170217709e-09,5.6150768034565e-09,-7.0025252101322e-09,-0.0012951444731228,0.0012951497250088,-0.0012951466494011,0.0012951474693169,-0.0012951484683985,0.0012951455150885,-0.0012951507154717,0.0012951432983192,-0.001096313918814,0.0010963151151311,-0.0010963205408269,0.0010963086035412,-4.5715393050829e-09,8.0385908835664e-09,-1.8181740385135e-08,2.1447530845773e-08,-0.001650219319993,0.0016502225984241,-0.0017902024078542,0.0017901884454618,-0.0017901895173281,0.001790201648241,-0.0017901983177358,0.001790192641286,-0.0017901854586986,0.0017902058203425,-0.0014441908848256,0.0014441594416491,-0.001444152485564,0.0014441988398491,-0.0015347071537088,0.0015347112511523,-0.0015346948849167,0.0015347238731983,-4.4978856562946e-09,2.3267437093383e-09,-0.00084628166366557,0.00084627948529744,1.8109096853463e-08,-2.0999121700342e-08,-0.0010112799269611,0.0010112886674706,-0.0010112929285762,0.0010112756973884,-0.0010112776254538,0.0010112909464949,-0.0010112906499343,0.001011277959391,-0.00088685048605047,0.00088684190385011,-0.00088685714304127,0.00088683523966891,0.72383355809932,128566,2924,0.004766855452223,0.0068500255477342,0.0035243881644587,22.785125408539,-5.7718996731691e-05,-5.7718996731691e-05,-5.7718996731691e-05,3657865.9456956,0.015257613776618
28019200,0.99471447373365,0.015567922032355,0.0050038978718937,0.0065636498825131,0.0040003742779478,-0.0011474107125228,0.0011474095654313,2.7853720352209e-09,-3.9523534392724e-09,5.5980641440584e-09,-6.9806907789237e-09,-0.0012958656626454,0.0012958709201369,-0.0012958678527,0.0012958686500001,-0.0012958696446031,0.0012958667233192,-0.0012958719065233,0.0012958644916661,-0.0010970321695852,0.0010970334269672,-0.0010970388352531,0.0010970268712921,-4.5537502808783e-09,8.0190111147737e-09,-1.8266329786693e-08,2.1530516908958e-08,-0.0016510943747934,0.0016510976516047,-0.0017910765360396,0.0017910625290385,-0.00179106359117,0.0017910757881984,-0.0017910724576699,0.0017910667126701,-0.0017910595450846,0.0017910799473639,-0.0014450180950248,0.0014449864745198,-0.0014449795346043,0.001445026038295,-0.0015355488975121,0.0015355530866452,-0.0015355366662175,0.0015355656703321,-4.5370751686408e-09,2.3524107272988e-09,-0.00084680434214541,0.00084680214992207,1.8180441549255e-08,-2.1086218591443e-08,-0.0010119542004693,0.0010119629581872,-0.0010119672542729,0.001011949935929,-0.0010119518769456,0.0010119652592816,-0.0010119649543601,0.0010119522192327,-0.00088742858389013,0.0008874199983704,-0.00088743530340165,0.0008874132716342,0.73612509105333,128566,2924,0.0047694577341273,0.0068536403951092,0.0035265672084194,23.051077393981,-5.5591380848153e-05,-5.5591380848153e-05,-5.5591380848153e-05,3656752.1466517,0.01526614008907
28219200,0.99488282523413,0.015570703318047,0.0050047846760854,0.0065648171919395,0.0040011014500225,-0.0011479072616169,0.0011479061165307,2.8231253410764e-09,-3.9883042383916e-09,5.5899368986141e-09,-6.9698369818527e-09,-0.001296467000222,0.0012964722789022,-0.001296469215396,0.0012964699825697,-0.001296470976598,0.0012964680871618,-0.0012964732624079,0.0012964658318277,-0.0010976333986685,0.0010976347332475,-0.0010976401334517,0.0010976281075091,-4.5323449873835e-09,7.9955702721107e-09,-1.8339236835315e-08,2.1601537200513e-08,-0.0016518537513486,0.0016518570263051,-0.0017918244248702,0.0017918103845714,-0.0017918114348845,0.0017918236912047,-0.0017918203619199,0.0017918145521273,-0.0017918074021816,0.001791827836108,-0.0014457410659931,0.0014457092846528,-0.0014457023649395,0.0014457489958165,-0.0015362737854388,0.0015362780620371,-0.0015362615943274,0.0015362906024763,-4.5629546135433e-09,2.3612967980437e-09,-0.00084720396412356,0.0008472017543116,1.8272945256683e-08,-2.119923642688e-08,-0.0010125230124441,0.0010125318108975,-0.0010125361352693,0.0010125187195866,-0.0010125206782948,0.0010125341224234,-0.0010125338229405,0.0010125210152392,-0.00088788524681554,0.00088787661290725,-0.00088789200270002,0.00088786984932478,0.74948916581307,128566,2924,0.0047715178279181,0.006856775939641,0.0035282358573648,23.250908509593,-5.3992731923253e-05,-5.3992731923253e-05,-5.3992731923253e-05,3653162.1514636,0.01527311152731
28419200,0.99504769243705,0.015573484243513,0.0050056720584374,0.0065659811701979,0.004001831014878,-0.0011483785268536,0.0011483773824485,2.863385492638e-09,-4.0279054486495e-09,5.5865147341515e-09,-6.9656125413771e-09,-0.0012970551432736,0.0012970604475583,-0.0012970573856821,0.0012970581235736,-0.0012970591180962,0.0012970562574542,-0.001297061429584,0.0012970539762652,-0.0010982251939629,0.0010982266076478,-0.001098232004776,0.001098219906465,-4.5201865412863e-09,7.9825693555151e-09,-1.8392354974592e-08,2.1653954418439e-08,-0.0016526089866085,0.001652612260815,-0.0017925571584878,0.0017925430909509,-0.0017925441346683,0.0017925564331521,-0.0017925531044368,0.001792547249481,-0.0017925401090864,0.0017925605704895,-0.0014464690424384,0.0014464371449782,-0.0014464302366928,0.0014464769651554,-0.0015369935970762,0.0015369979297272,-0.0015369814272536,0.0015370104474191,-4.5832478968309e-09,2.3696816409053e-09,-0.00084757766030588,0.00084757543824071,1.8341192118524e-08,-2.1281294180995e-08,-0.001013086999143,0.001013095826755,-0.0010131001725551,0.0010130826851064,-0.0010130846563528,0.0010130981469916,-0.0010130978498116,0.0010130849910464,-0.00088832177625466,0.00088831311139922,-0.00088832856342622,0.0008883063173257,0.76402416133953,128566,2924,0.0047734732978623,0.0068598935024516,0.003529797832968,23.441530025805,-5.2467759793562e-05,-5.2467759793562e-05,-5.2467759793562e-05,3648022.1059797,0.015279850609053
28619200,0.995209080428,0.015576225379526,0.005006546867048,0.0065671278336835,0.0040025506787942,-0.0011488382387637,0.0011488370963534,2.8725652114281e-09,-4.035009244291e-09,5.578268201094e-09,-6.9556577174313e-09,-0.0012976459852645,0.0012976512891891,-0.0012976482313899,0.0012976489617068,-0.0012976499526988,0.0012976471068227,-0.0012976522703241,0.0012976448185867,-0.0010988229190732,0.0010988243617618,-0.0010988297497281,0.0010988176397697,-4.5300617493702e-09,7.9929978322852e-09,-1.8443995771413e-08,2.1706094683531e-08,-0.0016533775489199,0.0016533808236254,-0.0017932917984938,0.0017932776879737,-0.0017932787385025,0.0017932910668994,-0.0017932877360655,0.0017932818550977,-0.0017932747078574,0.0017932952099535,-0.0014472190754586,0.0014471870873296,-0.0014471801712552,0.0014472270057393,-0.0015377260735027,0.0015377304253751,-0.0015377138887555,0.0015377429605516,-4.6293973673327e-09,2.4159475627765e-09,-0.00084793681581235,0.0008479345938532,1.834604803609e-08,-2.1286112130603e-08,-0.0010136602367288,0.001013669035041,-0.0010136734117369,0.0010136558917675,-0.001013657861483,0.0010136713880695,-0.001013671059366,0.0010136582273778,-0.00088874893166312,0.00088874035071698,-0.00088875580527754,0.00088873347030137,0.76896079011596,128566,2924,0.0047753810675947,0.0068630652656182,0.0035313005358816,23.631912562458,-5.0944699500338e-05,-5.0944699500338e-05,-5.0944699500338e-05,3641520.9783631,0.015286536557383
28819200,0.99536701949066,0.015578835330653,0.0050073786685101,0.0065682245535612,0.0040032321085817,-0.0011492887042172,0.0011492875649428,2.8552300505348e-09,-4.0144713667967e-09,5.5666950746818e-09,-6.941009409927e-09,-0.001298229970912,0.0012982352535165,-0.0012982322016007,0.0012982329418656,-0.0012982339264449,0.001298231082669,-0.0012982362352477,0.0012982288056683,-0.0010994148647882,0.0010994162918496,-0.001099421669877,0.0010994096000629,-4.5525588995095e-09,8.0183618857249e-09,-1.8493001521733e-08,2.1757747470985e-08,-0.0016541435131895,0.0016541467905445,-0.0017940224588326,0.0017940082996952,-0.0017940093645873,0.0017940217157604,-0.0017940183784585,0.0017940124857998,-0.0017940053208674,0.0017940258718463,-0.0014479669829219,0.0014479349243197,-0.0014479279919724,0.0014479749339598,-0.0015384566692352,0.0015384610187881,-0.001538444447265,0.0015384735934431,-4.6974180037533e-09,2.4945415669785e-09,-0.00084828668506753,0.00084828447336736,1.8308623081809e-08,-2.1236771021875e-08,-0.0010142267093286,0.0010142354361968,-0.001014239852315,0.0010142223251181,-0.0010142242820437,0.001014237840978,-0.0010142374539052,0.0010142247072049,-0.00088916548936943,0.00088915708211047,-0.00088917249659911,0.00088915006710634,0.74978434414,128566,2924,0.004777250500056,0.006866226077701,0.0035327648329933,23.824508396905,-4.9403932824763e-05,-4.9403932824763e-05,-4.9403932824763e-05,3635243.0204407,0.01529313347439
29019200,0.9955226490892,0.015581263678674,0.0050081504282921,0.0065692544056153,0.0040038588447667,-0.0011499667817229,0.001149965634662,2.9015013143802e-09,-4.0682521946512e-09,5.5942402439624e-09,-6.9775531684815e-09,-0.0012990172154485,0.0012990225479367,-0.0012990194817681,0.0012990201997697,-0.0012990211940339,0.0012990183533475,-0.0012990235343597,0.0012990160439722,-0.0011002097558736,0.0011002112448836,-0.0011002166504307,0.00110020445999,-4.5567856294446e-09,8.0222362968349e-09,-1.8397056224855e-08,2.1661452236503e-08,-0.0016551046509823,0.0016551079279184,-0.0017949701042533,0.0017949560114392,-0.0017949570767613,0.0017949693566775,-0.0017949660240705,0.0017949601970565,-0.0017949530295187,0.0017949735171179,-0.0014488844904567,0.0014488526187513,-0.001448845678823,0.0014488924377649,-0.0015393875270573,0.0015393917984605,-0.0015393752940648,0.0015394043882927,-4.6999686074867e-09,2.5001976644593e-09,-0.00084885094420092,0.00084884873617245,1.8281331809274e-08,-2.1204825233717e-08,-0.0010149682415864,0.0010149769534955,-0.0010149813679153,0.0010149638585816,-0.001014965814073,0.0010149793582502,-0.0010149789652149,0.001014966244764,-0.00088979044196755,0.00088978206995289,-0.00088979746312963,0.00088977504187593,0.71130253276698,128566,2924,0.0047800631436572,0.0068701957113427,0.003535118062585,24.14032903389,-4.6877367728876e-05,-4.6877367728876e-05,-4.6877367728876e-05,3634293.1464693,0.01530241091882
29219200,0.99567592193407,0.015583596109414,0.0050088907518194,0.0065702475620912,0.0040044577955037,-0.0011506612517638,0.0011506601007403,2.9446640609901e-09,-4.1154776251125e-09,5.6101489827131e-09,-6.9971722820134e-09,-0.0012997671746993,0.0012997725459072,-0.0012997694722503,0.001299770167114,-0.0012997711661198,0.0012997683390031,-0.001299773535513,0.0012997659999525,-0.0011009696355532,0.0011009711945624,-0.001100976615358,0.0011009643230701,-4.5663043938293e-09,8.0325053213585e-09,-1.8322274058575e-08,2.1587244925486e-08,-0.0016559977171003,0.0016560009946971,-0.0017958883959783,0.0017958743457415,-0.0017958754162819,0.0017958876413637,-0.0017958843097215,0.0017958785374852,-0.0017958713616064,0.0017958918094353,-0.0014496995219168,0.0014496678003982,-0.0014496608526281,0.0014497074758769,-0.0015402625128106,0.001540266713458,-0.0015402502561623,0.0015402793240735,-4.7049702974183e-09,2.5132332636355e-09,-0.00084944106100676,0.00084943886114879,1.8234742622541e-08,-2.1149533185374e-08,-0.0010156450731971,0.001015653753899,-0.0010156581664152,0.0010156406921812,-0.0010156426405426,0.0010156561638615,-0.0010156557568846,0.0010156430850599,-0.00089041864201905,0.00089041033214711,-0.00089042568362275,0.00089040328363015,0.69516967017828,128566,2924,0.0047829429116976,0.0068738868600897,0.0035375747569816,24.459070833926,-4.4327433328591e-05,-4.4327433328591e-05,-4.4327433328591e-05,3639249.2911134,0.015311577064343
29419200,0.99582676614482,0.01558573085152,0.0050095657464494,0.0065711680401615,0.0040049970649087,-0.0011513593588421,0.0011513582061467,2.9668745431259e-09,-4.1393644317024e-09,5.6167706088572e-09,-7.0057140507153e-09,-0.0013004984659012,0.0013005038552748,-0.0013005007784945,0.0013005014621059,-0.001300502461978,0.0013004996440023,-0.0013005048470997,0.0013004972892335,-0.0011017027139358,0.0011017043129937,-0.001101709740786,0.0011016973953916,-4.5785776133615e-09,8.0458932128382e-09,-1.8273713641121e-08,2.1539655979236e-08,-0.0016568505705,0.0016568538490758,-0.0017967845781787,0.0017967705506578,-0.0017967716283129,0.0017967838153508,-0.001796780482944,0.001796774751738,-0.0017967675656996,0.0017967879916615,-0.0014504619403658,0.0014504303235046,-0.0014504233651028,0.0014504699027359,-0.0015410979175046,0.0015411020634392,-0.0015410856369385,0.0015411146985182,-4.7311991277669e-09,2.5495866510521e-09,-0.00085003748928544,0.00085003529977698,1.8179586150828e-08,-2.1082610722894e-08,-0.0010162903690801,0.0010162989976852,-0.0010163034212681,0.0010162859770547,-0.0010162879149825,0.0010163014291454,-0.0010163009912215,0.0010162883903976,-0.00089104025972258,0.00089103206048593,-0.00089104736140638,0.00089102495189189,0.65089857622936,128566,2924,0.0047858374239032,0.0068774132175883,0.0035400556513139,24.777920702161,-4.1776634382714e-05,-4.1776634382714e-05,-4.1776634382714e-05,3646423.3199376,0.01532061490101
29619200,0.99597503161155,0.015587797152632,0.0050102185892158,0.0065720610740952,0.0040055174893211,-0.0011520566867463,0.0011520555336095,2.9957883822948e-09,-4.16871078382e-09,5.6189641518974e-09,-7.0081976069031e-09,-0.0013011669418755,0.0013011723517382,-0.0013011692739952,0.0013011699392095,-0.0013011709395647,0.0013011681389342,-0.0013011733440937,0.0013011657647807,-0.0011023726753726,0.0011023743293448,-0.0011023797591861,0.0011023673547411,-4.5806629815961e-09,8.0480457335508e-09,-1.8244188577445e-08,2.1510158944527e-08,-0.0016576027134495,0.0016576059920781,-0.0017976234064646,0.0017976093972379,-0.0017976104757982,0.0017976226419979,-0.0017976193099399,0.0017976135996556,-0.0017976064117742,0.0017976268196875,-0.0014510869933293,0.001451055435824,-0.0014510484755388,0.0014510949565694,-0.0015418460090916,0.001541850131303,-0.0015418337239469,0.0015418627701925,-4.7540275133919e-09,2.5771413533185e-09,-0.00085064626204841,0.00085064407736128,1.8153703646874e-08,-2.1051311745341e-08,-0.0010168437339,0.0010168523314297,-0.0010168567671606,0.0010168393297184,-0.0010168412630386,0.0010168547796392,-0.0010168543203192,0.0010168417598747,-0.00089165037301736,0.00089164224678272,-0.00089165752400598,0.00089163508885428,0.64191386306406,128566,2924,0.004788727806517,0.0068805266110212,0.0035425832254596,25.087542965573,-3.9299656275416e-05,-3.9299656275416e-05,-3.9299656275416e-05,3659684.0431588,0.015329274733271
29819200,0.99612017024807,0.015589946305184,0.0050108998153863,0.0065729799704812,0.0040060665193162,-0.0011526617563887,0.0011526606046635,3.0231661607497e-09,-4.1948224585196e-09,5.6141781998899e-09,-7.0014952700079e-09,-0.0013017284032499,0.0013017338286063,-0.001301730753191,0.0013017313977839,-0.001301732397177,0.0013017296192408,-0.0013017348190821,0.0013017272273303,-0.001102933916427,0.0011029356268015,-0.0011029410508628,0.0011029285998071,-4.571926772246e-09,8.0381101186064e-09,-1.8251484950193e-08,2.1516262983759e-08,-0.0016582291430733,0.0016582324205185,-0.0017983443201521,0.0017983303114266,-0.0017983313850336,0.0017983435602233,-0.0017983402296613,0.0017983345071724,-0.0017983273269014,0.0017983477320902,-0.0014515846841708,0.0014515531053462,-0.0014515461522469,0.0014515926405563,-0.0015424704916904,0.0015424746353937,-0.0015424582232858,0.0015424872558694,-4.7833460758053e-09,2.6029261705944e-09,-0.0008511725602612,0.00085117037199395,1.8168727722046e-08,-2.1070862553291e-08,-0.0010172915497646,0.0010173001372189,-0.0010173045945472,0.001017287123739,-0.0010172890607989,0.0010173026036104,-0.0010173021290524,0.0010172895725189,-0.00089217284967784,0.00089216476376618,-0.0008921800550771,0.00089215755056208,0.67837703768823,128566,2924,0.0047912356280394,0.006883120863274,0.0035447669987322,25.339794821091,-3.7281641431269e-05,-3.7281641431269e-05,-3.7281641431269e-05,3672448.4554756,0.015336669793536
30019200,0.99626215322373,0.015592082921338,0.0050115776143945,0.0065738913173996,0.0040066139895434,-0.0011532591382934,0.0011532579873396,3.0522989434691e-09,-4.2230922922732e-09,5.60511860568e-09,-6.991797654734e-09,-0.0013023397625349,0.0013023452014755,-0.0013023421314866,0.0013023427517761,-0.0013023437502686,0.001302340998554,-0.0013023461915322,0.0013023385875174,-0.0011035338511734,0.0011035356255387,-0.0011035410430763,0.0011035285425131,-4.5658409704572e-09,8.0315107097432e-09,-1.8277347189119e-08,2.1541739895574e-08,-0.0016589200223182,0.00165892329936,-0.00179909131015,0.0017990772883153,-0.0017990783584896,0.0017990905546814,-0.0017990872237962,0.0017990814801307,-0.0017990743045192,0.0017990947220261,-0.0014521830882248,0.0014521514547882,-0.001452144507159,0.0014521910403743,-0.0015431414769505,0.0015431456496405,-0.0015431292219203,0.0015431582576273,-4.8102695326431e-09,2.6272365122385e-09,-0.00085167907650447,0.000851676885581,1.8184066393313e-08,-2.1088780052506e-08,-0.001017817482731,0.0010178260613087,-0.0010178305385349,0.0010178130370551,-0.0010178149765457,0.0010178285449651,-0.0010178280561163,0.0010178155027747,-0.00089269994504585,0.00089269189483794,-0.00089270720039765,0.00089268463244345,0.68873090395716,128566,2924,0.0047937125122548,0.006885978579763,0.0035468726537612,25.590682453854,-3.5274540369164e-05,-3.5274540369164e-05,-3.5274540369164e-05,3678154.7981338,0.015344223891974
30219200,0.99640096664912,0.015594076191298,0.0050122084479444,0.0065747484415804,0.004007119301773,-0.0011538477116795,0.0011538465629935,3.0804281313071e-09,-4.2489532650284e-09,5.5993881265529e-09,-6.9836617353984e-09,-0.001302961875705,0.0013029673303249,-0.0013029642625899,0.0013029648624796,-0.0013029658588986,0.0013029631319003,-0.0013029683180468,0.0013029607029203,-0.001104139613513,0.0011041414474012,-0.0011041468579732,0.001104134311622,-4.5588077340236e-09,8.0236853600964e-09,-1.8299571861053e-08,2.1563246259099e-08,-0.0016596238631404,0.0016596271394579,-0.0017998393421628,0.001799825310233,-0.0017998263764624,0.00179983859113,-0.0017998352606883,0.001799829496989,-0.0017998223272594,0.0017998427535487,-0.0014528049323067,0.0014527732501465,-0.0014527663086957,0.0014528128793632,-0.0015438201313373,0.0015438243321999,-0.0015438078906411,0.0015438369255747,-4.839607678745e-09,2.6525115178944e-09,-0.00085217357141963,0.00085217137635076,1.8205019998518e-08,-2.1114425000354e-08,-0.001018362795297,0.0010183713671759,-0.0010183758666309,0.0010183583274029,-0.0010183602709651,0.0010183738690055,-0.0010183733659335,0.0010183608114042,-0.00089321932895722,0.00089321131290311,-0.00089322663802353,0.00089320399690179,0.66008312988321,128566,2924,0.0047961531559489,0.0068888889350055,0.0035489295909754,25.841519536992,-3.3267843704067e-05,-3.3267843704067e-05,-3.3267843704067e-05,3681775.9339982,0.01535174595558
30419200,0.99653689260616,0.015595914832635,0.0050127885442155,0.0065755472512795,0.00400757903714,-0.0011545084386979,0.0011545072918286,3.1081200926345e-09,-4.274742159784e-09,5.5945499216876e-09,-6.9773881074063e-09,-0.001303619135175,0.0013036246058781,-0.0013036215398537,0.001303622120197,-0.0013036231146579,0.0013036204110754,-0.0013036255917048,0.0013036179643863,-0.0011047798543103,0.0011047817465425,-0.0011047871516768,0.0011047745587953,-4.5516900094064e-09,8.0158480798141e-09,-1.8304993214375e-08,2.1568042111177e-08,-0.0016603413613765,0.0016603446370196,-0.0018006286301217,0.0018006145989556,-0.0018006156610342,0.0018006278833901,-0.001800624553524,0.0018006187807299,-0.001800611616717,0.001800632040877,-0.0014534140092904,0.0014533823114527,-0.0014533753750044,0.0014534219501952,-0.001544520631154,0.0015445248494591,-0.0015445084061095,0.0015445374291867,-4.8679446119167e-09,2.6793334054996e-09,-0.0008527424226739,0.00085274022612625,1.8214135080235e-08,-2.112478572098e-08,-0.0010189193877753,0.0010189279461006,-0.0010189324654918,0.001018914899977,-0.00101891684506,0.0010189304662826,-0.0010189299463626,0.0010189174023095,-0.00089380019587058,0.00089379222567371,-0.00089380755933353,0.00089378485592349,0.62526527773246,128566,2924,0.004798892355096,0.006891857976336,0.0035512926844325,26.129468363058,-3.0964253095534e-05,-3.0964253095534e-05,-3.0964253095534e-05,3690311.5995065,0.015359940415392
30619200,0.99667071842651,0.015597846803632,0.005013400363108,0.0065763766139828,0.0040080698265412,-0.0011553902159191,0.0011553890720336,3.1396114534848e-09,-4.3031322286729e-09,5.5850633401873e-09,-6.965088381978e-09,-0.0013044504581834,0.001304455944722,-0.0013044528833319,0.0013044534390445,-0.0013044544303489,0.0013044517570641,-0.0013044569281684,0.0013044492912596,-0.001105600117635,0.0011056020789279,-0.0011056074747628,0.0011055948340789,-4.5465824207927e-09,8.0101927354633e-09,-1.8283403828328e-08,2.1545877153066e-08,-0.0016612103416138,0.0016612136166962,-0.001801602071544,0.0018015880576772,-0.0018015891174118,0.0018016013281921,-0.001801597998373,0.0018015922359619,-0.0018015850754697,0.001801605481784,-0.0014541396724536,0.0014541080133362,-0.0014541010790962,0.0014541476077283,-0.0015453870854766,0.0015453912994882,-0.0015453748715498,0.0015454038691751,-4.8887857280768e-09,2.7072019142419e-09,-0.00085352345693582,0.00085352126748896,1.8181714908708e-08,-2.1083877702722e-08,-0.001019613035676,0.0010196215602544,-0.0010196260890436,0.001019608538325,-0.0010196104764467,0.0010196240959886,-0.0010196235535376,0.0010196110569259,-0.00089458492682331,0.00089457703516518,-0.0008945923390204,0.00089456961767588,0.66318230618256,128566,2924,0.0048025473298817,0.0068954563302914,0.0035545341133794,26.523701617699,-2.7810387058412e-05,-2.7810387058412e-05,-2.7810387058412e-05,3705428.3721585,0.015370594144256
30819200,0.99680236493411,0.015599838321765,0.0050140326009223,0.0065772252143584,0.0040085805064842,-0.0011562758085322,0.0011562746654192,3.1654678846602e-09,-4.3284517125189e-09,5.5850157434483e-09,-6.9634849978427e-09,-0.0013053489913824,0.0013053544949271,-0.0013053514332184,0.0013053519723967,-0.0013053529632292,0.0013053503080207,-0.0013053554772688,0.0013053478242913,-0.0011064762077153,0.0011064782197986,-0.0011064836135647,0.0011064709230621,-4.5432934513861e-09,8.0062067357623e-09,-1.8263714290359e-08,2.1525568442189e-08,-0.0016621649738003,0.0016621682482902,-0.0018026190590923,0.0018026050603063,-0.0018026061170972,0.0018026183166731,-0.0018026149882456,0.0018026092360551,-0.001802602078503,0.0018026224680377,-0.0014549915483663,0.0014549599256084,-0.0014549529955799,0.0014549994815112,-0.0015463194974509,0.0015463237045899,-0.0015463072891471,0.0015463362654578,-4.9170607169644e-09,2.736527111914e-09,-0.00085429071413351,0.00085428852577409,1.8170093236389e-08,-2.1071744947049e-08,-0.0010204019999381,0.001020410498631,-0.0010204150454703,0.0010203974846557,-0.0010203994217764,0.0010204130542827,-0.0010204124909565,0.001020400022478,-0.00089538353767633,0.00089537571189143,-0.00089539100487393,0.00089536823779303,0.69236328549387,128566,2924,0.0048062191049022,0.0068994054893479,0.003557722832416,26.920471026939,-2.4636231784491e-05,-2.4636231784491e-05,-2.4636231784491e-05,3712931.8891136,0.01538157009839
31019200,0.99693173633167,0.01560185619535,0.0050146742307963,0.0065780811769456,0.0040091007876079,-0.0011571544056175,0.001157153262348,3.192639826668e-09,-4.3557843293883e-09,5.5852437182136e-09,-6.9639706476535e-09,-0.0013062866132909,0.0013062921351225,-0.0013062890733244,0.0013062895944715,-0.0013062905853755,0.0013062879479752,-0.00130629311759,0.0013062854461243,-0.0011073889476869,0.0011073910127462,-0.0011073964069835,0.0011073836627323,-4.543771870006e-09,8.0066778081949e-09,-1.8254947814993e-08,2.1516791027039e-08,-0.0016631783658502,0.0016631816403191,-0.001803660952708,0.0018036469593502,-0.0018036480163934,0.001803660209837,-0.0018036568815713,0.0018036511354323,-0.0018036439774953,0.0018036643615398,-0.0014559316943537,0.0014559000891326,-0.0014558931585219,0.001455939627516,-0.0015473014491627,0.0015473056495953,-0.001547289240133,0.0015473182116304,-4.9435454951557e-09,2.7642306154325e-09,-0.00085503907693806,0.00085503688984841,1.8161766729317e-08,-2.1061929758523e-08,-0.0010212508440486,0.0010212593198671,-0.0010212638835654,0.0010212463119109,-0.0010212482478169,0.0010212618935791,-0.0010212613109654,0.0010212488677921,-0.00089618237230702,0.00089617460679783,-0.00089618989251951,0.00089616707960754,0.71215832491277,128566,2924,0.0048098625684664,0.0069035950345717,0.0035608364230971,27.317334549365,-2.1461323605083e-05,-2.1461323605083e-05,-2.1461323605083e-05,3715081.3976691,0.015392686853275
31219200,0.99705985289895,0.015603956354135,0.0050153436316481,0.0065789655836002,0.0040096471388869,-0.0011583171097487,0.0011583159621865,3.220282468809e-09,-4.3872604090894e-09,5.6043299288489e-09,-6.9891442844985e-09,-0.0013075424488489,0.0013075480010846,-0.0013075449286159,0.0013075454408791,-0.0013075464357462,0.0013075437994025,-0.0013075489874243,0.0013075412776449,-0.0011086252842859,0.0011086273904827,-0.0011086328017812,0.0011086199812808,-4.5171413680201e-09,7.9770082447561e-09,-1.8156849973873e-08,2.14160137036e-08,-0.0016645323307583,0.0016645356025801,-0.0018050207640216,0.0018050068524204,-0.0018050078915739,0.0018050200358172,-0.0018050167110227,0.0018050110093555,-0.0018050038713248,0.0018050241688474,-0.0014572201724505,0.0014571887410119,-0.0014571818264868,0.0014572280782781,-0.001548620307713,0.001548624493538,-0.0015486081561694,0.0015486370024363,-4.9693847673885e-09,2.7880187190141e-09,-0.00085603640156439,0.00085603421291333,1.8166084100924e-08,-2.1066266124559e-08,-0.0010224093540495,0.0010224178142184,-0.0010224223965152,0.0010224048035753,-0.0010224067410869,0.0010224204043687,-0.0010224198069762,0.0010224073756122,-0.00089725772967175,0.00089725000572392,-0.00089726529977167,0.00089724243237042,0.74546030025573,128566,2924,0.0048146842659182,0.0069091914279888,0.0035649870515061,27.866827973128,-1.7065376214974e-05,-1.7065376214974e-05,-1.7065376214974e-05,3716261.1216688,0.015407482798708
31419200,0.99718666914465,0.015605934606914,0.005015972785084,0.0065798057671848,0.004010156054645,-0.001159490814752,0.0011594896725219,3.2471295342158e-09,-4.4091070342026e-09,5.5819362863288e-09,-6.9597196471068e-09,-0.0013088598488665,0.0013088654050382,-0.0013088623453884,0.0013088628291093,-0.0013088638188139,0.0013088612208935,-0.0013088663867632,0.0013088586829945,-0.0011099197101266,0.0011099218853664,-0.0011099272761459,0.0011099144305907,-4.5412665626002e-09,8.0038714554564e-09,-1.8183074606787e-08,2.1444678940896e-08,-0.0016659767354071,0.0016659800096421,-0.0018064388182546,0.001806424871162,-0.0018064259264664,0.0018064380754674,-0.0018064347481397,0.001806429046143,-0.0018064218886501,0.0018064422261011,-0.0014586258770805,0.0014585944097626,-0.0014585874786875,0.0014586338065192,-0.0015500185894991,0.0015500227469381,-0.0015500063852803,0.0015500353050014,-4.9926188912876e-09,2.824761394824e-09,-0.00085702939064513,0.00085702721532866,1.8093825262588e-08,-2.0980231034953e-08,-0.0010236466480454,0.0010236550482722,-0.0010236596375105,0.0010236420907512,-0.0010236440153708,0.0010236576586979,-0.0010236570281865,0.0010236446830309,-0.00089834470163485,0.00089833710536854,-0.00089835232938586,0.00089832947148541,0.71242630544512,128566,2924,0.0048195521560485,0.0069151590090761,0.0035691233382617,28.434922274326,-1.252062180539e-05,-1.252062180539e-05,-1.252062180539e-05,3713131.7116612,0.015422689792701
31619200,0.99731199991472,0.015607794645091,0.0050165630108263,0.0065806023085678,0.0040106293256968,-0.0011606612807599,0.001160660136579,3.2745385642858e-09,-4.4385351590166e-09,5.589301853597e-09,-6.9692864400244e-09,-0.0013101250681989,0.0013101306471407,-0.0013101275833489,0.0013101280519632,-0.001310129043576,0.0013101264570742,-0.0013101316305393,0.0013101239003064,-0.0011111754137495,0.001111177636461,-0.0011111830347867,0.001111170125428,-4.5375063758831e-09,7.9996365035372e-09,-1.81614503291e-08,2.1422592473211e-08,-0.0016673539546134,0.0016673572283759,-0.0018078229311301,0.0018078090026992,-0.0018078100549719,0.0018078221906291,-0.0018078188641551,0.0018078131744335,-0.0018078060203084,0.0018078263380221,-0.0014599299784023,0.0014598985517568,-0.0014598916234679,0.0014599379036686,-0.0015513640307044,0.0015513681811762,-0.001551351834851,0.0015513807308978,-5.0194245734365e-09,2.8498225714042e-09,-0.00085802881626447,0.00085802663923833,1.8098797210345e-08,-2.098706891793e-08,-0.0010248075103607,0.0010248158960118,-0.001024820504131,0.0010248029339395,-0.0010248048602606,0.0010248185236159,-0.0010248178775607,0.0010248055435626,-0.00089941735283617,0.00089940980063163,-0.00089942503124535,0.00089940211578385,0.6805776737255,128566,2924,0.0048244056454458,0.0069208511804465,0.0035732831334583,29.003507463675,-7.9719402905962e-06,-7.9719402905962e-06,-7.9719402905962e-06,3716135.2543106,0.015437624687857
31819200,0.99743354343152,0.015609533119585,0.0050171137169426,0.0065813515084701,0.0040110678941721,-0.0011612553745501,0.001161254226917,3.3025518772924e-09,-4.4703577970052e-09,5.5943163283733e-09,-6.9764864198346e-09,-0.001310754620779,0.0013107602198913,-0.0013107571554641,0.001310757604435,-0.0013107585998754,0.0013107560255246,-0.0013107612068431,0.0013107534488557,-0.0011117980947055,0.0011118003672683,-0.0011118057729975,0.0011117927964054,-4.5674823022568e-09,8.032021914538e-09,-1.8304383802169e-08,2.1567505374809e-08,-0.0016680598918417,0.0016680631677536,-0.0018085687109062,0.0018085546689002,-0.0018085557415272,0.0018085679537901,-0.0018085646233681,0.0018085588615148,-0.0018085516863889,0.0018085721220833,-0.0014605513926813,0.0014605197060644,-0.0014605127606534,0.0014605593467535,-0.0015520505447067,0.0015520547317698,-0.0015520382848934,0.0015520673400376,-5.0510308696138e-09,2.8668902706452e-09,-0.00085851408448811,0.00085851189222727,1.8176681659617e-08,-2.1083783284771e-08,-0.0010253482274902,0.0010253566404718,-0.0010253612790834,0.0010253436203861,-0.00102534556111,0.0010253592844492,-0.0010253586363622,0.0010253462463981,-0.00089993295954172,0.00089992538353975,-0.00089994068443494,0.00089991764971585,0.65805653652423,128566,2924,0.0048268688211568,0.0069237697413064,0.0035753023224336,29.265789295146,-5.8736856388285e-06,-5.8736856388285e-06,-5.8736856388285e-06,3720091.9034608,0.015445140299613
32019200,0.99754969935827,0.015611360463153,0.0050176953726771,0.0065821263173303,0.0040115387731457,-0.0011613981895049,0.00116139703336,3.3266711628876e-09,-4.5029928615189e-09,5.6162657682907e-09,-7.0070832801804e-09,-0.0013108806963235,0.0013108863233571,-0.0013108832492946,0.0013108836880591,-0.0013108846924762,0.0013108821110421,-0.0013108873184739,0.001310879515838,-0.0011119271507938,0.0011119294520808,-0.001111934883898,0.0011119218258873,-4.5915922761842e-09,8.0584084395066e-09,-1.847163109235e-08,2.173719611805e-08,-0.0016682316982909,0.0016682349764994,-0.0018088002354233,0.0018087860702255,-0.0018087871591832,0.0018087994668554,-0.0018087961321421,0.0018087902792981,-0.0018087830876325,0.0018088036515039,-0.0014606369673239,0.0014606049696283,-0.0014605980108108,0.0014606449461319,-0.0015522159341613,0.0015522201845594,-0.0015522036240442,0.001552232841887,-5.0906620671028e-09,2.8789611429141e-09,-0.00085859911936608,0.00085859689887634,1.8326884630078e-08,-2.1266603869669e-08,-0.0010254010635446,0.0010254095430909,-0.0010254142259237,0.0010253964120942,-0.0010253983798762,0.0010254122039218,-0.0010254115659742,0.0010253990555734,-0.00090002014577892,0.00090001248324439,-0.00090002792172884,0.00090000469825595,0.71766339403441,128566,2924,0.0048274606328092,0.0069244814972924,0.0035756549704144,29.280991793642,-5.7520656508664e-06,-5.7520656508664e-06,-5.7520656508664e-06,3723925.6155196,0.015446820891892
32219200,0.99766066365913,0.015613147239778,0.0050182646740548,0.0065828814943253,0.0040120010713975,-0.001161512585341,0.0011615114227417,3.3455375184856e-09,-4.5279165891435e-09,5.6348438086929e-09,-7.0338756823379e-09,-0.0013110605988759,0.001311066249315,-0.0013110631657878,0.0013110635991579,-0.0013110646097681,0.0013110620220142,-0.0013110672499977,0.0013110594116609,-0.0011121009305824,0.0011121032552263,-0.0011121087067029,0.0011120955850967,-4.5981351587154e-09,8.0658086527293e-09,-1.8549752899429e-08,2.181580734759e-08,-0.0016684905300815,0.0016684938088403,-0.0018090572240763,0.0018090430031778,-0.00180904409672,0.0018090564518533,-0.0018090531162305,0.001809047217043,-0.0018090400212338,0.001809060641309,-0.0014608708017657,0.0014608386555315,-0.0014608316918301,0.0014608787852197,-0.0015524448910568,0.0015524491805497,-0.0015524325708769,0.0015524618547008,-5.1327404018077e-09,2.901674620197e-09,-0.00085864160731051,0.0008586393673359,1.8435980020583e-08,-2.1396835846824e-08,-0.0010255539605272,0.0010255624786085,-0.0010255672020458,0.0010255492684997,-0.0010255512551221,0.001025565161159,-0.0010255645205172,0.001025551933299,-0.00090009587924139,0.00090008818064535,-0.00090010371912349,0.00090008033384143,0.73340852605764,128566,2924,0.004827936060949,0.0069255485267375,0.0035758367135167,29.2902108495,-5.6783132040006e-06,-5.6783132040006e-06,-5.6783132040006e-06,3717716.3565534,0.015448573616224
32419200,0.99776666373383,0.015614899044538,0.0050188234528074,0.0065836190572838,0.0040124565344465,-0.0011616121178689,0.0011616109538472,3.3748559175345e-09,-4.5585415943004e-09,5.6376889959508e-09,-7.0381744316023e-09,-0.0013112449219356,0.001311250593359,-0.0013112475088445,0.0013112479230648,-0.0013112489352398,0.0013112463636487,-0.0013112515953529,0.0013112437332873,-0.0011122842207012,0.0011122866005119,-0.001112292055701,0.0011122788721347,-4.6072046821771e-09,8.07573597528e-09,-1.8610874114453e-08,2.1877679391794e-08,-0.0016687674817687,0.0016687707612893,-0.0018093158406438,0.0018093015727555,-0.0018093026729068,0.0018093150635454,-0.0018093117264685,0.0018093057931795,-0.0018092985909796,0.0018093192596595,-0.0014611353155856,0.0014611030549196,-0.0014610960857235,0.0014611433078652,-0.0015526910595222,0.0015526953716824,-0.0015526787205153,0.00155270806518,-5.1599057924347e-09,2.9230135208064e-09,-0.00085867007680937,0.00085866783073267,1.8475664504867e-08,-2.1443719488902e-08,-0.0010257251481592,0.0010257336729976,-0.0010257384183267,0.0010257204343469,-0.0010257224267128,0.0010257363716589,-0.0010257357205564,0.0010257231153137,-0.00090016739181537,0.00090015970658668,-0.00090017527952172,0.00090015181244355,0.75109426260881,128566,2924,0.0048283501189938,0.0069266892191303,0.0035759618761865,29.299206789573,-5.6063456834166e-06,-5.6063456834166e-06,-5.6063456834166e-06,3709664.8114664,0.01545028194752
32619200,0.99786766035376,0.015616436425284,0.0050193119045936,0.0065842750404198,0.0040128494802703,-0.0011616010704846,0.0011615999068833,3.4010235924462e-09,-4.5843950342147e-09,5.6369383344621e-09,-7.0367653583544e-09,-0.0013113400652933,0.0013113457538437,-0.0013113426693441,0.0013113430658824,-0.0013113440779566,0.0013113415246159,-0.0013113467551206,0.0013113388769171,-0.0011123786090198,0.0011123810400908,-0.0011123864955461,0.0011123732620386,-4.5967407124325e-09,8.0641801395969e-09,-1.8599876591655e-08,2.1865625274039e-08,-0.0016689669597778,0.001668970238273,-0.0018094810879949,0.0018094668345295,-0.0018094679280805,0.001809480316938,-0.0018094769811394,0.0018094710473285,-0.0018094638533137,0.0018094845056913,-0.0014613390790497,0.0014613068323056,-0.0014612998701826,0.0014613470614187,-0.0015528550703209,0.0015528593951839,-0.0015528427519853,0.0015528720664914,-5.1888951018367e-09,2.9504614482778e-09,-0.00085859470406049,0.00085859245685538,1.8488938399623e-08,-2.1458091067648e-08,-0.0010258257833678,0.0010258342978817,-0.0010258390629432,0.001025821049806,-0.0010258230432035,0.0010258370152961,-0.001025836346207,0.0010258237496902,-0.00090013631810531,0.00090012867690866,-0.00090014426119132,0.00090012072695488,0.69653887108108,128566,2924,0.0048283059716605,0.006927508104016,0.0035756571627942,29.262906477998,-5.8967481760138e-06,-5.8967481760138e-06,-5.8967481760138e-06,3699129.6306364,0.015450762269782
32819200,0.99796377807995,0.015617780416234,0.0050197370637443,0.0065848566041617,0.0040131867483277,-0.0011615514638014,0.0011615503038492,3.4294357114534e-09,-4.609147570414e-09,5.6225514484973e-09,-7.0185405560508e-09,-0.0013113149537186,0.0013113206526793,-0.0013113175756839,0.0013113179473713,-0.0013113189556863,0.0013113164345685,-0.0013113216506388,0.0013113137690314,-0.0011123618214101,0.0011123643196034,-0.0011123697593322,0.0011123564881849,-4.5858843709686e-09,8.0522686348382e-09,-1.8559720228405e-08,2.1824580582162e-08,-0.001669008786424,0.0016690120639942,-0.00180954242894,0.0018095282078709,-0.0018095292947217,0.0018095416640172,-0.0018095383292006,0.001809532413368,-0.0018095252272191,0.0018095458452087,-0.0014613371553599,0.0014613049799883,-0.0014612980262217,0.0014613451295727,-0.0015528831914598,0.0015528875111258,-0.0015528708958165,0.0015529001600329,-5.210847805511e-09,2.9838187918441e-09,-0.00085850645438367,0.00085850421817374,1.844327676729e-08,-2.1400567485987e-08,-0.001025774169306,0.0010257826415586,-0.0010257874144711,0.0010257694279835,-0.0010257714106784,0.0010257853775488,-0.0010257846793922,0.0010257721462178,-0.0009000576984137,0.00090005015745483,-0.00090006569549121,0.00090004215375959,0.64446136150716,128566,2924,0.0048281006526798,0.0069276794195971,0.0035752931238448,29.204436489259,-6.3645080859275e-06,-6.3645080859275e-06,-6.3645080859275e-06,3697521.7783627,0.015450358128388
33019200,0.99805526335651,0.015619171469936,0.0050201790341032,0.006585449370161,0.0040135430656716,-0.0011615283405104,0.0011615271839433,3.4583683909953e-09,-4.6346862007169e-09,5.6098128444194e-09,-7.001769734682e-09,-0.0013112330342776,0.0013112387447176,-0.0013112356745216,0.0013112360214844,-0.0013112370265687,0.0013112345364852,-0.0013112397397434,0.0013112318528156,-0.0011122954067775,0.0011122979714963,-0.0011123033981596,0.0011122900866782,-4.5732378935451e-09,8.0382639557891e-09,-1.8497889258769e-08,2.176151757387e-08,-0.0016689508940853,0.0016689541704342,-0.0018095549036592,0.0018095407314293,-0.0018095418098875,0.0018095541456417,-0.0018095508125202,0.001809544927924,-0.0018095377510686,0.0018095583177939,-0.0014611939701824,0.0014611619075796,-0.0014611549624684,0.0014612019329713,-0.0015528333325585,0.0015528376359913,-0.0015528210622749,0.0015528502574798,-5.2318838488081e-09,3.016794039659e-09,-0.00085846292397625,0.00085846069983302,1.8383981093909e-08,-2.1327737241314e-08,-0.0010256294847784,0.0010256379068274,-0.0010256426860808,0.0010256247371196,-0.0010256267081487,0.0010256406609092,-0.0010256399330616,0.0010256274733579,-0.00089999410902589,0.00089998667655494,-0.0009000021590191,0.00089997862018572,0.69524135950858,128566,2924,0.0048280040059032,0.0069274430578184,0.0035751087051508,29.145423945294,-6.8366084376447e-06,-6.8366084376447e-06,-6.8366084376447e-06,3704239.4410146,0.015449830049253
33219200,0.99814235237418,0.015620565976623,0.0050206231508603,0.0065860388267287,0.0040139039990337,-0.0011614967385212,0.0011614955843625,3.4866852421592e-09,-4.6606586814986e-09,5.5988307697323e-09,-6.9884841263129e-09,-0.0013112171796969,0.001311222902739,-0.0013112198382911,0.001311220161667,-0.0013112211641098,0.0013112187026477,-0.0013112238954028,0.0013112160009495,-0.0011122819757204,0.0011122846039655,-0.0011122900206179,0.0011122766663622,-4.561456853389e-09,8.025349833542e-09,-1.8426785948809e-08,2.1689416840321e-08,-0.0016689833059181,0.0016689865812324,-0.0018096055190544,0.0018095914010301,-0.0018095924715633,0.0018096047672602,-0.0018096014359663,0.0018095955893002,-0.0018095884207732,0.0018096089312004,-0.0014611925528564,0.0014611606217108,-0.0014611536834497,0.0014612005041493,-0.0015528520218243,0.0015528563011066,-0.0015528397764054,0.0015528688988548,-5.2528806142794e-09,3.0499826946512e-09,-0.00085839633643308,0.00085839412477694,1.8320480049381e-08,-2.1249874439185e-08,-0.0010255902107019,0.0010255985798421,-0.0010256033651339,0.0010255854570157,-0.0010255874160516,0.0010256013519985,-0.0010256005940483,0.0010255882113302,-0.00089993607678084,0.00089992875615016,-0.00089994417968691,0.00089992064653648,0.72922791271784,128566,2924,0.004827873475507,0.0069275761487608,0.0035748336695268,29.086391131169,-7.3088709506512e-06,-7.3088709506512e-06,-7.3088709506512e-06,3702064.0388391,0.015449553559507
33419200,0.99822661075844,0.015621942381145,0.0050210618736638,0.0065866189623044,0.0040142615451766,-0.0011619830232471,0.001161981876112,3.5125309575242e-09,-4.6792034445256e-09,5.5878102730682e-09,-6.9710110155162e-09,-0.001311778697678,0.0013117844326884,-0.0013117813714055,0.0013117816781444,-0.001311782672423,0.001311780242762,-0.001311785419301,0.0013117775262815,-0.0011128388352615,0.001112841525788,-0.0011128469265753,0.0011128335450548,-4.56986684794e-09,8.0345929372892e-09,-1.8295115493956e-08,2.155858348672e-08,-0.0016696343882034,0.0016696376642818,-0.0018102415151542,0.0018102274778469,-0.001810228551936,0.001810240756683,-0.0018102374259836,0.0018102316726001,-0.001810224495927,0.0018102449262086,-0.0014618273306294,0.0014617956656447,-0.0014617887151358,0.0014618352833775,-0.0015534752856761,0.0015534794629681,-0.0015534630262345,0.0015534920789315,-5.269729966876e-09,3.0972952262201e-09,-0.00085879981293698,0.00085879763256404,1.8157584981566e-08,-2.1050513390284e-08,-0.0010261252726438,0.0010261335297302,-0.0010261383064148,0.0010261205275639,-0.001026122456114,0.0010261363237348,-0.0010261355143614,0.0010261233028812,-0.00090038761955185,0.0009003805103942,-0.00090039578460963,0.00090037233967626,0.74278653086716,128566,2924,0.0048298908447097,0.0069302651789219,0.0035765158592603,29.311848710442,-5.5052103164606e-06,-5.5052103164606e-06,-5.5052103164606e-06,3699043.6532721,0.015456043153317
33619200,0.9983084293673,0.015623279397321,0.0050214880172074,0.0065871826782103,0.0040146087019035,-0.001162606344237,0.001162605196361,3.5447324930504e-09,-4.7121908940081e-09,5.5945468313463e-09,-6.9785019630847e-09,-0.0013124994461332,0.0013125052074081,-0.0013125021423103,0.0013125024308641,-0.001312503426252,0.0013125010124411,-0.0013125061943897,0.001312498274499,-0.001113559973403,0.0011135627204225,-0.0011135681262899,0.0011135546761483,-4.5530454297639e-09,8.0161569699071e-09,-1.8139578068518e-08,2.1401565206579e-08,-0.0016704554025258,0.0016704586771281,-0.0018110352933669,0.0018110213712541,-0.0018110224328007,0.0018110345434893,-0.0018110312164542,0.0018110255533141,-0.0018110183880905,0.001811038701127,-0.0014626349591094,0.0014626035873212,-0.0014625966464813,0.0014626428945106,-0.0015542679873829,0.0015542720930154,-0.0015542557612199,0.0015542846744885,-5.2836295412774e-09,3.1266765530512e-09,-0.00085931716296005,0.00085931499847019,1.8065788328097e-08,-2.0940479488452e-08,-0.0010268126207618,0.0010268208123874,-0.0010268255883248,0.0010268078763368,-0.0010268097901622,0.0010268236202089,-0.0010268227814577,0.0010268106664252,-0.0009009644858897,0.00090095750188314,-0.00090097269454572,0.00090094928766341,0.74303042697938,128566,2924,0.0048324765226474,0.0069336558013225,0.0035786728745942,29.613604950628,-3.0911603949777e-06,-3.0911603949777e-06,-3.0911603949777e-06,3695605.7376859,0.015464305157426
33819200,0.99838781856351,0.015624580867174,0.0050219028889086,0.0065877312817975,0.0040149466964675,-0.0011632228769984,0.0011632217335425,3.5637747762666e-09,-4.7269869967382e-09,5.5773745250735e-09,-6.9560921014553e-09,-0.0013132137178226,0.00131321948075,-0.0013132164252003,0.0013132166942561,-0.0013132176843301,0.0013132152997237,-0.0013132204645322,0.0013132125503137,-0.001114279534369,0.0011142823337128,-0.0011142877232788,0.0011142742556588,-4.5673268513587e-09,8.0318442987876e-09,-1.8110655678077e-08,2.1373880092576e-08,-0.0016712747688187,0.0016712780446901,-0.0018118280214501,0.0018118141070096,-0.0018118151772697,0.0018118272622726,-0.0018118239338711,0.0018118183001059,-0.0018118111231872,0.0018118314298236,-0.0014634361398461,0.0014634048364603,-0.0014633978843636,0.0014634440872434,-0.0015550618621904,0.0015550659232813,-0.0015550496074795,0.0015550785320386,-5.3117958494153e-09,3.1732064359693e-09,-0.0008598273909308,0.00085982524508152,1.7964522702075e-08,-2.0818461130304e-08,-0.001027492151268,0.0010275002608401,-0.0010275050438027,0.0010274873998495,-0.0010274892953053,0.0010275030944805,-0.0010275022126789,0.0010274902144812,-0.00090153504941638,0.00090152822995559,-0.00090154332867748,0.00090151994361571,0.7451776937602,128566,2924,0.0048350339302163,0.0069370393737759,0.003580800640249,29.91726930773,-6.6184553815884e-07,-6.6184553815884e-07,-6.6184553815884e-07,3692659.1602444,0.0154725014752
34019200,0.99846478268606,0.015625804049411,0.0050222922398084,0.00658824954718,0.0040152622624226,-0.0011638298908407,0.0011638287435915,3.6011049910821e-09,-4.768150120009e-09,5.5942624491425e-09,-6.9771322413405e-09,-0.0013139188143189,0.0013139246132401,-0.0013139215483282,0.0013139217992657,-0.0013139227940282,0.0013139204186605,-0.0013139255997033,0.0013139176435291,-0.0011149923305145,0.001114995187383,-0.0011150005928162,0.0011149870331984,-4.5489608427217e-09,8.0115848764638e-09,-1.8033235681146e-08,2.1294743707785e-08,-0.0016720883370305,0.0016720916111954,-0.0018126147399766,0.001812600892041,-0.0018126019494012,0.0018126139914206,-0.0018126106662777,0.0018126050706706,-0.0018125979077307,0.0018126181460248,-0.0014642308733249,0.0014641997078491,-0.001464192768708,0.0014642388034997,-0.0015558509626727,0.0015558550055328,-0.0015558387440475,0.0015558675773611,-5.3291971427994e-09,3.1857766532197e-09,-0.00086032823967259,0.00086032608914987,1.797640293123e-08,-2.0835254906831e-08,-0.0010281621513876,0.0010281702572483,-0.0010281750547139,0.0010281573853073,-0.0010281592860642,0.0010281730998006,-0.0010281722129496,0.0010281602104357,-0.00090209526922839,0.00090208846573144,-0.00090210357977993,0.00090208014811564,0.72426545416071,128566,2924,0.0048375518181156,0.0069403988330856,0.0035828894853017,30.221005266796,1.7680421343653e-06,1.7680421343653e-06,1.7680421343653e-06,3690006.8134205,0.015480593624063
34219200,0.99854061649067,0.01562697615055,0.0050226648448879,0.0065887483999903,0.0040155629056715,-0.0011650229012866,0.0011650217446312,3.6592038838074e-09,-4.8346987583309e-09,5.6380965751062e-09,-7.0342864607301e-09,-0.0013151899091867,0.0013151957785698,-0.0013151926887644,0.0013151929187933,-0.0013151939266027,0.0013151915463836,-0.0013151967685724,0.0013151887329953,-0.0011162730274438,0.0011162759553732,-0.001116281398365,0.0011162676888756,-4.4806052151745e-09,7.9352966414287e-09,-1.781982635336e-08,2.1074129158114e-08,-0.0016734662969123,0.0016734695638426,-0.0018139870614393,0.0018139733988687,-0.0018139744124279,0.0018139863490655,-0.0018139830375857,0.0018139775245644,-0.0018139704134789,0.001813990460352,-0.0014655520997482,0.0014655212910436,-0.0014655143922237,0.0014655599603913,-0.0015572133129194,0.0015572173332625,-0.0015572012280288,0.0015572297803773,-5.328999092585e-09,3.1699120593597e-09,-0.00086136733612476,0.00086136517108037,1.8034056795973e-08,-2.0906006882188e-08,-0.0010293420464191,0.0010293501895778,-0.0010293549964769,0.0010293372708483,-0.0010293391900532,0.0010293530220821,-0.0010293521546382,0.0010293400938026,-0.00090320356225259,0.00090319669441458,-0.00090321187399842,0.00090318838421869,0.70594348955029,128566,2924,0.0048424985690739,0.0069460941193333,0.0035872132487066,30.832526406907,6.6602112552603e-06,6.6602112552603e-06,6.6602112552603e-06,3695332.1881107,0.015495793159804
34419200,0.99861532504326,0.015628135675419,0.0050230335656828,0.0065892416485642,0.0040158604611718,-0.0011662856257418,0.0011662844842115,3.6555360556438e-09,-4.8166485651554e-09,5.5783662251086e-09,-6.9555683376324e-09,-0.0013165084495785,0.0013165142754367,-0.0013165112189897,0.001316511429611,-0.001316512418176,0.0013165100948875,-0.0013165152569145,0.0013165072847285,-0.0011175992703425,0.0011176022501444,-0.0011176076372094,0.0011175939970517,-4.5321025482016e-09,7.992963698975e-09,-1.7948841367746e-08,2.1208800966042e-08,-0.0016748778871309,0.0016748811597495,-0.001815412731638,0.0018153989363139,-0.0018153999853539,0.0018154119894084,-0.0018154086660265,0.0018154031063332,-0.001815395952719,0.0018154161346378,-0.0014668876299875,0.0014668566115217,-0.0014668496813014,0.0014668955447924,-0.0015586151815914,0.0015586192006819,-0.0015586029948164,0.0015586317412035,-5.380408033294e-09,3.2491152125151e-09,-0.00086247129974167,0.00086246916197131,1.7897837942454e-08,-2.0741395326452e-08,-0.001030548757903,0.0010305567779634,-0.0010305616027315,0.0010305439657901,-0.0010305458544454,0.0010305596597373,-0.0010305587218417,0.0010305468286586,-0.00090436779525048,0.00090436117436796,-0.0009043762205756,0.00090435274648036,0.7086795874945,128566,2924,0.0048477338843832,0.0069519299531576,0.0035918048758948,31.476355106193,1.1810840849548e-05,1.1810840849548e-05,1.1810840849548e-05,3703948.240112,0.015511699900983
34619200,0.99868877335244,0.015629323683582,0.0050234121205818,0.006589743841816,0.004016167721184,-0.0011675539972667,0.0011675528469796,3.7170328275515e-09,-4.8870627116258e-09,5.6196574442564e-09,-7.0067480850086e-09,-0.0013178359602754,0.001317841856767,-0.0013178387766052,0.0013178389607736,-0.0013178399629145,0.0013178376406504,-0.0013178428412396,0.0013178347902303,-0.0011189332980075,0.0011189363533032,-0.0011189417784927,0.0011189279808366,-4.4838045302024e-09,7.9398596296796e-09,-1.7867932872269e-08,2.1123501870812e-08,-0.001676296773637,0.0016763000418379,-0.001816843508015,0.0018168298082453,-0.0018168308252579,0.0018168427950838,-0.0018168394813935,0.0018168339380791,-0.001816826822556,0.0018168469089657,-0.0014682318756215,0.0014682009729023,-0.0014681940790414,0.0014682397486939,-0.0015600230595207,0.001560027106757,-0.0015600109615693,0.0015600395570734,-5.3820121549399e-09,3.2241974401974e-09,-0.00086357569983629,0.0008635735353723,1.802761648075e-08,-2.0901006781728e-08,-0.0010317625522289,0.0010317706554,-0.0010317754978661,0.0010317577417382,-0.0010317596603563,0.0010317735243701,-0.0010317726206231,0.0010317606008447,-0.00090553506834454,0.00090552831400814,-0.00090554348191718,0.00090551989629661,0.7361373895622,128566,2924,0.0048529925741506,0.0069577957548589,0.003596398469253,32.121052632936,1.6968421063485e-05,1.6968421063485e-05,1.6968421063485e-05,3711876.2051364,0.015527663261098
34819200,0.99876195676477,0.015630517895952,0.0050237928331288,0.0065902482815637,0.0040164767812599,-0.0011693550638172,0.0011693539275985,3.7019014990679e-09,-4.8573653973732e-09,5.5605071373441e-09,-6.9334757644277e-09,-0.0013197471402085,0.0013197529861867,-0.0013197499376842,0.0013197501132938,-0.0013197510953266,0.0013197488204563,-0.0013197539633315,0.0013197459802706,-0.0011208462534745,0.0011208493420847,-0.0011208547097133,0.0011208410006961,-4.5317711270322e-09,7.9923856521045e-09,-1.7984596043289e-08,2.1244546748209e-08,-0.001678327846239,0.0016783311189198,-0.0018188602426617,0.0018188464244119,-0.0018188474720964,0.0018188595016192,-0.0018188561769651,0.0018188505951956,-0.0018188434417336,0.0018188636456042,-0.0014701951884876,0.001470164102757,-0.0014701571718201,0.0014702031011764,-0.0015620325131646,0.0015620365570998,-0.0015620203320479,0.0015620490964815,-5.4452876511339e-09,3.3148114853966e-09,-0.00086515070265111,0.00086514856607318,1.7888917015365e-08,-2.072940242288e-08,-0.0010335387488694,0.001033546718291,-0.0010335515862919,0.0010335339142168,-0.0010335358009499,0.0010335496452935,-0.0010335486627593,0.0010335368200478,-0.0009072096365244,0.00090720314760858,-0.00090721818609247,0.00090719459576422,0.74236047569524,128566,2924,0.0048604603020224,0.0069661909592907,0.0036029511920179,33.051728062716,2.4413824501727e-05,2.4413824501727e-05,2.4413824501727e-05,3719460.7944929,0.015550430435139
35019200,0.99883502749069,0.015631673165578,0.0050241606466791,0.0065907390969578,0.004016773421941,-0.001171337075875,0.0011713359370732,3.754066112313e-09,-4.9121928487074e-09,5.5756874177771e-09,-6.9514681091857e-09,-0.001321859031015,0.001321864924278,-0.0013218618658995,0.0013218620109842,-0.0013218629980911,0.0013218607436379,-0.0013218659008859,0.0013218578706651,-0.001122957321178,0.0011229604905288,-0.0011229658731985,0.0011229520519261,-4.506183415131e-09,7.9645269025231e-09,-1.7932942090105e-08,2.1190679414878e-08,-0.0016805728203193,0.0016805760905939,-0.0018210860567804,0.0018210722988379,-0.0018210733299725,0.0018210853318785,-0.0018210820129192,0.0018210764472405,-0.0018210693152453,0.0018210894585249,-0.0014723670860666,0.0014723360804409,-0.0014723291679309,0.0014723749759391,-0.0015642526674357,0.001564256722472,-0.0015642405342436,0.0015642692135663,-5.4509987128413e-09,3.3104802458532e-09,-0.00086688269014526,0.00086688054326703,1.7934859024133e-08,-2.0787236478172e-08,-0.0010355041456104,0.0010355121429357,-0.0010355170203781,0.0010354993000299,-0.001035501199219,0.001035515066601,-0.0010355140945152,0.0010355022084886,-0.00090905348754327,0.00090904696212281,-0.00090906204517875,0.00090903840051871,0.72136488425981,128566,2924,0.0048686781363928,0.0069754697092487,0.0036101576578875,34.083777275081,3.2670218200651e-05,3.2670218200651e-05,3.2670218200651e-05,3727593.1008212,0.015575521641345
35219200,0.99890770624574,0.015632788560822,0.0050245153359015,0.0065912155290627,0.0040170576958574,-0.0011733243332502,0.0011733231929171,3.7896393336638e-09,-4.9495982795383e-09,5.5817626760626e-09,-6.958042103884e-09,-0.0013239503520034,0.001323956272518,-0.0013239532116758,0.0013239533342143,-0.0013239543241628,0.0013239520871612,-0.0013239572498274,0.0013239491900986,-0.0011250505325897,0.0011250537652465,-0.0011250591526902,0.0011250452556246,-4.5032450389552e-09,7.9611444061502e-09,-1.7957938605891e-08,2.1215197068822e-08,-0.001682786633465,0.0016827899033151,-0.0018233020930978,0.0018232883187343,-0.0018232893488047,0.0018233013693445,-0.0018232980510519,0.0018232924645654,-0.0018232853351506,0.0018233054951168,-0.0014744843390172,0.0014744532787133,-0.0014744463720101,0.001474492230133,-0.0015664494501883,0.0015664535251473,-0.001566437318331,0.0015664660105702,-5.4737485692036e-09,3.3233825385803e-09,-0.00086862107580132,0.0008686189187524,1.7979767557914e-08,-2.0844582149728e-08,-0.0010374306930975,0.0010374387031024,-0.0010374436021055,0.0010374258260094,-0.0010374277357227,0.00103744163805,-0.0010374406635828,0.0010374287470593,-0.0009108946640633,0.00091088813279617,-0.00091090325870626,0.00091087953368908,0.70214229421546,128566,2924,0.0048769171045865,0.0069846209133707,0.0036173889857637,35.118341300807,4.0946730406454e-05,4.0946730406454e-05,4.0946730406454e-05,3738958.4750028,0.015600529580476
35419200,0.99897885475439,0.015633845202909,0.0050248508689038,0.0065916695919766,0.0040173247420286,-0.0011748962104543,0.001174895063133,3.7884266886578e-09,-4.9556823521134e-09,5.5980766377117e-09,-6.9805617232781e-09,-0.0013255921766236,0.0013255981024663,-0.0013255950356905,0.0013255951640814,-0.0013255961596664,0.0013255939057557,-0.0013255990882378,0.0013255910054621,-0.0011266932180713,0.0011266964396033,-0.0011267018469095,0.0011266879197104,-4.5334279090657e-09,7.99382207087e-09,-1.8117810000635e-08,2.1377192244568e-08,-0.0016845245568107,0.0016845278289071,-0.0018250617158862,0.0018250478139078,-0.0018250488648303,0.0018250609752622,-0.0018250576512984,0.0018250519826838,-0.00182504483213,0.0018250651206628,-0.0014761184791883,0.0014760871297805,-0.0014760802055419,0.0014761263995206,-0.0015681780812624,0.0015681822083624,-0.0015681658894096,0.0015681947489677,-5.5366853370267e-09,3.3643613259725e-09,-0.0008699828522402,0.00086998067266137,1.8087628023497e-08,-2.0979412691422e-08,-0.0010389159694201,0.001038924001808,-0.0010389289570127,0.0010389110460729,-0.0010389129756731,0.0010389269734315,-0.0010389259852895,0.0010389140003498,-0.00091233347968404,0.00091232694472801,-0.00091234217055719,0.00091231824751062,0.68162297642594,128566,2924,0.0048834334732033,0.0069918056306528,0.0036230529912605,35.930427123399,4.7443416987189e-05,4.7443416987189e-05,4.7443416987189e-05,3749807.8846352,0.015620198341866
35619200,0.99904766789111,0.015634826863145,0.005025162012679,0.0065920944903795,0.0040175703600859,-0.0011761575440314,0.0011761563873545,3.8115101193682e-09,-4.9879840025831e-09,5.6170708054603e-09,-7.0095727273648e-09,-0.0013268844790117,0.00132689042982,-0.0013268873557928,0.0013268874726525,-0.0013268884771932,0.0013268862172674,-0.0013268914251958,0.0013268832982204,-0.0011279876026731,0.0011279908545477,-0.0011279962877339,0.0011279822801392,-4.5764795101042e-09,8.0411973648226e-09,-1.831164136175e-08,2.1574954821352e-08,-0.0016858873916838,0.0016858906677663,-0.0018264667348497,0.0018264526790508,-0.0018264537583539,0.0018264659715679,-0.0018264626410415,0.0018264568785601,-0.0018264496966607,0.0018264701465093,-0.0014773692202957,0.0014773375221493,-0.0014773305700361,0.0014773771799202,-0.001569537991102,0.0015695421640738,-0.0015695257129569,0.0015695547933686,-5.5751499774584e-09,3.3791498001029e-09,-0.00087106775702171,0.00087106555306804,1.8220682033112e-08,-2.1140304794681e-08,-0.0010400571047042,0.0010400651932876,-0.0010400701895698,0.0010400521403841,-0.0010400540927782,0.0010400681829296,-0.0010400672007963,0.0010400551119513,-0.00091347143453028,0.00091346482961872,-0.00091348017633964,0.00091345608177052,0.65729899358394,128566,2924,0.0048886619377139,0.0069974410576341,0.0036275637941928,36.574733931806,5.2597871454448e-05,5.2597871454448e-05,5.2597871454448e-05,3761100.3399389,0.015635813434103
35819200,0.99911403284406,0.015635835317007,0.005025482739577,0.0065925261726256,0.0040178264048045,-0.0011774323205671,0.0011774311554528,3.8380244556308e-09,-5.0227164218533e-09,5.6384259057347e-09,-7.0403565654102e-09,-0.0013281487156496,0.0013281546963023,-0.0013281516125027,0.001328151717715,-0.0013281527310056,0.001328150465797,-0.0013281556991269,0.0013281475265855,-0.0011292573169722,0.0011292606029224,-0.0011292660604223,0.0011292519681511,-4.5962659164666e-09,8.0630201157407e-09,-1.8423412173934e-08,2.1688531706891e-08,-0.0016871952655983,0.0016871985434353,-0.0018278399998995,0.0018278258599563,-0.0018278269521722,0.0018278392261526,-0.0018278358931931,0.001827830072637,-0.0018278228772193,0.0018278434151883,-0.0014785443644302,0.0014785124605987,-0.0014785054955546,0.0014785523417462,-0.0015708541658469,0.0015708583733799,-0.0015708418481973,0.0015708710460218,-5.6092567717692e-09,3.392456492366e-09,-0.00087216682365032,0.00087216459844062,1.8334224119244e-08,-2.1277705286886e-08,-0.0010411487122223,0.0010411568482678,-0.0010411618806347,0.0010411437116361,-0.0010411456847003,0.0010411598531746,-0.0010411588758557,0.0010411466992299,-0.00091461120495868,0.00091460454267563,-0.00091461999388904,0.00091459574817477,0.69619235322692,128566,2924,0.0048939455725233,0.0070028514548312,0.0036321305266208,37.21494745528,5.7719579642239e-05,5.7719579642239e-05,5.7719579642239e-05,3775520.6409636,0.015651311881269
36019200,0.99917786419467,0.015636865324557,0.0050258113041962,0.0065929630243919,0.0040180909959689,-0.0011787008048011,0.0011786996351398,3.8625285072952e-09,-5.0516327505705e-09,5.6499433690698e-09,-7.0566812233502e-09,-0.0013294661580156,0.0013294721611242,-0.0013294690723363,0.0013294691644128,-0.0013294701824363,0.0013294679212549,-0.0013294731682056,0.0013294649642092,-0.0011305718237175,0.0011305751484205,-0.0011305806190119,0.0011305664610844,-4.6092498474046e-09,8.07715504834e-09,-1.8500565681653e-08,2.1766703484797e-08,-0.0016885756117698,0.0016885788906421,-0.0018292449470883,0.0018292307480809,-0.0018292318491899,0.0018292441663481,-0.0018292408315654,0.0018292349698323,-0.0018292277653972,0.0018292483644985,-0.0014798326664763,0.0014798006199931,-0.0014797936469972,0.0014798406558406,-0.0015722251327988,0.0015722293659341,-0.0015722127886285,0.0015722420656902,-5.6429517982199e-09,3.4140182852774e-09,-0.00087324472207718,0.00087324248437248,1.8405724593336e-08,-2.1363620650741e-08,-0.0010423218275705,0.0010423299854107,-0.0010423350481581,0.0010423167965754,-0.00104231878158,0.0010423330087048,-0.0010423320248818,0.0010423198026322,-0.00091575345685841,0.00091574678477228,-0.00091576230034739,0.00091573793634823,0.73586310073794,128566,2924,0.0048992041716913,0.0070085582052893,0.0036366135330719,37.855007272892,6.2840058183133e-05,6.2840058183133e-05,6.2840058183133e-05,3782787.1299052,0.015667003444126
36219200,0.99923701355757,0.015637787888837,0.0050261051656259,0.0065933567662169,0.0040183259569942,-0.0011786741370561,0.0011786729622796,3.8785521797094e-09,-5.0729927560406e-09,5.6570998960806e-09,-7.0685996790731e-09,-0.0013295246148557,0.0013295306307005,-0.0013295275402287,0.0013295276219164,-0.0013295286444458,0.0013295263849834,-0.001329531643441,0.0013295234151288,-0.0011306250556189,0.001130628406626,-0.0011306338889571,0.0011306196807671,-4.6547804980627e-09,8.1268277064038e-09,-1.8733079871445e-08,2.2003299680122e-08,-0.0016887036191444,0.0016887069019741,-0.0018293568448176,0.0018293424630442,-0.0018293435949328,0.0018293560398586,-0.0018293526978458,0.0018293467177383,-0.0018293394807377,0.0018293602690995,-0.0014799459929063,0.0014799135242766,-0.0014799065224042,0.0014799540257846,-0.0015723252802498,0.0015723295811972,-0.0015723128435098,0.0015723423713719,-5.6901606913663e-09,3.4379446951577e-09,-0.00087314064991632,0.00087313838788343,1.8549134704403e-08,-2.1536165766225e-08,-0.0010423596704612,0.0010423678853324,-0.0010423729949691,0.0010423545925592,-0.0010423565999588,0.0010423709333664,-0.0010423699487246,0.0010423576219833,-0.00091568934794482,0.00091568261735821,-0.00091569825815834,0.00091567369979755,0.71361055361116,128566,2924,0.0048990945480697,0.0070090825064356,0.003636188604503,37.827190857779,6.2617526862232e-05,6.2617526862232e-05,6.2617526862232e-05,3774169.899551,0.015666995447662
36419200,0.99929097422445,0.015638617870902,0.0050263693604722,0.0065937116546417,0.0040185368557877,-0.0011780811306297,0.0011780799553978,3.9091941156377e-09,-5.1039595916984e-09,5.6640836505516e-09,-7.0764620392951e-09,-0.0013289597675959,0.001328965809046,-0.0013289627130377,0.0013289627784369,-0.0013289638019237,0.0013289615575953,-0.001328966821461,0.0013289585672517,-0.0011300751995641,0.0011300786046521,-0.0011300840918129,0.0011300698179207,-4.649943511594e-09,8.1216551613627e-09,-1.8860763053047e-08,2.2130276070551e-08,-0.0016881691837734,0.0016881724660782,-0.0018288256793129,0.0018288112200106,-0.0018288123498237,0.00182882487932,-0.0018288215365124,0.0018288154702486,-0.001828808239507,0.001828829104797,-0.0014793907032044,0.0014793579806995,-0.001479350986721,0.0014793987344666,-0.0015717795213963,0.0015717839157936,-0.0015717670956498,0.0015717966968995,-5.7248318817661e-09,3.4500643508867e-09,-0.00087252553464376,0.00087252324953225,1.868067088971e-08,-2.1694017811878e-08,-0.0010417898172646,0.0010417980913617,-0.0010418032382714,0.0010417847017466,-0.0010417867312761,0.0010418011543898,-0.0010418001764857,0.0010417877469007,-0.00091507980220168,0.00091507299896144,-0.00091508875867002,0.0009150640353622,0.70434020223946,128566,2924,0.0048966365391046,0.0070068694777163,0.0036336369051375,37.496303970365,5.9970431762918e-05,5.9970431762918e-05,5.9970431762918e-05,3764877.3904842,0.015659660005396
36619200,0.99934024384226,0.015639331664676,0.0050265958992749,0.0065940198144465,0.0040187159509551,-0.0011774766801165,0.0011774755058541,3.9399041642278e-09,-5.1336420345277e-09,5.6589846597524e-09,-7.0704512269213e-09,-0.0013283594208115,0.0013283654801264,-0.0013283623866297,0.0013283624287069,-0.0013283634519173,0.0013283612319139,-0.0013283664908779,0.0013283582215958,-0.0011294929060361,0.0011294963740657,-0.0011295018557031,0.0011294875286296,-4.6256821216452e-09,8.0949600471154e-09,-1.8840842142852e-08,2.2108194880528e-08,-0.0016875840877145,0.0016875873678156,-0.0018282529141268,0.0018282384837675,-0.001828239598686,0.0018282521283154,-0.0018282487881505,0.0018282427164271,-0.0018282355044939,0.0018282563372714,-0.0014787816462735,0.0014787489447317,-0.0014787419688518,0.0014787896575635,-0.0015711885381297,0.0015711929648511,-0.0015711761614233,0.0015712056971914,-5.7507171826846e-09,3.4722269530458e-09,-0.00087191060736497,0.00087190831853962,1.8706889374871e-08,-2.172434927196e-08,-0.0010411814113376,0.0010411896852152,-0.0010411948515446,0.0010411762763958,-0.0010411783098178,0.0010411927637529,-0.0010411917732303,0.0010411793378665,-0.00091445972007088,0.00091445294211322,-0.00091446872528702,0.00091444393084312,0.66675281126917,128566,2924,0.0048941309164722,0.0070044483149898,0.0036310839899943,37.15792275598,5.7263382047842e-05,5.7263382047842e-05,5.7263382047842e-05,3757485.8882068,0.015652062946818
36819200,0.99938528639959,0.015639966025702,0.0050267969502849,0.0065942947903188,0.0040188742850987,-0.0011768853855864,0.0011768842162297,3.9693414493949e-09,-5.158218871859e-09,5.6392219937879e-09,-7.0452902407486e-09,-0.0013277130733243,0.0013277191404035,-0.0013277160573038,0.0013277160713996,-0.0013277170896247,0.0013277149073647,-0.0013277201467538,0.0013277118790078,-0.0011288661420397,0.0011288696833126,-0.0011288751459444,0.0011288607854949,-4.606302421917e-09,8.0737798073925e-09,-1.877919056856e-08,2.2044949022234e-08,-0.0016869209490012,0.001686924227481,-0.0018276392185824,0.0018276248398593,-0.0018276259426597,0.001827638443643,-0.0018276351053581,0.0018276290593413,-0.0018276218614451,0.0018276426391432,-0.0014780651695226,0.00147803257508,-0.0014780256125857,0.0014780731644646,-0.0015705344090763,0.001570538832916,-0.0015705220718509,0.001570551524882,-5.7713720284782e-09,3.5060160176481e-09,-0.00087132801962508,0.00087132574413876,1.8642576446704e-08,-2.1645039535811e-08,-0.001040504945656,0.0010405131663783,-0.0010405183380084,0.0010404998056127,-0.0010405018259955,0.001040516263315,-0.0010405152415886,0.0010405028850889,-0.00091384645227127,0.00091383978798353,-0.00091385551064351,0.00091383072382773,0.64957833981566,128566,2924,0.0048916789874268,0.0070017079558517,0.0036286607840123,36.819259224348,5.4554073794784e-05,5.4554073794784e-05,5.4554073794784e-05,3756403.0856886,0.01564432601549
37019200,0.99942768942225,0.015640603982172,0.0050269998415231,0.0065945679319209,0.0040190362087278,-0.0011772983325904,0.0011772971605603,3.9997242468168e-09,-5.1909288879834e-09,5.6471556554623e-09,-7.0570871849483e-09,-0.0013280694476119,0.0013280755399398,-0.0013280724539676,0.0013280724511905,-0.0013280734710104,0.0013280713006355,-0.0013280765494335,0.0013280682519254,-0.0011292318590601,0.0011292354529976,-0.0011292409265819,0.0011292264967739,-4.6247318209704e-09,8.0939856795287e-09,-1.8470208025235e-08,2.1737630770478e-08,-0.0016872876010409,0.0016872908811627,-0.0018280719267691,0.0018280577401672,-0.0018280588504253,0.0018280711371613,-0.0018280678014224,0.0018280619726406,-0.0018280547565905,0.0018280753456509,-0.001478340322909,0.0014783083481499,-0.0014783013607876,0.0014783483220513,-0.0015709098800017,0.0015709140629709,-0.0015708975064431,0.0015709267957222,-5.766099609444e-09,3.5571184507065e-09,-0.0008716931937277,0.00087169097608261,1.8344265487428e-08,-2.1279949898954e-08,-0.0010407806259562,0.0010407886672628,-0.0010407937985959,0.001040775526206,-0.0010407774910002,0.00104079177933,-0.0010407906866945,0.001040778621111,-0.00091420995574689,0.00091420361214204,-0.00091421906091715,0.00091419450324228,0.68961815865866,128566,2924,0.0048933899986651,0.0070032276379587,0.003630174790267,37.016215389174,5.6129723113391e-05,5.6129723113391e-05,5.6129723113391e-05,3766035.3170131,0.015649142756592
37219200,0.9994678472137,0.015641250153714,0.0050272059774954,0.0065948417038598,0.0040192024723592,-0.0011779430317414,0.0011779418551501,4.0223535022439e-09,-5.2181902417061e-09,5.6641346447107e-09,-7.0788081589169e-09,-0.0013287343848856,0.0013287405021994,-0.0013287374086404,0.0013287373972733,-0.0013287384210875,0.0013287362506995,-0.0013287415164262,0.0013287331844328,-0.0011298909327039,0.0011298945608711,-0.0011299000498535,0.001129885551394,-4.6205169567316e-09,8.0895778257739e-09,-1.8136852477018e-08,2.1404081743701e-08,-0.0016879962237712,0.0016879995035066,-0.0018288052951345,0.0018287913295674,-0.001828792432863,0.0018288045028063,-0.0018288011717068,0.0018287955587882,-0.0018287883425092,0.0018288087087075,-0.0014789931529196,0.00147896182975,-0.001478954838226,0.0014790011410879,-0.0015716050055994,0.0015716089767189,-0.0015715926434225,0.0015716217024825,-5.7733423011792e-09,3.6088937017747e-09,-0.00087225955463963,0.00087225738234091,1.8097868612478e-08,-2.0981350315383e-08,-0.0010413872854453,0.0010413951694719,-0.001041400276661,0.0010413822096022,-0.0010413841308652,0.0010413983010005,-0.0010413971455655,0.0010413853235192,-0.00091480991663089,0.00091480385205728,-0.00091481907654846,0.00091479468746284,0.73362543444957,128566,2924,0.004896062862904,0.0070061576791257,0.0036325298431686,37.342988719429,5.8743909755436e-05,5.8743909755436e-05,5.8743909755436e-05,3770317.1605377,0.015657225861482
37419200,0.99950583440284,0.015641818537026,0.0050273866507661,0.006595085568584,0.0040193463176755,-0.0011785722829994,0.0011785711122337,4.0506611280242e-09,-5.2408069364209e-09,5.6470539368601e-09,-7.0551058684762e-09,-0.0013294524124523,0.0013294585387758,-0.0013294554542089,0.0013294554181249,-0.0013294564356567,0.0013294543009891,-0.0013294595481502,0.0013294512188522,-0.0011305959754591,0.0011305996704667,-0.0011306051427201,0.0011305906151902,-4.6297320953331e-09,8.0994197324045e-09,-1.7970140783064e-08,2.1237858881519e-08,-0.0016887884905668,0.0016887917709943,-0.0018295776306909,0.0018295637690901,-0.0018295648766055,0.0018295768315722,-0.0018295735015762,0.0018295680050883,-0.001829560779392,0.0018295810437787,-0.0014797726891356,0.0014797417002242,-0.001479734696775,0.0014797806801254,-0.0015723652114841,0.0015723690542567,-0.0015723528272465,0.0015723817965797,-5.7826802277079e-09,3.6574831056136e-09,-0.00087279490622554,0.00087279277383483,1.7877677196057e-08,-2.0716181727045e-08,-0.001042077582834,0.0010420853250359,-0.0010420904132852,0.0010420725260993,-0.0010420744089934,0.0010420884761644,-0.0010420872625638,0.001042075659917,-0.00091540416375039,0.00091539835876248,-0.0009154133815846,0.00091538913520605,0.68665559323994,128566,2924,0.0048986727596781,0.007009429751764,0.0036347609146255,37.673049955607,6.1384399644856e-05,6.1384399644856e-05,6.1384399644856e-05,3767549.9573992,0.015665468938765
37619200,0.9995417193826,0.015642336339903,0.0050275509520578,0.0065953090614419,0.0040194763264033,-0.0011792171297932,0.0011792159610975,4.0785144156585e-09,-5.2667090998803e-09,5.6436045099731e-09,-7.0495867509638e-09,-0.0013301151588071,0.0013301213022468,-0.0013301182189657,0.0013301181643276,-0.0013301191793453,0.0013301170676723,-0.0013301223099123,0.0013301139676545,-0.0011312597756965,0.0011312635280366,-0.0011312689954381,0.001131254419477,-4.6152959350537e-09,8.0836064988409e-09,-1.781791996007e-08,2.1084409816812e-08,-0.0016894901510748,0.0016894934302548,-0.00183030394017,0.0018302901891165,-0.0018302912854375,0.0018303031480886,-0.001830299821142,0.0018302944147379,-0.001830287198463,0.0018303073497578,-0.0014804137663761,0.0014803830672938,-0.0014803760712277,0.0014804217416163,-0.0015730600480951,0.0015730638182341,-0.0015730476939167,0.0015730765300979,-5.8006066291937e-09,3.6947286903826e-09,-0.00087335280271344,0.00087335069040756,1.7765810641327e-08,-2.0580991529469e-08,-0.0010426695731124,0.0010426772343754,-0.0010426823219377,0.0010426645169822,-0.0010426663807589,0.0010426804038648,-0.0010426791529539,0.0010426676691386,-0.00091599613465112,0.00091599048348824,-0.00091600540606241,0.00091598120588594,0.66415286158994,128566,2924,0.004901346058654,0.0070123310678904,0.0036370805953421,38.003235566021,6.402588452817e-05,6.402588452817e-05,6.402588452817e-05,3772633.4355279,0.015673487250938
37819200,0.99957465794822,0.015642792755934,0.0050276954802935,0.0065955074572085,0.0040195898184324,-0.001178878211736,0.0011788770507285,4.1107249190799e-09,-5.2914876066146e-09,5.6155604184618e-09,-7.0123993227201e-09,-0.0013297387037777,0.0013297448519269,-0.0013297417823156,0.0013297416943835,-0.0013297427026765,0.0013297406387708,-0.0013297458519424,0.0013297375195907,-0.0011308905483471,0.0011308943847611,-0.0011308998227482,0.0011308852197154,-4.5848675084448e-09,8.0501102637161e-09,-1.801558265314e-08,2.1279288642515e-08,-0.001689100301093,0.0016891035775332,-0.0018299608573207,0.0018299469950118,-0.0018299480753589,0.0018299600858827,-0.0018299567589028,0.0018299511992148,-0.0018299440088425,0.0018299642661302,-0.0014799730648631,0.0014799419559059,-0.0014799349902053,0.001479981022789,-0.0015726741684819,0.0015726781288372,-0.0015726618747639,0.0015726907752543,-5.8432935507827e-09,3.7037235807189e-09,-0.00087301252965526,0.00087301038290614,1.7941029412102e-08,-2.0795994669267e-08,-0.0010422628055601,0.0010422705456555,-0.0010422756838246,0.0010422576989197,-0.0010422595961329,0.0010422737325221,-0.0010422724976021,0.001042260868411,-0.00091563484258119,0.00091562908012553,-0.00091564416439047,0.00091561975129595,0.64016141609981,128566,2924,0.0048999405434351,0.0070107206436293,0.003635664593125,37.804184604059,6.2433476832468e-05,6.2433476832468e-05,6.2433476832468e-05,3773215.4804456,0.015668984254212
38019200,0.99960484446042,0.015643229574484,0.005027834134345,0.0065956957351018,0.0040196997050371,-0.0011784665348945,0.0011784653791798,4.1410536477051e-09,-5.3165154246956e-09,5.594638217174e-09,-6.9857825526677e-09,-0.0013292449299724,0.0013292510859999,-0.0013292480261901,0.0013292479092551,-0.0013292489129277,0.0013292468882709,-0.0013292520804813,0.0013292437506033,-0.0011304083180518,0.0011304122296066,-0.0011304176463684,0.0011304030103735,-4.5616004175914e-09,8.0244269860873e-09,-1.8244350769902e-08,2.1505896011874e-08,-0.0016885675628109,0.0016885708371006,-0.0018294957738825,0.0018294817759247,-0.0018294828449825,0.0018294950192422,-0.0018294916913864,0.0018294859637211,-0.0018294787942667,0.0018294991830791,-0.0014793755874658,0.0014793440129996,-0.0014793370712661,0.0014793835328686,-0.0015721546604402,0.0015721588174555,-0.0015721424144169,0.0015721714152415,-5.8891273167452e-09,3.7112183563129e-09,-0.00087261828652553,0.00087261610080876,1.8143909174088e-08,-2.1043133519235e-08,-0.0010417294087094,0.0010417372428072,-0.0010417424363185,0.0010417242467792,-0.0010417261815692,0.0010417404474884,-0.0010417392322865,0.0010417274340983,-0.00091520272685631,0.00091519682987203,-0.00091521210135316,0.00091518744880591,0.66569813892587,128566,2924,0.0048982329153196,0.0070085216325002,0.0036340212211351,37.559901047298,6.0479208378384e-05,6.0479208378384e-05,6.0479208378384e-05,3776574.1587005,0.015663344362784
38219200,0.99963253305688,0.015643633553762,0.0050279624240237,0.0065958695715299,0.0040198015582086,-0.0011780455229698,0.0011780443698194,4.1681975698151e-09,-5.3410842606495e-09,5.583763592697e-09,-6.9721767615505e-09,-0.0013287850913,0.0013287912589216,-0.0013287882039959,0.0013287880642606,-0.0013287890658157,0.0013287870691096,-0.0013287922505385,0.0013287839139272,-0.0011299527169581,0.0011299566904462,-0.0011299620957093,0.0011299474194295,-4.5477636161785e-09,8.009229963993e-09,-1.8432089452555e-08,2.1692442750294e-08,-0.0016880804462756,0.0016880837193005,-0.001829045830735,0.0018290317177912,-0.0018290327807564,0.0018290450865119,-0.0018290417575097,0.0018290358958819,-0.001829028739564,0.0018290492406073,-0.0014788537554628,0.0014788218026271,-0.0014788148765862,0.0014788616947906,-0.0015716676180721,0.0015716719265405,-0.0015716554010884,0.0015716844956134,-5.9337935698763e-09,3.7235194477951e-09,-0.00087220981819637,0.00087220759951312,1.8318148646574e-08,-2.1254881413118e-08,-0.0010412556521501,0.0010412635633878,-0.0010412688076053,0.0010412504394976,-0.0010412524060181,0.0010412667871066,-0.001041265584691,0.0010412536456829,-0.00091477437326009,0.00091476837164261,-0.000914783803168,0.00091475893529541,0.67076171775737,128566,2924,0.0048964873170055,0.00700650883798,0.0036323218815942,37.31436009691,5.8514880775278e-05,5.8514880775278e-05,5.8514880775278e-05,3774737.0813991,0.015657799926707
38419200,0.99965812432523,0.015644032527675,0.0050280895448157,0.0065960393081456,0.0040199036747135,-0.0011778610773855,0.0011778599207515,4.1902845297979e-09,-5.3664705182303e-09,5.5951429519808e-09,-6.9879196570277e-09,-0.001328576338693,0.0013285825275527,-0.0013285794666446,0.0013285793169915,-0.001328580321667,0.0013285783290107,-0.0013285835224923,0.0013285751574356,-0.0011297464103571,0.0011297504201523,-0.0011297558367934,0.0011297411008048,-4.551148426422e-09,8.0129824520041e-09,-1.8489109635333e-08,2.1749848735874e-08,-0.0016878561890523,0.0016878594623627,-0.0018288509095417,0.0018288367563774,-0.001828837821967,0.0018288501635757,-0.0018288468335375,0.0018288409371134,-0.001828833778942,0.0018288543199216,-0.0014785975826551,0.0014785655209863,-0.0014785585929548,0.0014786055252821,-0.001571439957303,0.0015714442978221,-0.0015714277363788,0.0015714568750793,-5.9710177303894e-09,3.7475637502205e-09,-0.00087202290169128,0.00087202066975289,1.8391779515849e-08,-2.134306229797e-08,-0.0010410304469698,0.0010410383781718,-0.0010410436556136,0.0010410252010597,-0.001041027180101,0.0010410416224635,-0.001041040412618,0.0010410284271475,-0.00091458086091141,0.0009145748507001,-0.00091459034985272,0.00091456535627384,0.71253732389516,128566,2924,0.0048957226089518,0.0070055825164355,0.0036315440353961,37.196628973621,5.7573031788964e-05,5.7573031788964e-05,5.7573031788964e-05,3773774.5133689,0.015655291740992
38619200,0.9996819300612,0.015644405738633,0.005028208486385,0.0065961979760923,0.0040199992761554,-0.0011778739761965,0.0011778728104094,4.2104020835256e-09,-5.3956091179843e-09,5.6280672087244e-09,-7.03099766473e-09,-0.0013286350589165,0.0013286412796839,-0.0013286382025402,0.0013286380535363,-0.0013286390666837,0.0013286370568238,-0.0013286422839095,0.0013286338678511,-0.0011297996516642,0.0011298036772584,-0.0011298091269295,0.0011297943067075,-4.5530479397461e-09,8.0145266470653e-09,-1.842049626166e-08,2.168091339439e-08,-0.0016879366270532,0.0016879399002141,-0.0018289165586974,0.0018289024496323,-0.0018289035150654,0.0018289158107959,-0.0018289124810132,0.001828906632045,-0.0018288994716947,0.0018289199675714,-0.0014786832995915,0.0014786513757207,-0.0014786444441121,0.00147869123985,-0.0015714987663084,0.0015715030580803,-0.0015714865431587,0.0015715156366304,-6.0017557770543e-09,3.7762874805891e-09,-0.00087200596035819,0.00087200372669377,1.8402867890901e-08,-2.1355905876499e-08,-0.0010410956636987,0.0010411035808701,-0.0010411088800219,0.0010410903962873,-0.0010410923761407,0.0010411068457032,-0.0010411056174864,0.0010410936415046,-0.00091459030618958,0.00091458434195623,-0.00091459985219699,0.00091457479181503,0.71625966151491,128566,2924,0.004895777028453,0.0070059124945261,0.0036314774031459,37.193722431982,5.7549779455857e-05,5.7549779455857e-05,5.7549779455857e-05,3767602.9345238,0.015655616314176
38819200,0.99970407829544,0.015644754191716,0.0050283195572225,0.006596346031726,0.004020088602768,-0.0011778871000165,0.0011778859331573,4.2388777609257e-09,-5.4252785803066e-09,5.6336539044995e-09,-7.0374736818921e-09,-0.0013286963079539,0.0013287025513395,-0.001328699471397,0.0013286993055509,-0.0013287003197588,0.0013286983240073,-0.001328703556529,0.0013286951163285,-0.0011298584280526,0.0011298625041626,-0.00112986796003,0.0011298530788179,-4.576830204626e-09,8.041063577792e-09,-1.8386633632022e-08,2.1649459038593e-08,-0.0016880247536925,0.0016880280291845,-0.0018289868894921,0.0018289727872618,-0.0018289738673077,0.0018289861267862,-0.0018289827957229,0.0018289769865237,-0.0018289698069865,0.0018289903007837,-0.0014787806957627,0.0014787488540437,-0.0014787419036073,0.0014787886557186,-0.001571566994944,0.0015715712181211,-0.0015715547213725,0.0015715838474212,-6.0201971263602e-09,3.8083784099139e-09,-0.00087198874754012,0.00087198652748348,1.8338250674647e-08,-2.1276459609345e-08,-0.0010411642222117,0.0010411720881719,-0.0010411773908809,0.0010411589510851,-0.0010411609181676,0.0010411753694812,-0.0010411741113646,0.0010411622134702,-0.00091459971126161,0.00091459386022917,-0.00091460930729424,0.00091458425871254,0.71844599761538,128566,2924,0.0048958324036887,0.0070062741371215,0.0036314097464771,37.193612979565,5.754890383652e-05,5.754890383652e-05,5.754890383652e-05,3761707.2107852,0.015655972959829
38880000,0.99971066159525,0.01564485789648,0.0050283526165342,0.0065963900768057,0.0040201152031399,-0.0011778890687054,0.0011778879045593,4.2514738513995e-09,-5.435195134145e-09,5.624746664128e-09,-7.0254617133789e-09,-0.0013287140830989,0.0013287203302937,-0.0013287172549902,0.0013287170767243,-0.0013287180886779,0.0013287161093606,-0.0013287213325684,0.0013287128950268,-0.001129878418141,0.0011298825240689,-0.0011298879711342,0.0011298730793582,-4.5907689426306e-09,8.0564015413454e-09,-1.8390751721159e-08,2.1654835964155e-08,-0.0016880525092054,0.0016880557859828,-0.0018290085555905,0.0018289944420832,-0.0018289955307358,0.0018290077846928,-0.0018290044529358,0.0018289986506234,-0.001828991460271,0.0018290119691801,-0.0014788113954554,0.0014787795533997,-0.0014787725923107,0.0014788193670245,-0.0015715897757859,0.0015715939731447,-0.0015715774715691,0.0015716066329098,-6.0203539022399e-09,3.8187462712982e-09,-0.00087198049834348,0.00087197828853116,1.8288551199726e-08,-2.1215413214272e-08,-0.0010411843139465,0.0010411921501664,-0.0010411974463707,0.0010411790493527,-0.0010411810071013,0.0010411954344512,-0.0010411941628382,0.0010411823159779,-0.00091460325823953,0.00091459746657908,-0.00091461286606911,0.00091458785257924,0.71909630058255,128566,2924,0.0048958408968657,0.0070063879826465,0.0036313767541128,37.193608973599,5.7548871788791e-05,5.7548871788791e-05,5.7548871788791e-05,3759837.9028811,0.015656064272077
