time,ASR_ext,ASR_strain,ASR_strain_xx,ASR_strain_yy,ASR_strain_zz,disp_x_101,disp_x_102,disp_x_103,disp_x_104,disp_x_105,disp_x_106,disp_x_p1_neg,disp_x_p1_pos,disp_x_p2_neg,disp_x_p2_pos,disp_x_p3_neg,disp_x_p3_pos,disp_x_p4_neg,disp_x_p4_pos,disp_x_p5_neg,disp_x_p5_pos,disp_x_p6_neg,disp_x_p6_pos,disp_y_101,disp_y_102,disp_y_103,disp_y_104,disp_y_105,disp_y_106,disp_y_p1_neg,disp_y_p1_pos,disp_y_p2_neg,disp_y_p2_pos,disp_y_p3_neg,disp_y_p3_pos,disp_y_p4_neg,disp_y_p4_pos,disp_y_p5_neg,disp_y_p5_pos,disp_y_p6_neg,disp_y_p6_pos,disp_y_p7_neg,disp_y_p7_pos,disp_y_p8_neg,disp_y_p8_pos,disp_z_101,disp_z_102,disp_z_103,disp_z_104,disp_z_105,disp_z_106,disp_z_p1_neg,disp_z_p1_pos,disp_z_p2_neg,disp_z_p2_pos,disp_z_p3_neg,disp_z_p3_pos,disp_z_p4_neg,disp_z_p4_pos,disp_z_p5_neg,disp_z_p5_pos,disp_z_p6_neg,disp_z_p6_pos,humidity,ndof,nelem,strain_xx,strain_yy,strain_zz,temp,thermal_strain_xx,thermal_strain_yy,thermal_strain_zz,vonmises,vstrain
2419200,0,0,0,0,0,0,0,0,0,0,0,0,0,0,0,0,0,0,0,0,0,0,0,0,0,0,0,0,0,0,0,0,0,0,0,0,0,0,0,0,0,0,0,0,0,0,0,0,0,0,0,0,0,0,0,0,0,0,0,0,0,0,0,0,0,0,0,0,0,0,0,0,0,0,0
2619200,0.019565090074143,0.00040135043624946,0.00013378347874982,0.00013378347874982,0.00013378347874982,-3.4658003120512e-05,3.4660211478327e-05,1.0708093521825e-09,1.1218304497674e-09,-3.05451711153e-09,5.3944865406226e-09,-3.4276041963443e-05,3.4275436711212e-05,-3.4275975787272e-05,3.4275405363209e-05,-3.4273325261335e-05,3.4278236245334e-05,-3.4273302933266e-05,3.4278249527528e-05,-3.5053777060703e-05,3.5058718354708e-05,-3.5053711943134e-05,3.505875347669e-05,2.710081064904e-09,-5.5700056862802e-09,-1.1121924964928e-08,8.3919494593129e-09,-3.5868632551323e-05,3.5865885019211e-05,-3.5280479955483e-05,3.5274075281302e-05,-3.527424974313e-05,3.5280615622466e-05,-3.5283115965151e-05,3.5271311911251e-05,-3.5276887463357e-05,3.5277854808047e-05,-3.5944852147237e-05,3.5920229027196e-05,-3.5925987720999e-05,3.5939670078496e-05,-3.6341533466809e-05,3.6353338940047e-05,-3.6349595779831e-05,3.6345053247555e-05,-1.9185839709127e-09,-1.9673641188103e-09,-3.2707368703927e-05,3.270344794968e-05,7.636667156202e-09,-1.1890531364704e-08,-3.2554426219225e-05,3.2557091936516e-05,-3.2560896217721e-05,3.2550616334799e-05,-3.2554451906395e-05,3.2557085896969e-05,-3.2560922512425e-05,3.2550611813977e-05,-3.3989610047273e-05,3.3979170432155e-05,-3.398953083028e-05,3.3979187518399e-05,0.81992966742682,128566,2924,0.00014440245599963,0.00014943567439252,0.00013626325378022,31.546143023252,1.2369144186019e-05,1.2369144186019e-05,1.2369144186019e-05,613125.70315858,0.00043019412148744
2819200,0.041156875705271,0.00083669305552819,0.00027983042366086,0.00028163698745132,0.00027522564441602,-7.1487553884905e-05,7.1484455564476e-05,-1.536502518414e-09,-1.5490529066999e-09,2.0630054743033e-09,-5.2814421241236e-09,-7.1642048094508e-05,7.164139705591e-05,-7.1641977662913e-05,7.1641319869844e-05,-7.1644368497374e-05,7.1638910265045e-05,-7.1644371575942e-05,7.1638905448076e-05,-7.1810001060202e-05,7.1804501830426e-05,-7.1809991128221e-05,7.1804466418665e-05,-1.7290334377411e-09,5.6008401276713e-09,-1.5319567468822e-08,1.9083794920779e-08,-7.4503770843708e-05,7.450754289565e-05,-7.4004208067466e-05,7.3994294064681e-05,-7.3993188938498e-05,7.4005815454072e-05,-7.400188965445e-05,7.3996743157443e-05,-7.3990872754393e-05,7.4008265109617e-05,-7.4023881069847e-05,7.3996283760849e-05,-7.3990581713398e-05,7.4030539726502e-05,-7.5000383196668e-05,7.5008409210912e-05,-7.4993281297474e-05,7.5015739846855e-05,-2.3289882299873e-09,-2.3042095769904e-09,-6.6428405593022e-05,6.6423700537945e-05,1.4510133739176e-08,-1.9779054971188e-08,-6.7283028179158e-05,6.7289834394702e-05,-6.7294404586663e-05,6.7278463453126e-05,-6.7283012775511e-05,6.7289838282093e-05,-6.7294394220753e-05,6.727847141106e-05,-6.8920280141769e-05,6.8904239635391e-05,-6.8920320053133e-05,6.8904233650558e-05,0.82138490444146,128566,2924,0.00029781381450933,0.00031039181314059,0.00027673725063841,32.739132378956,2.1913059031651e-05,2.1913059031651e-05,2.1913059031651e-05,896217.03521856,0.00088533506325703
3019200,0.062604638522802,0.0012639427065486,0.00042426467396253,0.00043126979150066,0.00040840824108541,-0.00010512654214053,0.00010512243716294,-1.9967442777355e-09,-2.0924097952063e-09,5.0944277567359e-09,-9.419192498712e-09,-0.00010595594354951,0.00010595667215605,-0.00010595591076077,0.00010595657543737,-0.00010596054574393,0.00010595179257921,-0.00010596058597821,0.00010595177188426,-0.000105147187695,0.00010513837958502,-0.00010514729581562,0.00010513830575272,-4.5558735397642e-09,9.8367871695439e-09,-1.8569931368141e-08,2.3624791817511e-08,-0.00011074838049412,0.00011075345763513,-0.00011037382753329,0.0001103603076356,-0.0001103602428477,0.00011037440620887,-0.00011036924522679,0.00011036511151463,-0.000110355660456,0.00011037921257714,-0.00010930537525554,0.00010927375892651,-0.0001092644841147,0.00010931573455873,-0.00011138649527297,0.00011139148430618,-0.00011137248858056,0.00011140589786391,-2.4860856815137e-09,-2.4085973599484e-09,-9.5657487027797e-05,9.5652541514684e-05,1.8241854456048e-08,-2.3877203634299e-08,-9.7471797143284e-05,9.7480992876237e-05,-9.7485797311715e-05,9.7467037770652e-05,-9.7471758230199e-05,9.7481006810165e-05,-9.7485759187963e-05,9.7467055182185e-05,-9.9789867490468e-05,9.9770997024026e-05,-9.9789978774924e-05,9.9770953369261e-05,0.82013324777937,128566,2924,0.000437922348669,0.00046135506110485,0.0003984843389152,32.491782867131,1.9934262937045e-05,1.9934262937045e-05,1.9934262937045e-05,1217317.595767,0.0012986053746517
3219200,0.083817014378967,0.0016750312332761,0.00056348147547927,0.00057871984549231,0.00053282991230449,-0.00013739376307744,0.00013738974827784,-1.9245918746556e-09,-2.0849160676738e-09,6.2662524563823e-09,-1.0536888578081e-08,-0.00013919729562912,0.0001391988930876,-0.00013919729147598,0.00013919878225056,-0.00013920262581931,0.00013919324876595,-0.00013920269568089,0.00013919321378015,-0.00013678558413357,0.0001367761525938,-0.0001367857913755,0.00013677604944568,-5.5758055381226e-09,1.1174232219604e-08,-2.0513260306052e-08,2.5843350830306e-08,-0.00014638910283556,0.00014639445855913,-0.00014647013159572,0.00014645472128606,-0.00014645516186757,0.00014647018728268,-0.00014646476923446,0.00014646030170201,-0.00014644979993284,0.0001464757693623,-0.00014345185528071,0.00014341721544007,-0.00014340691188772,0.00014346331189091,-0.00014688496375563,0.00014688930709894,-0.00014686864193043,0.0001469060709366,-2.4389898758915e-09,-2.2903440773617e-09,-0.00012278172608281,0.00012277696626574,2.0316747709818e-08,-2.5846145360793e-08,-0.00012584220220302,0.00012585293665828,-0.00012585755543673,0.00012583764593384,-0.00012584214342433,0.00012585297842149,-0.00012585749565998,0.00012583768876654,-0.00012849806959246,0.00012847807579687,-0.00012849823988224,0.00012847795279689,0.80675913762364,128566,2924,0.00057230100468801,0.00060977846058252,0.0005114526972547,32.203854560682,1.7630836485457e-05,1.7630836485457e-05,1.7630836485457e-05,1478280.2400092,0.0016949690223221
3419200,0.10476954081508,0.0020665329971762,0.00069584745777851,0.00072268498198585,0.0006480005574118,-0.0001679773676633,0.00016797371732147,-1.7126343443462e-09,-1.9409215680204e-09,6.7148577164025e-09,-1.0640058343404e-08,-0.00017111727028155,0.00017111944234978,-0.00017111729234624,0.00017111931233633,-0.00017112277626088,0.00017111361294102,-0.00017112287183502,0.00017111355836931,-0.00016633940731793,0.00016633020975992,-0.00016633970208332,0.00016633006112364,-5.7791018160462e-09,1.1520224186294e-08,-2.1601556312283e-08,2.7060211621088e-08,-0.0001811823976988,0.0001811878823377,-0.00018219489600825,0.00018217865912207,-0.0001821791548741,0.00018219488094289,-0.00018218934123597,0.0001821844133215,-0.00018217360035903,0.00018220063676839,-0.00017610407085724,0.00017606747760159,-0.00017605688802085,0.00017611586285431,-0.00018109588134195,0.00018110059735358,-0.00018107902400164,0.00018111790222644,-2.3520201266384e-09,-2.1355263842657e-09,-0.00014776631042857,0.00014776180617731,2.155468650713e-08,-2.6884775275214e-08,-0.000152369194161,0.00015238093959805,-0.00015238530478657,0.00015236489477038,-0.00015236911521167,0.00015238100638859,-0.0001523852243084,0.00015236496218335,-0.00015485926983011,0.00015483882246479,-0.00015485949378385,0.00015483862012089,0.78589836768823,128566,2924,0.00069965190719315,0.00075465093315252,0.00061549994561388,31.914370784428,1.5314966275421e-05,1.5314966275421e-05,1.5314966275421e-05,1708623.3245134,0.0020719491975938
3619200,0.125982869696,0.0024504768487622,0.00082519711211112,0.00086691863380101,0.00075836110285004,-0.00019848664065559,0.00019848359730408,-1.3786780061959e-09,-1.6731395094372e-09,6.6262327284171e-09,-9.9426237969914e-09,-0.00020328279555883,0.00020328534099815,-0.00020328283990675,0.00020328518958872,-0.00020328805087587,0.00020327977405692,-0.00020328816739781,0.00020327969587064,-0.00019533765663244,0.00019532938337988,-0.00019533802452484,0.00019532917696033,-5.4691935086793e-09,1.1050696222625e-08,-2.1776416328392e-08,2.7086917164737e-08,-0.00021676957419712,0.00021677490863639,-0.00021926127706312,0.00021924507762744,-0.0002192454601749,0.00021926135951865,-0.00021925596728561,0.00021925056771869,-0.00021924015107582,0.00021926685077251,-0.00020882728442644,0.00020879008733312,-0.00020877990713148,0.00020883867087391,-0.00021563209824594,0.0002156375044414,-0.0002156160092793,0.0002156540253084,-2.1463229686651e-09,-1.860122922157e-09,-0.00017229712510932,0.00017229311045828,2.1883410038889e-08,-2.6741912712468e-08,-0.00017849320700519,0.00017850548660114,-0.00017850937437689,0.00017848937825823,-0.00017849310453465,0.00017850557677381,-0.00017850927167852,0.00017848946944678,-0.0001807563618347,0.00018073639954346,-0.0001807566454325,0.00018073612165799,0.77011575390244,128566,2924,0.00082667739656041,0.00090280619299539,0.00071764920593529,31.993861115349,1.5950888922793e-05,1.5950888922793e-05,1.5950888922793e-05,1952289.7038027,0.0024501333106034
3819200,0.14780279452653,0.0028411683047893,0.00095633411085263,0.0010161008656882,0.00086873332824851,-0.00022982316766182,0.00022982063134651,-1.0852036870057e-09,-1.4625711737123e-09,6.4315762168202e-09,-9.2358669054735e-09,-0.00023641897136666,0.00023642175773615,-0.00023641904611213,0.00023642157741421,-0.00023642394005119,0.00023641649252698,-0.0002364240800187,0.00023641638681054,-0.00022503427921264,0.00022502688172285,-0.00022503472130824,0.0002250265995651,-5.1387489411737e-09,1.0439225295664e-08,-2.1547809029806e-08,2.6592629965136e-08,-0.00025406798392114,0.00025407305000022,-0.00025841851177624,0.00025840259463898,-0.00025840292486442,0.0002584186299744,-0.00025841350797505,0.00025840776688092,-0.00025839791759759,0.00025842380754135,-0.00024282687181555,0.00024278979923305,-0.00024278018899092,0.00024283767149056,-0.00025161365314897,0.00025161946794452,-0.00025159848127455,0.00025163505656711,-1.939497636332e-09,-1.6001232926079e-09,-0.00019728169508456,0.00019727815283263,2.1783920793938e-08,-2.6170064793517e-08,-0.00020502904711395,0.00020504156028199,-0.00020504498986584,0.00020502567195272,-0.00020502892811357,0.00020504166530699,-0.00020504486690703,0.00020502578259191,-0.00020736656899067,0.00020734735640397,-0.00020736690741625,0.00020734701685417,0.77140161021832,128566,2924,0.00095712967522428,0.0010580609656754,0.00082167949115697,32.325240207825,1.86019216626e-05,1.86019216626e-05,1.86019216626e-05,2192284.9085597,0.0028409030919168
4019200,0.17021934320863,0.0032396880466923,0.00108975030221,0.0011705633978611,0.00097937434662112,-0.00026161562561148,0.0002616134784353,-8.6184702280751e-10,-1.2992129003753e-09,6.2921890094582e-09,-8.7021858047853e-09,-0.00027016317167048,0.00027016614577572,-0.00027016326759189,0.00027016594819046,-0.00027016792448032,0.00027016110866829,-0.00027016808468355,0.00027016098059626,-0.00025499099782814,0.00025498427198348,-0.00025499150052473,0.00025498392556076,-4.9326569707155e-09,9.993887070566e-09,-2.12743834711e-08,2.6091797368089e-08,-0.00029273028990301,0.00029273512606724,-0.00029920924705876,0.00029919357263255,-0.00029919390873501,0.00029920934737135,-0.00029920445387099,0.00029919852653154,-0.00029918911399422,0.00029921430459216,-0.00027792153353565,0.00027788478032199,-0.00027787560287733,0.00027793188050201,-0.00028866711793258,0.00028867308250187,-0.00028865258421924,0.00028868802092573,-1.7951483569463e-09,-1.3797669513517e-09,-0.00022231140309123,0.00022230822886147,2.1575174048213e-08,-2.558585598063e-08,-0.00023173527705999,0.00023174786785094,-0.00023175095380499,0.000231732243569,-0.00023173513137114,0.000231747998829,-0.00023175080625256,0.00023173237761634,-0.00023430014939983,0.00023428163827563,-0.00023430055719446,0.00023428122663017,0.77299485136151,128566,2924,0.0010894618010434,0.0012189665564415,0.00092588980839282,32.662749869739,2.1301998957912e-05,2.1301998957912e-05,2.1301998957912e-05,2411285.2085903,0.0032395614822191
4219200,0.19320649297995,0.0036464592272244,0.0012255430771919,0.001330563554853,0.0010903525951795,-0.00029387868124756,0.00029387681076706,-6.8988138318921e-10,-1.19629376332e-09,6.2008646840678e-09,-8.3308543165162e-09,-0.00030454045479405,0.0003045435760406,-0.00030454057697823,0.00030454335834642,-0.00030454505974173,0.00030453869755386,-0.0003045452428004,0.00030453854637933,-0.00028530262210794,0.00028529639266635,-0.00028530319206708,0.0002852959786355,-4.7991909694072e-09,9.6657980535779e-09,-2.0998811283127e-08,2.5631016772855e-08,-0.00033283930959484,0.00033284395859961,-0.00034161846977071,0.00034160300525268,-0.00034160336928236,0.00034161853249058,-0.00034161382568672,0.00034160780413666,-0.00034159872355192,0.00034162333484764,-0.00031427707623142,0.00031424070526026,-0.000314231859737,0.00031428707842604,-0.00032692031706348,0.00032692629534464,-0.00032690623109324,0.00032694077817598,-1.7062782933763e-09,-1.2238949344491e-09,-0.00024736754841183,0.00024736462165505,2.1339814717066e-08,-2.5095161946507e-08,-0.0002587655862599,0.0002587781615404,-0.00025878101940587,0.00025876277939778,-0.00025876541762539,0.00025877831382617,-0.00025878084852543,0.00025876293516796,-0.00026146146659269,0.00026144351163079,-0.00026146194085722,0.00026144303389405,0.77488673092862,128566,2924,0.0012237340838033,0.0013858646444964,0.001030202909263,33.000488814169,2.4003910513354e-05,2.4003910513354e-05,2.4003910513354e-05,2609975.7925889,0.0036464438188841
4419200,0.21713312372848,0.0040679885790522,0.0013657243820696,0.0014988932985676,0.001203370898415,-0.00032756998424246,0.00032756830625385,-5.3332819206482e-10,-1.1621006415239e-09,6.1201041394129e-09,-8.0557245415567e-09,-0.00034055208679433,0.00034055533104793,-0.00034055225963985,0.00034055506967459,-0.00034055658751912,0.00034055056896092,-0.00034055680465723,0.00034055038334527,-0.00031691623397538,0.00031691041379781,-0.0003169169026263,0.00031690989691437,-4.669482960692e-09,9.3568538893306e-09,-2.0630535840703e-08,2.509254425263e-08,-0.00037556955221003,0.00037557402917652,-0.00038678974354915,0.00038677455689753,-0.00038677494013576,0.00038678977344218,-0.00038678524650414,0.00038677920208538,-0.00038677042855015,0.0003867944350015,-0.00035300764018039,0.00035297182300445,-0.00035296328047732,0.00035301731457772,-0.00036762642524686,0.00036763233594339,-0.00036761274657255,0.00036764640425736,-1.6184554339583e-09,-1.1224042096486e-09,-0.00027330339341719,0.00027330065761259,2.1046064698302e-08,-2.4597795828426e-08,-0.00028703438432472,0.00028704688704129,-0.00028704955892563,0.00028703176103716,-0.00028703421671282,0.0002870470366885,-0.00028704937618859,0.00028703192705698,-0.00028966934791093,0.00028965188132272,-0.00028966985457032,0.00028965137100139,0.77612068065034,128566,2924,0.0013639304641881,0.0015636379151397,0.0011381711897813,33.594598192421,2.8756785539368e-05,2.8756785539368e-05,2.8756785539368e-05,2801288.0226594,0.0040740297024003
4619200,0.24213634083742,0.0045063613014622,0.0015107626942595,0.0016767093885677,0.001318889218635,-0.0003624989990626,0.00036249745289511,-3.9349114710177e-10,-1.1717117042826e-09,6.064804825179e-09,-7.8675289475235e-09,-0.00037800762976464,0.00037801098924772,-0.00037800786653356,0.00037801067146363,-0.00037801206896188,0.00037800629966856,-0.00037801232643509,0.0003780060747228,-0.00034967330719869,0.00034966781497978,-0.00034967409278311,0.00034966717913196,-4.5751154288641e-09,9.1080689336138e-09,-2.0293424264922e-08,2.4609194966001e-08,-0.00042085806445271,0.00042086239368689,-0.00043468887293021,0.00043467393672374,-0.00043467434573969,0.00043468886649279,-0.00043468449824198,0.00043467845427206,-0.00043466993507001,0.00043469342082278,-0.00039396426700985,0.00039392896824496,-0.00039392067237021,0.00039397366920235,-0.00041070273972262,0.00041070853569557,-0.00041068936820004,0.00041072229038273,-1.5574397122087e-09,-1.0751381226544e-09,-0.00029997903093242,0.00029997640389859,2.0770155980242e-08,-2.4200005842549e-08,-0.00031640517510845,0.00031641757434005,-0.00031642013502882,0.00031640266052932,-0.00031640502097936,0.00031641770867299,-0.00031641994713351,0.00031640283052933,-0.00031875595869406,0.00031873883959424,-0.00031875648060436,0.00031873831587081,0.77693646568107,128566,2924,0.0015092555965149,0.0017520181406,0.0012492125200089,34.292449598569,3.4339596788552e-05,3.4339596788552e-05,3.4339596788552e-05,2985232.9837248,0.0045206924998782
4819200,0.26818475975882,0.0049609314835787,0.0016602770252804,0.0018638784075056,0.0014367760507927,-0.00039837268938497,0.00039837124573331,-3.1137973850758e-10,-1.1525832668936e-09,6.0138997992935e-09,-7.7131686021114e-09,-0.0004166110591908,0.00041661448029447,-0.00041661132211456,0.00041661414422473,-0.00041661543947329,0.00041660985839645,-0.00041661572010844,0.00041660961370848,-0.00038335225140995,0.00038334699119455,-0.00038335310089983,0.0003833462929868,-4.5282534771558e-09,8.9595522605344e-09,-2.0058492834783e-08,2.4278505813916e-08,-0.00046844972211409,0.00046845395436496,-0.00048509186294586,0.00048507708959574,-0.00048507752426308,0.0004850918269356,-0.00048508755597472,0.00048508153713743,-0.00048507317829072,0.0004850963122255,-0.00043687053505242,0.00043683563739828,-0.00043682749355881,0.00043687976930981,-0.00045587735768969,0.00045588306340129,-0.00045586418271364,0.00045589661952537,-1.569735203753e-09,-1.0152254357691e-09,-0.00032720382430239,0.00032720124360902,2.0516239450394e-08,-2.3886531746501e-08,-0.00034665147455821,0.00034666370577006,-0.00034666624692539,0.00034664897711298,-0.00034665129625439,0.00034666386265782,-0.00034666603626263,0.0003466491697683,-0.00034848651021908,0.00034846969808286,-0.00034848710185444,0.00034846910503484,0.77792179401118,128566,2924,0.0016584880698522,0.0019499375887815,0.0013625342532281,34.992863168276,3.994290534621e-05,3.994290534621e-05,3.994290534621e-05,3159879.4404212,0.0049833605995905
5019200,0.29522940493263,0.0054293955214965,0.0018133364804755,0.0020595273860243,0.0015565316549967,-0.00043496526276749,0.00043496389859814,-2.4150867395079e-10,-1.1441618851293e-09,5.9714117673628e-09,-7.5900577467694e-09,-0.00045616510742237,0.0004561685748397,-0.00045616539377623,0.00045616822144479,-0.00045616943612782,0.00045616401115805,-0.00045616974046485,0.0004561637454697,-0.00041776474273092,0.000417759680841,-0.00041776565753272,0.0004177589179506,-4.4831224923176e-09,8.8506245537893e-09,-1.9865612558746e-08,2.4026200915907e-08,-0.0005181338064965,0.00051813797831243,-0.00053783275936766,0.00053781812532859,-0.00053781856586122,0.00053783271472863,-0.00053782850213925,0.00053782252005101,-0.00053781427147757,0.00053783714514864,-0.00048150966033836,0.00048147509486561,-0.00048146705512786,0.00048151877691047,-0.00050285289065135,0.00050285854435843,-0.0005028398724993,0.00050287194038411,-1.6027251181088e-09,-9.7467058212522e-10,-0.00035487201966116,0.0003548694443747,2.0300633044448e-08,-2.3653883176121e-08,-0.00037766503891891,0.00037767709702302,-0.00037767966218953,0.00037766251579565,-0.00037766483619347,0.00037767727775814,-0.00037767942786456,0.00037766273198576,-0.00037868151009669,0.00037866492648192,-0.00037868217195925,0.00037866426104612,0.77677326056096,128566,2924,0.0018106867340304,0.0021565134544051,0.0014776973960462,35.693372965319,4.554698372255e-05,4.554698372255e-05,4.554698372255e-05,3322821.4992989,0.0054597808218008
5219200,0.32257353988353,0.0059014827037887,0.0019664680556671,0.0022591628613241,0.0016758517867975,-0.00047073323923579,0.00047073189401911,-1.8503665971938e-10,-1.1824201097094e-09,5.9945036318165e-09,-7.5956615779291e-09,-0.00049502615563031,0.00049502968650543,-0.00049502647643219,0.00049502929868192,-0.00049503049703884,0.0004950251125637,-0.00049503083081249,0.0004950248174623,-0.00045147083608685,0.00045146586971734,-0.0004514718346556,0.00045146501811506,-4.4988125137776e-09,8.8507673525446e-09,-1.9976268128162e-08,2.4123297401559e-08,-0.00056806172235234,0.00056806587992294,-0.00059100318491259,0.00059098846758459,-0.00059098893021215,0.00059100312603141,-0.00059099892546923,0.00059099286386763,-0.00059098462912346,0.00059100756286517,-0.00052616871769975,0.00052613393176378,-0.00052612590668392,0.0005261778306968,-0.00054986204024827,0.00054986772529953,-0.00054984900028547,0.00054988114351344,-1.6843578255651e-09,-1.0155543538682e-09,-0.0003817842544353,0.00038178155348564,2.0353502019293e-08,-2.3835137809045e-08,-0.00040807182349472,0.00040808382075332,-0.00040808652659049,0.00040806915847647,-0.00040807161036531,0.00040808401134927,-0.00040808627558758,0.00040806939087185,-0.00040811712425719,0.00040810039002439,-0.00040811783422531,0.00040809967504026,0.77855552605782,128566,2924,0.0019594315771344,0.0023640556663748,0.0015897123885358,36.022884945677,4.8183079565418e-05,4.8183079565418e-05,4.8183079565418e-05,3464877.6502198,0.0059307595923227
5419200,0.35001245545081,0.0063671525593277,0.002116253153635,0.0024585475925179,0.0017923518131747,-0.00050547548947994,0.00050547417073002,-1.3303387109406e-10,-1.2087017795476e-09,6.004010838615e-09,-7.5795624576874e-09,-0.0005331123390716,0.00053311592179247,-0.0005331126862326,0.00053311550593397,-0.00053311667936363,0.00053311135034443,-0.00053311703765921,0.00053311102891625,-0.00048429706860803,0.00048429220602524,-0.0004842981395061,0.00048429127675937,-4.492106515053e-09,8.8438518022805e-09,-2.0063436380085e-08,2.4211812543717e-08,-0.00061786764858734,0.00061787180695187,-0.0006442909315082,0.00064427616464331,-0.0006442766225733,0.00064429088089367,-0.00064428667831015,0.00064428055356492,-0.00064427232521558,0.00064429531236091,-0.00057052520312105,0.00057049023912319,-0.00057048222119602,0.00057053431579516,-0.00059640117017621,0.00059640692652313,-0.00059638814234481,0.00059642033182769,-1.7487683063268e-09,-1.0226349402241e-09,-0.00040796564333472,0.00040796286923643,2.0410638117251e-08,-2.3969092991481e-08,-0.00043801882754629,0.00043803079638325,-0.00043803359465828,0.00043801606916459,-0.00043801859693159,0.00043803100462458,-0.00043803332369225,0.0004380163213817,-0.00043658731247361,0.0004365705031312,-0.00043658808114015,0.00043656972814664,0.76958003590077,128566,2924,0.0021038876220704,0.0025710421787697,0.0016986861728373,36.275752937556,5.0206023500447e-05,5.0206023500447e-05,5.0206023500447e-05,3584023.5490348,0.0063940242665119
5619200,0.37746568047821,0.0068095210259368,0.0022570946658494,0.0026507482421752,0.0019016781179121,-0.00053828056154058,0.00053827928068721,-8.2969942917109e-11,-1.2218827991869e-09,5.9906475366737e-09,-7.5282139256733e-09,-0.00056985414150777,0.00056985776152635,-0.00056985450942626,0.00056985732496922,-0.000569858459172,0.0005698532123834,-0.00056985884010788,0.0005698528690928,-0.00051524229034167,0.00051523755147394,-0.0005152434269625,0.00051523655831248,-4.464277058165e-09,8.8118044470993e-09,-2.0092684771949e-08,2.4237728529001e-08,-0.00066628805353269,0.00066629220840814,-0.00069669581802439,0.00069668104975486,-0.00069668149037017,0.00069669578426924,-0.00069669158414342,0.0006966854175297,-0.0006966772130389,0.00069670019355057,-0.00061315830699466,0.00061312326776965,-0.00061311527284031,0.00061316739516012,-0.00064090876182735,0.00064091459622097,-0.00064089579560646,0.00064092793758737,-1.8032053503842e-09,-1.0047925593878e-09,-0.00043253777803344,0.00043253496773525,2.0416776262397e-08,-2.4012906148789e-08,-0.00046704158314726,0.00046705350677798,-0.00046705636679714,0.00046703876262726,-0.00046704132898548,0.00046705373894217,-0.00046705607255179,0.00046703903836221,-0.00046263428297159,0.00046261749019209,-0.00046263512023144,0.00046261664407792,0.73637048920418,128566,2924,0.002240267728819,0.0027722226958599,0.0018009658798303,36.526664981522,5.221331985218e-05,5.221331985218e-05,5.221331985218e-05,3680381.3098026,0.0068367858958198
5819200,0.40485232025097,0.0072325567806967,0.0023905591972711,0.0028365557413185,0.0020054418421071,-0.00056956939933662,0.00056956813168395,-4.421972164635e-11,-1.2484776864642e-09,5.9516530587784e-09,-7.4744670284277e-09,-0.0006057076719769,0.0006057112958873,-0.00060570806234391,0.00060571083856808,-0.00060571195854888,0.00060570677771902,-0.00060571236358632,0.00060570641323952,-0.00054485602511691,0.00054485139512587,-0.00054485723193023,0.00054485033998204,-4.4250126156373e-09,8.7615430636089e-09,-2.0068588520073e-08,2.4203849587127e-08,-0.00071363730001531,0.00071364144514915,-0.00074839385818447,0.00074837912814277,-0.00074837954690462,0.00074839384288589,-0.00074838965226645,0.00074838346509612,-0.00074837529857058,0.00074839822052572,-0.0006543517296507,0.00065431671075656,-0.00065430875233275,0.00065436077538939,-0.00068424329185851,0.00068424918882166,-0.00068423041467866,0.00068426243648305,-1.8470098977892e-09,-9.7831457067244e-10,-0.0004557760577904,0.00045577323181393,2.0379916476894e-08,-2.399094549053e-08,-0.00049533313659347,0.0004953450001241,-0.00049534790072573,0.00049533027486527,-0.00049533285937364,0.00049534525594708,-0.00049534758384694,0.00049533057413966,-0.00048672039251627,0.00048670367008683,-0.00048672129650301,0.00048670275328243,0.71317584134363,128566,2924,0.0023703260287527,0.0029689065500123,0.001897698019001,36.777503038212,5.4220024305695e-05,5.4220024305695e-05,5.4220024305695e-05,3766451.8433,0.0072632590932397
6019200,0.43168773849961,0.0076371422203433,0.0025172584453275,0.0030156631442904,0.0021042206307255,-0.00059903235455217,0.00059903105808375,-1.545083697283e-11,-1.3067897794675e-09,5.9637665717942e-09,-7.5156322749165e-09,-0.00064016966544982,0.00064017331173243,-0.00064017008785124,0.00064017282174428,-0.00064017397409525,0.00064016877146091,-0.00064017440627937,0.00064016838234365,-0.00057301508616557,0.00057301048476819,-0.00057301637140313,0.00057300935499711,-4.4504137210628e-09,8.786402779691e-09,-2.0230319239752e-08,2.4363896010024e-08,-0.00075929637936094,0.00075930052292731,-0.00079823429570727,0.00079821944440049,-0.00079821988380766,0.00079823426422459,-0.0007982300759923,0.00079822379466762,-0.0007982156154837,0.00079823866165488,-0.00069389249704777,0.00069385716767983,-0.00069384920021185,0.00069390156408133,-0.00072635167779882,0.00072635762033597,-0.00072633873981096,0.00072637092664076,-1.9238545474759e-09,-1.0060966209751e-09,-0.00047729043184288,0.00047728750126246,2.0490138621933e-08,-2.4213041136108e-08,-0.00052217738729076,0.00052218924353893,-0.0005221922642904,0.00052217440420959,-0.00052217709698617,0.00052218951243675,-0.00052219192810405,0.00052217472403939,-0.00050886280227648,0.00050884592307458,-0.00050886376205846,0.00050884494618635,0.7026152347594,128566,2924,0.0024927795895344,0.0031585263371868,0.0019872585851313,36.775491613315,5.4203932906519e-05,5.4203932906519e-05,5.4203932906519e-05,3821707.2889703,0.0076679076369073
6219200,0.45790241816872,0.0080338447947988,0.0026412284903804,0.0031914900320521,0.0022011262723663,-0.00062794003888171,0.00062793871515506,7.1649899931504e-13,-1.3505665303066e-09,5.9706940584933e-09,-7.5491855250642e-09,-0.00067392108419403,0.00067392473761162,-0.00067392152563648,0.00067392422777698,-0.00067392540769093,0.00067392018377508,-0.00067392586228128,0.0006739197739301,-0.00060069282308658,0.0006006882433623,-0.00060069417316506,0.00060068705187046,-4.4824072914459e-09,8.7964101840599e-09,-2.0298137660651e-08,2.440958734048e-08,-0.00080420874717505,0.0008042128685628,-0.00084714930392884,0.00084713437798966,-0.00084713485470051,0.00084714923670758,-0.0008471450689942,0.00084713874293408,-0.00084713057214057,0.00084715364773999,-0.00073280404786962,0.0007327686015384,-0.00073276064551774,0.00073281311058916,-0.00076801509352468,0.00076802101150865,-0.00076800211412764,0.00076803435450597,-1.9951212679442e-09,-1.0010909382933e-09,-0.00049812535457785,0.000498122357516,2.0507471989264e-08,-2.4302044742446e-08,-0.00054830194877326,0.00054831374888045,-0.00054831685942763,0.00054829887490185,-0.00054830163259306,0.00054831404415457,-0.00054831650022907,0.0005482992192837,-0.00053042719177966,0.00053041028240485,-0.00053042822138623,0.00053040923287872,0.70745492028918,128566,2924,0.0026129122810482,0.0033450048411362,0.0020739931891435,36.75876578819,5.4070126305523e-05,5.4070126305523e-05,5.4070126305523e-05,3849431.7292623,0.0080643666875384
6419200,0.48345624318392,0.0084175101380746,0.0027612573580796,0.0033619231883035,0.0022943295916915,-0.0006559708768092,0.00065596952697612,2.1241607372079e-11,-1.3972748936831e-09,5.9634102752165e-09,-7.5678557564073e-09,-0.00070665080186613,0.00070665445659117,-0.00070665126539405,0.00070665392401872,-0.00070665513102715,0.00070664989862846,-0.00070665560877163,0.00070664946629637,-0.00062749342239828,0.0006274888798743,-0.00062749484035738,0.00062748762215299,-4.50132772991e-09,8.7897459831467e-09,-2.029099036732e-08,2.4376872660597e-08,-0.00084781661847389,0.00084782071416227,-0.00089470958625768,0.00089469464188209,-0.00089469514798143,0.00089470948785723,-0.0008947053461722,0.00089469901155506,-0.00089469086095404,0.0008947139032581,-0.00077050600395094,0.00077047057649145,-0.00077046264261464,0.00077051504675233,-0.00080839970723483,0.00080840557401963,-0.00080838671591362,0.00080841892843482,-2.0415834754187e-09,-9.7849375772689e-10,-0.00051806173355392,0.00051805871236258,2.0474417321752e-08,-2.4294976572695e-08,-0.00057357890231655,0.00057359064376333,-0.00057359379922555,0.00057357578274077,-0.00057357856328459,0.00057359096209871,-0.00057359341775279,0.00057357615052862,-0.00055106486903859,0.00055104801796558,-0.00055106596572108,0.00055104689966838,0.70210892988367,128566,2924,0.0027293887828201,0.0035260284537191,0.0021569901093141,36.741605625583,5.3932845004667e-05,5.3932845004667e-05,5.3932845004667e-05,3878107.487152,0.0084480266911703
6619200,0.5087245954576,0.0088202498619043,0.0028879771847039,0.0035388710501295,0.0023934016270709,-0.00068566288892459,0.00068566155347348,6.5508698961934e-11,-1.4273668087065e-09,5.8901465558839e-09,-7.478547936847e-09,-0.00074030079404423,0.00074030443579911,-0.00074030128569207,0.00074030387975464,-0.0007403050731451,0.00074029993141756,-0.00074030557575523,0.00074029947615511,-0.00065617619656192,0.00065617179228954,-0.00065617768631735,0.00065617046574441,-4.4355868037502e-09,8.6921730125222e-09,-1.9937036567865e-08,2.3991762346894e-08,-0.00089269435642398,0.00089269842078421,-0.00094353054974097,0.00094351586917149,-0.0009435163458727,0.00094353046571696,-0.00094352636258584,0.0009435201837615,-0.00094351210982257,0.00094353482801512,-0.00080930251038992,0.00080926772131724,-0.00080925985645288,0.00080931145260599,-0.000850407918491,0.00085041366636206,-0.00085039508370103,0.00085042686204988,-2.0251660574182e-09,-9.0011388541302e-10,-0.00053936553261911,0.00053936260877125,2.0165059713121e-08,-2.3876452685329e-08,-0.00059963938648721,0.00059965096247102,-0.0005996540437519,0.00059963634058576,-0.00059963902837984,0.00059965130064853,-0.00059965364111313,0.00059963673069574,-0.00057365399967454,0.00057363754899612,-0.00057365515961494,0.00057363636535942,0.74070666340524,128566,2924,0.0028527553925138,0.0037122877378309,0.0022456746217029,37.008929146125,5.6071433169e-05,5.6071433169e-05,5.6071433169e-05,3897674.8396732,0.0088498049297925
6819200,0.53480359086061,0.0092696438472489,0.0030307491253127,0.0037341255076339,0.0025047692143023,-0.00072000762649423,0.00072000639469849,2.0587998745256e-10,-1.4639573361417e-09,5.7089162230723e-09,-7.1888766270184e-09,-0.0007776718862559,0.00077767554622395,-0.00077767245493731,0.00077767492600683,-0.00077767602684582,0.00077767118876089,-0.00077767657700051,0.00077767068764446,-0.0006895326299292,0.00068952862412869,-0.000689534260776,0.0006895271619885,-4.2175302337876e-09,8.4253017249921e-09,-1.8858615032638e-08,2.2866627482638e-08,-0.00094224266385397,0.00094224668125665,-0.00099726813739978,0.0009972543007638,-0.00099725464262379,0.00099726814286251,-0.00099726411809631,0.00099725844132445,-0.00099725054952394,0.0009972723552021,-0.00085212848738255,0.0008520956211376,-0.00085208790881601,0.00085213716835932,-0.00089710753952832,0.00089711295224527,-0.00089709514314305,0.00089712570273542,-1.8311319785721e-09,-7.4686804856235e-10,-0.00056453839632953,0.00056453582701213,1.9305074949035e-08,-2.2618885838679e-08,-0.00062881831124664,0.00062882955628887,-0.00062883228143293,0.00062881562141843,-0.00062881797908648,0.00062882986962298,-0.00062883188021883,0.00062881601061412,-0.00060103017361543,0.00060101476284647,-0.00060103133068682,0.00060101358443779,0.79221450706546,128566,2924,0.0029954338142328,0.0039178914692633,0.0023504545064738,38.073894086887,6.4591152695098e-05,6.4591152695098e-05,6.4591152695098e-05,3965422.0128558,0.0093070038786521
7019200,0.56159293825859,0.0096949621263177,0.0031657493086552,0.0039223288529401,0.0026068839647225,-0.0007533376084957,0.00075333648671339,2.7298664172305e-10,-1.421875507797e-09,5.6036940145201e-09,-6.967104333098e-09,-0.00081498527517268,0.00081498894223328,-0.00081498585258999,0.00081498831940994,-0.00081498930782912,0.00081498469903945,-0.00081498987182605,0.00081498418254191,-0.00072154322439064,0.00072153947526499,-0.00072154489168516,0.0007215379676885,-4.081763443958e-09,8.2347882274605e-09,-1.8275219546087e-08,2.2230653547088e-08,-0.00099166939066145,0.00099167335521598,-0.0010506923958653,0.0010506790130829,-0.0010506792903605,0.0010506924466447,-0.0010506884815926,0.0010506830470575,-0.0010506753020596,0.001050696545861,-0.00089494757190713,0.00089491575677047,-0.00089490817728184,0.0008949560649668,-0.00094304905716191,0.00094305434704839,-0.00094303698776998,0.00094306675426149,-1.7890567731944e-09,-5.9469231118449e-10,-0.00058831104393935,0.00058830867057897,1.880797727491e-08,-2.1897872521246e-08,-0.00065761000607473,0.00065762099917344,-0.00065762357233657,0.00065760746819161,-0.00065760963595177,0.00065762135127434,-0.00065762314092553,0.0006576078880515,-0.0006262708064592,0.00062625608523796,-0.00062627205572251,0.00062625481202429,0.73335807092477,128566,2924,0.0031338740608818,0.004122937217701,0.002449417753843,39.158080401926,7.3264643215405e-05,7.3264643215405e-05,7.3264643215405e-05,3985895.3996657,0.0097536976336947
7219200,0.58894055048522,0.010111889294839,0.0032982035773792,0.0041079054691559,0.0027057802483034,-0.00078634422441809,0.00078634319526533,3.5233238584224e-10,-1.4090519357001e-09,5.5386204674061e-09,-6.8059139889406e-09,-0.00085254431246895,0.00085254802007177,-0.00085254491424171,0.00085254737694091,-0.00085254827368807,0.00085254385333689,-0.0008525488606069,0.00085254331299332,-0.00075282420877639,0.0007528206935696,-0.00075282594268275,0.00075281911820612,-3.9963772548593e-09,8.0931257629751e-09,-1.7901704622388e-08,2.1802722140393e-08,-0.0010408785777297,0.0010408824875472,-0.0011042068625764,0.0011041937607566,-0.0011041940090555,0.0011042069244257,-0.0011042030202886,0.0011041977193773,-0.0011041900945735,0.0011042109470714,-0.00093742476546807,0.00093739361329391,-0.00093738614076234,0.0009374331068873,-0.00098855616848632,0.00098856136333181,-0.0009885443247501,0.00098857354314934,-1.7631309342312e-09,-4.9983547777642e-10,-0.00061163393114086,0.00061163168063009,1.8486825867513e-08,-2.1431717315499e-08,-0.0006862926554943,0.00068630348292712,-0.0006863059626894,0.00068629021079865,-0.0006862922627473,0.00068630385776955,-0.00068630550855693,0.0006862906535973,-0.0006508223445238,0.00065080806964196,-0.00065082366120923,0.00065080672836283,0.70718848255557,128566,2924,0.0032709501222446,0.0043270305020146,0.0025465143321678,40.242987336545,8.1943898692359e-05,8.1943898692359e-05,8.1943898692359e-05,4026125.8653017,0.010196366334826
7419200,0.61585104741057,0.010507053259021,0.0034238019498548,0.0042846335290369,0.0027986177801298,-0.00081678225617824,0.00081678120074932,3.4843704032583e-10,-1.4309581631087e-09,5.6177091312429e-09,-6.9114864305103e-09,-0.00088798008884933,0.00088798383170433,-0.00088798068716547,0.00088798318560243,-0.00088798410466345,0.00088797960961619,-0.00088798470450779,0.00088797905492788,-0.0007813100312259,0.00078130646557735,-0.00078131179870104,0.00078130485009785,-4.1117650888696e-09,8.1685141883516e-09,-1.8442382840569e-08,2.2303435934548e-08,-0.0010872286119848,0.0010872324818229,-0.0011550102641868,0.0011549967121625,-0.0011549970721374,0.0011550102325423,-0.001155006353005,0.0011550007413947,-0.0011549931028136,0.0011550143124432,-0.00097727031288729,0.00097723818063956,-0.0009772307072933,0.00097727870015967,-0.0010311241538124,0.0010311294837073,-0.0010311121420489,0.0010311418312525,-1.9185500677263e-09,-5.3800717119554e-10,-0.00063268905838559,0.00063268660992804,1.8883153360921e-08,-2.2042063837036e-08,-0.00071308666878803,0.00071309758875639,-0.0007131003031401,0.00071308398844133,-0.00071308623048842,0.00071309800742033,-0.00071309981717405,0.00071308446341557,-0.00067279851493723,0.0006727838133072,-0.00067279992748763,0.00067278237515342,0.68501443938249,128566,2924,0.00339733985665,0.0045192193012109,0.0026341824092664,40.770930877325,8.61674470186e-05,8.61674470186e-05,8.61674470186e-05,4062459.9595615,0.0106068728397
7619200,0.64158444451833,0.010875781139037,0.0035407921084583,0.0044500297758962,0.0028849592546825,-0.00084434118199728,0.00084434001865468,3.240001712782e-10,-1.5130860994487e-09,5.7305698717005e-09,-7.1373951551244e-09,-0.0009209605888601,0.00092096435291675,-0.00092096119537876,0.00092096368353433,-0.00092096471182772,0.00092096001913091,-0.00092096533085676,0.00092095944079448,-0.0008071793694019,0.00080717564830126,-0.00080718119435265,0.00080717396673346,-4.2927623481158e-09,8.3287510153148e-09,-1.9214606880008e-08,2.305389092481e-08,-0.0011302371159165,0.001130240963996,-0.0012022865059332,0.0012022723170828,-0.0012022728275307,0.0012022863561595,-0.0012022824794549,0.0012022764648264,-0.0012022687535447,0.0012022905481028,-0.001014138971405,0.0010141054432017,-0.0010140979237953,0.0010141474951161,-0.0010708135317024,0.0010708190143263,-0.0010708011989148,0.0010708316975013,-2.1047280493539e-09,-6.4584403772139e-10,-0.00065139008468624,0.00065138733480938,1.9464781052006e-08,-2.2959089003599e-08,-0.00073763478233435,0.00073764587653773,-0.00073764890831105,0.00073763178379197,-0.00073763431363626,0.00073764632339957,-0.00073764839764875,0.00073763228321001,-0.00069200532944934,0.00069198991442924,-0.00069200681608513,0.00069198840588132,0.67223241132109,128566,2924,0.0035117604235035,0.0046975130662427,0.0027120597857834,40.851752629352,8.6814021034819e-05,8.6814021034819e-05,8.6814021034819e-05,4085293.0294351,0.010981501948112
7819200,0.66610677336988,0.011222891033101,0.0036506952599244,0.0046059145772064,0.0029662811959705,-0.00087028363417423,0.00087028237637958,3.1613514793897e-10,-1.5984431470622e-09,5.7925173843145e-09,-7.2976082249604e-09,-0.00095229645897098,0.00095230022877624,-0.0009522970858891,0.00095229952770754,-0.00095230065419309,0.00095229581853156,-0.00095230129455796,0.00095229521465988,-0.00083145174936455,0.00083144793361082,-0.00083145364097633,0.00083144617643693,-4.4102493919672e-09,8.4344361710587e-09,-1.9606333644613e-08,2.343282218372e-08,-0.0011710368151448,0.0011710406505831,-0.001247205487631,0.0012471909599304,-0.0012471915670446,0.0012472052614905,-0.0012472013886123,0.0012471951827256,-0.0012471874215366,0.0012472095298112,-0.0010490101014847,0.0010489758738516,-0.0010489683256747,0.0010490187186126,-0.0011084495234574,0.0011084550249082,-0.0011084369728019,0.0011084679366583,-2.2145353936716e-09,-6.9711244773e-10,-0.00066873126338077,0.00066872834694305,1.9751554706326e-08,-2.3436675617484e-08,-0.00076034713239287,0.00076035830071415,-0.00076036151105905,0.0007603439553179,-0.00076034664469856,0.00076035876594683,-0.00076036097831223,0.00076034447602929,-0.00070975649556309,0.0007097407325563,-0.00070975804598188,0.00070973916371945,0.66655083648096,128566,2924,0.0036194582543685,0.0048666164570244,0.0027842799601295,40.921631294268,8.7373050354146e-05,8.7373050354146e-05,8.7373050354146e-05,4093472.3903916,0.011334456342831
8019200,0.68941089083716,0.011549281287754,0.0037539716989624,0.0047526769677088,0.0030426326210828,-0.00089474528244514,0.0008947439721188,3.2461118347617e-10,-1.6587052201552e-09,5.8119896028579e-09,-7.3718654871873e-09,-0.00098165746569792,0.00098166123788633,-0.00098165811289114,0.00098166051095298,-0.00098166169169895,0.00098165679550215,-0.00098166235312751,0.0009816561678895,-0.00085427667314541,0.0008542728415964,-0.00085427862889632,0.00085427101647671,-4.4626163794858e-09,8.4767898293012e-09,-1.9679839236067e-08,2.3495638792775e-08,-0.0012095756190713,0.0012095794439734,-0.0012897797450747,0.0012897651302702,-0.0012897657829592,0.0012897794801448,-0.0012897756150626,0.0012897693852555,-0.0012897616066215,0.001289783780945,-0.0010817498882817,0.0010817155467492,-0.001081707992019,0.0010817585406669,-0.0011438736261578,0.0011438790681496,-0.0011438609843635,0.0011438920777122,-2.2688757354736e-09,-6.8425179999632e-10,-0.00068488484171157,0.00068488188178755,1.9791169933667e-08,-2.3530695206025e-08,-0.00078159969613648,0.00078161084613007,-0.00078161411859403,0.00078159645674361,-0.00078159918601231,0.00078161133293818,-0.00078161356288505,0.00078159699993101,-0.00072609827169531,0.0007260824895756,-0.0007260998901248,0.00072608085626392,0.66097249296749,128566,2924,0.0037209992203867,0.0050263193201703,0.0028515586504175,40.991097587788,8.7928780702308e-05,8.7928780702308e-05,8.7928780702308e-05,4097711.6137864,0.011666796460034
8219200,0.71164112910257,0.011857626556206,0.0038515850968525,0.0048914187075664,0.0031146227517868,-0.00091818062006234,0.00091817929645412,3.6046236373619e-10,-1.7074280090962e-09,5.7897345615595e-09,-7.3633777710694e-09,-0.001009797182001,0.0010098009619395,-0.0010097978596349,0.0010098002039134,-0.0010098014013807,0.0010097965268527,-0.0010098020870836,0.0010097958736683,-0.00087624912007135,0.00087624536212884,-0.00087625115147392,0.0008762434621289,-4.4536775996182e-09,8.4554652355176e-09,-1.9432269912905e-08,2.3235535368344e-08,-0.0012463043874961,0.0012463081999126,-0.0013305174991142,0.0013305030504434,-0.0013305037028244,0.0013305172280781,-0.0013305133814435,0.0013305072927667,-0.0013304995329311,0.001330521521961,-0.0011127562114136,0.0011127223376642,-0.0011127148013097,0.0011127648375631,-0.0011775507916837,0.0011775560740718,-0.0011775381717226,0.0011775690643228,-2.2610769258597e-09,-6.2511706026605e-10,-0.00070025044387149,0.00070024755170953,1.9579103328568e-08,-2.3247695523887e-08,-0.00080185857253971,0.000801869612078,-0.00080187283401286,0.00080185538377655,-0.00080185804808355,0.00080187011308329,-0.00080187225789408,0.0008018559470233,-0.00074145242472874,0.00074143692912615,-0.00074145410297952,0.00074143524003536,0.65549139702846,128566,2924,0.0038182710665063,0.0051784954907314,0.002915556494856,41.181509684547,8.9452077476376e-05,8.9452077476376e-05,8.9452077476376e-05,4103477.5072351,0.011983988655437
8419200,0.73284921068683,0.012150948150145,0.0039445626530711,0.0050233206197641,0.0031830648773096,-0.00094062521695026,0.00094062389744439,3.9030843891312e-10,-1.7333791277429e-09,5.7477897461268e-09,-7.3160367672163e-09,-0.0010366040420297,0.0010366078130359,-0.0010366047379762,0.0010366070391723,-0.0010366082303477,0.0010366034101613,-0.0010366089371259,0.0010366027359015,-0.00089738276001777,0.00089737909584499,-0.00089738485335699,0.00089737713664637,-4.4166325512014e-09,8.4028242978386e-09,-1.9115241344204e-08,2.2903221988937e-08,-0.001281287550893,0.0012812913480974,-0.0013694675506874,0.0013694533275073,-0.0013694539603494,0.001369467288628,-0.0013694634603151,0.0013694575417106,-0.0013694498203538,0.0013694715505691,-0.001142121943765,0.0011420886694139,-0.0011420811678216,0.0011421305152823,-0.0012095821763413,0.0012095873234714,-0.0012095696490739,0.0012096002167318,-2.2556682417457e-09,-5.3972644043729e-10,-0.00071489002542109,0.00071488722650577,1.9305326216448e-08,-2.2872959424095e-08,-0.00082116703775386,0.00082117792694329,-0.00082118108313281,0.00082116391482679,-0.00082116648546724,0.00082117845605753,-0.00082118048297819,0.00082116450220041,-0.00075607151668447,0.00075605639651052,-0.00075607326655389,0.00075605463602173,0.65380935200947,128566,2924,0.0039114217980519,0.0053234154210775,0.0029765317836363,41.430829544588,9.1446636356705e-05,9.1446636356705e-05,9.1446636356705e-05,4109287.0327236,0.012286703037551
8619200,0.75301995221771,0.012429443208927,0.0040329660876144,0.0051484615488045,0.0032480155725081,-0.00096195141207431,0.00096195009935692,4.2766401255136e-10,-1.7640922458169e-09,5.7025685511474e-09,-7.2633338580776e-09,-0.0010620021574644,0.0010620059254945,-0.0010620028772227,0.0010620051300345,-0.0010620063143427,0.0010620015557686,-0.0010620070436142,0.0010620008587062,-0.00091747361938826,0.00091747006114343,-0.00091747578016586,0.00091746803592118,-4.3764564998463e-09,8.3450832332591e-09,-1.884422877404e-08,2.2615108376727e-08,-0.0013144184338357,0.0013144222139642,-0.0014064502729716,0.0014064362479716,-0.0014064368599115,0.0014064500202824,-0.0014064462142216,0.0014064404294271,-0.0014064327511026,0.001406454249538,-0.001169837809668,0.0011698050352894,-0.0011697975713283,0.0011698463201561,-0.001239936013096,0.0012399410542536,-0.0012399235820896,0.0012399538506477,-2.2462654353204e-09,-4.624832181955e-10,-0.00072874518533084,0.00072874247526497,1.9077757987236e-08,-2.254774118444e-08,-0.00083946309374359,0.00083947386470346,-0.00083947695649401,0.00083946003524919,-0.00083946251890626,0.00083947441650555,-0.00083947633359102,0.00083946064532613,-0.00076995094213486,0.00076993615724541,-0.00076995275917789,0.00076993433042059,0.65260875525709,128566,2924,0.0039999228794152,0.0054606402512537,0.0030342414459293,41.681607119717,9.3452856957736e-05,9.3452856957736e-05,9.3452856957736e-05,4115521.6053973,0.012573700576537
8819200,0.7721447458882,0.012683078496655,0.0041134418977823,0.0052632302785681,0.0033064063203044,-0.00098160755101511,0.00098160624596853,4.6510937125371e-10,-1.7940587253066e-09,5.6606544788362e-09,-7.2126364471722e-09,-0.0010857117160452,0.0010857154833511,-0.0010857124591399,0.0010857146664026,-0.001085715843189,0.001085711144871,-0.0010857165948343,0.0010857104252243,-0.00093586914639353,0.00093586569225275,-0.00093587137392381,0.0009358636012652,-4.3394318491004e-09,8.2894684480761e-09,-1.8668728671036e-08,2.2421474848511e-08,-0.0013452611887677,0.0013452649507788,-0.0014410439623832,0.0014410300700546,-0.0014410306650975,0.0014410437174869,-0.0014410399333336,0.0014410342206551,-0.0014410265858009,0.0014410479156211,-0.0011955705994265,0.0011955381390254,-0.001195530714336,0.0011955790518746,-0.0012680131275738,0.0012680181196197,-0.0012680007867323,0.0012680308229571,-2.2481598441239e-09,-3.9581725154456e-10,-0.00074134366687659,0.0007413410233862,1.8932688439511e-08,-2.2329054675296e-08,-0.00085642366181698,0.00085643435502277,-0.00085643740469699,0.00085642064549948,-0.00085642306432114,0.00085643492974054,-0.00085643675892734,0.00085642127846725,-0.00078238003775936,0.00078236550448769,-0.0007823819216181,0.00078236361054996,0.6294199284342,128566,2924,0.0040814862800144,0.0055883668197043,0.003086722134067,41.932439797438,9.5459518379507e-05,9.5459518379507e-05,9.5459518379507e-05,4130210.4765463,0.012838837699791
9019200,0.78982324560753,0.012917596547674,0.0041879296320605,0.0053691586844099,0.0033605082312035,-0.00099895531261118,0.00099895400142343,4.8826842240397e-10,-1.823665158049e-09,5.6439964759436e-09,-7.2015227033071e-09,-0.001106654787002,0.0011066585532464,-0.0011066555433047,0.0011066577210372,-0.0011066589015931,0.0011066542275067,-0.0011066596740232,0.0011066534856557,-0.00095197500578391,0.00095197161522551,-0.00095197729304429,0.00095196946075615,-4.3334469189948e-09,8.2668489120286e-09,-1.8868993480731e-08,2.2605338120261e-08,-0.0013728665595108,0.0013728703052109,-0.0014722398309121,0.0014722258011114,-0.0014722264039394,0.0014722395799396,-0.0014722358072555,0.0014722299459399,-0.0014722223370948,0.0014722437648563,-0.0012183686637047,0.0012183358113278,-0.0012183284159093,0.0012183770942608,-0.0012928715627205,0.0012928767053718,-0.0012928592606411,0.0012928893677274,-2.2954306273005e-09,-3.6023609027369e-10,-0.00075213740412416,0.00075213474861,1.9112949925411e-08,-2.2525093871988e-08,-0.00087112932950949,0.00087114010587667,-0.00087114319390621,0.00087112627479599,-0.00087112870100381,0.00087114071170663,-0.00087114252430914,0.00087112693165559,-0.00079305099420716,0.00079303639688714,-0.00079305294827345,0.00079303443079897,0.62977530253071,128566,2924,0.0041534664963073,0.00570267187445,0.0031316915897675,41.750040646861,9.4000325174888e-05,9.4000325174888e-05,9.4000325174888e-05,4131875.9198859,0.013073125940342
9219200,0.8060493358934,0.013130324066098,0.0042555201612341,0.0054653282768143,0.0034094756280494,-0.0010144579765418,0.0010144566581652,5.2198226721732e-10,-1.8645284277794e-09,5.6316180894882e-09,-7.1962053198672e-09,-0.0011254197834085,0.0011254235624791,-0.0011254205640346,0.0011254227028991,-0.0011254238933752,0.0011254192408363,-0.0011254246881074,0.0011254184750739,-0.00096622461382865,0.00096622129001396,-0.00096622696713922,0.00096621906533452,-4.3325564921967e-09,8.2508785583825e-09,-1.9076127143822e-08,2.2797584623027e-08,-0.0013977333550474,0.0013977370858795,-0.0015004554861653,0.0015004413162896,-0.0015004419303925,0.0015004552276201,-0.00150045146909,0.0015004454541311,-0.0015004378672944,0.0015004594084495,-0.0012388541474894,0.0012388208778452,-0.0012388135087706,0.001238862563585,-0.0013150765430311,0.0013150818148642,-0.0013150642528001,0.0013150944652142,-2.3368688230759e-09,-3.4062333075724e-10,-0.00076164772815238,0.00076164504948906,1.9300146645945e-08,-2.2740327987015e-08,-0.00088424758849037,0.00088425845749447,-0.00088426158778325,0.00088424449141245,-0.00088424694062173,0.00088425908260524,-0.00088426089587391,0.00088424517050956,-0.00080252915558333,0.0008025144680954,-0.00080253117422988,0.00080251243757615,0.62300580411356,128566,2924,0.004217787285783,0.0058056241358843,0.0031713186032129,41.452193049396,9.1617544395172e-05,9.1617544395172e-05,9.1617544395172e-05,4130838.0036702,0.013282788204507
9419200,0.82093233242793,0.013323153085102,0.0043168008971849,0.0055525622701339,0.0034537899177829,-0.0010284465922149,0.0010284452699196,5.5435287644794e-10,-1.9006725254283e-09,5.6141591001627e-09,-7.1829091114101e-09,-0.0011423854735723,0.0011423892617688,-0.0011423862760338,0.0011423883778402,-0.0011423895737705,0.0011423849497937,-0.0011423903901372,0.0011423841607436,-0.00097899988048334,0.00097899663021162,-0.00097900229942619,0.00097899433756825,-4.3246492414048e-09,8.2283698387731e-09,-1.9189894460132e-08,2.2896959366432e-08,-0.0014202792067365,0.0014202829232063,-0.0015261051226971,0.0015260908777105,-0.0015260914972893,0.0015261048606647,-0.0015261011153214,0.0015260950054558,-0.0015260874436459,0.001526109031583,-0.0012574034744388,0.0012573699699142,-0.0012573626286518,0.0012574118696905,-0.0013351109236424,0.0013351162808365,-0.0013350986630639,0.0013351289027007,-2.3741701650124e-09,-3.1074296619859e-10,-0.00077016700425238,0.00077016431726245,1.9401374708644e-08,-2.2852902331303e-08,-0.00089607709307004,0.00089608800373844,-0.00089609116361508,0.00089607396631444,-0.00089607642301413,0.0008960886509271,-0.00089609044885192,0.00089607466820887,-0.00081106035793699,0.0008110456586596,-0.00081106244349874,0.00081104356214975,0.61620824217266,128566,2924,0.0042758231931384,0.0058989569430629,0.0032068181790945,41.151422857471,8.9211382859769e-05,8.9211382859769e-05,8.9211382859769e-05,4130831.3910753,0.013472190187729
9619200,0.83457855341892,0.013497843788643,0.0043723196662038,0.0056316483869462,0.0034938757354934,-0.0010410673418042,0.0010410660211542,5.8891422251225e-10,-1.9334937008461e-09,5.5979578958539e-09,-7.1644382161539e-09,-0.0011577209502688,0.0011577247511117,-0.0011577217741706,0.0011577238436108,-0.0011577250392754,0.0011577204504358,-0.0011577258772799,0.0011577196382042,-0.00099046626351031,0.00099046309271091,-0.00099046874769005,0.00099046073256793,-4.3143035642817e-09,8.2040823353868e-09,-1.9253699343466e-08,2.2947030192626e-08,-0.0014407182960465,0.00144072199883,-0.0015494206814167,0.0015494063960517,-0.0015494070186635,0.0015494204174402,-0.0015494166847094,0.0015494105123034,-0.0015494029755954,0.0015494245767849,-0.001274179466998,0.001274145825398,-0.0012741385119409,0.0012741878401692,-0.0013531880150436,0.0013531934302489,-0.0013531757877608,0.0013532060172474,-2.4082930031989e-09,-2.7659238368087e-10,-0.00077779307765312,0.00077779038989526,1.9456817581843e-08,-2.2911466321552e-08,-0.00090673199982919,0.0009067429259263,-0.00090674610828312,0.00090672885058353,-0.00090673130708004,0.00090674359589176,-0.00090674537067793,0.00090672957529808,-0.00081869536667801,0.00081868069639828,-0.0008186975191388,0.00081867853341001,0.6093804074089,128566,2924,0.0043281814614609,0.0059835599159174,0.0032385975926032,40.850541837454,8.6804334699634e-05,8.6804334699634e-05,8.6804334699634e-05,4130998.5947318,0.013643250604827
9819200,0.84685331851641,0.013655885029496,0.0044225853115877,0.0057029917964783,0.0035303079214296,-0.0010516406682109,0.0010516393436994,6.2170593367078e-10,-1.9708715077944e-09,5.5968501625988e-09,-7.1654675879426e-09,-0.0011706871217867,0.0011706909429744,-0.0011706879685749,0.001170690009513,-0.0011706912117301,0.0011706866409329,-0.0011706920712614,0.0011706858054244,-0.00099999053665893,0.00099998742635775,-0.00099999308427822,0.0009999849965129,-4.3199929120054e-09,8.1982228869183e-09,-1.9408981823222e-08,2.3090891207065e-08,-0.0014582936591999,0.0014582973505552,-0.0015695880393857,0.0015695736446273,-0.0015695742807424,0.0015695877657373,-0.0015695840430771,0.0015695777597622,-0.0015695702360209,0.0015695919259295,-0.0012884564969813,0.0012884225466292,-0.0012884152520408,0.0012884648661216,-0.0013686481784619,0.0013686536782356,-0.0013686359442071,0.0013686662640829,-2.4491512498035e-09,-2.5237946303395e-10,-0.0007839620834543,0.00078395937748834,1.9595759716433e-08,-2.3074514093473e-08,-0.00091553359243158,0.00091554458162193,-0.00091554780202016,0.00091553040505238,-0.00091553287912173,0.00091554527248793,-0.0009155470418547,0.00091553115264098,-0.0008249241099861,0.00082490938972742,-0.000824926326401,0.0008249071588099,0.61213711324262,128566,2924,0.0043720441711557,0.0060563019600034,0.0032643127007254,40.184264020991,8.1474112167927e-05,8.1474112167927e-05,8.1474112167927e-05,4122709.2257135,0.013787550724303
10019200,0.85788598631219,0.013799014361187,0.0044681292803765,0.0057673921328893,0.0035634929479216,-0.0010609249582897,0.0010609236313139,6.5329022693568e-10,-2.0053959132393e-09,5.5977980147584e-09,-7.1671312031791e-09,-0.001182102696536,0.0011821065373805,-0.0011821035638401,0.0011821055809018,-0.0011821067870046,0.0011821022345103,-0.0011821076679082,0.0011821013755966,-0.0010084175726133,0.0010084145236614,-0.0010084201851704,0.0010084120265365,-4.3265774823807e-09,8.1942404388146e-09,-1.9484720343345e-08,2.3156111393986e-08,-0.001473850457621,0.001473854138559,-0.0015874560676634,0.0015874416144923,-0.0015874422631398,0.0015874557835067,-0.0015874520694371,0.0015874457309167,-0.0015874382175585,0.001587459944231,-0.0013010616067164,0.0013010275094068,-0.0013010202287445,0.0013010699710988,-0.0013823783865163,0.0013823839210165,-0.0013823661458595,0.0013823965030311,-2.4870783226336e-09,-2.2116937005486e-10,-0.0007893612486518,0.00078935853511691,1.9660190601819e-08,-2.3150383885003e-08,-0.00092325946081359,0.00092327046736425,-0.00092327371659236,0.00092325624440141,-0.00092325872425552,0.00092327118184343,-0.00092327293387664,0.00092325701478477,-0.00083039306385073,0.00083037835767359,-0.00083039534586363,0.00083037605943361,0.61574677207998,128566,2924,0.0044105578793679,0.0061206838260409,0.0032868213345218,39.480096763546,7.5840774108368e-05,7.5840774108368e-05,7.5840774108368e-05,4112190.3631832,0.013914717343095
10219200,0.86781589517957,0.013928993174965,0.0045095034709193,0.0058256764163966,0.0035938132876486,-0.0010691429747829,0.0010691416449737,6.8521469091522e-10,-2.03970469561e-09,5.5903604422487e-09,-7.1645592081047e-09,-0.001192234684745,0.0011922385421106,-0.0011922355734262,0.001192237563145,-0.0011922387718839,0.0011922342427329,-0.001192239674877,0.0011922333610563,-0.0010160049456407,0.0010160019651025,-0.0010160076251845,0.0010159994033251,-4.3263213359117e-09,8.1847466309028e-09,-1.9461781469818e-08,2.3123959082688e-08,-0.0014876851423422,0.0014876888141133,-0.0016033543797087,0.0016033399383723,-0.0016033405930855,0.001603354089515,-0.0016033503843224,0.0016033440520131,-0.0016033365505182,0.0016033582468325,-0.0013122407374775,0.0013122066824849,-0.0013121994131387,0.0013122490882674,-0.0013946500299264,0.0013946555475499,-0.0013946378050944,0.0013946681245648,-2.5167639837901e-09,-1.8183126742178e-10,-0.00079415119930116,0.00079414849523847,1.9636867574204e-08,-2.311686747182e-08,-0.00093011924912407,0.00093013022308193,-0.00093013348565475,0.0009301160193124,-0.00093011848911257,0.00093013096056538,-0.0009301326801039,0.0009301168122138,-0.00083528955463672,0.00083527494260245,-0.00083529190524013,0.00083527257931137,0.62007023128386,128566,2924,0.0044446473994597,0.0061779339275425,0.0033067923089718,38.774899342119,7.0199194736952e-05,7.0199194736952e-05,7.0199194736952e-05,4100885.3597452,0.014027606212787
10419200,0.87678098532081,0.014047530248113,0.0045472475481396,0.0058786430988892,0.0036216396010843,-0.001076515192488,0.0010765138624926,7.1872472190898e-10,-2.0726793402098e-09,5.5770560818275e-09,-7.1534961411915e-09,-0.0012013201225262,0.0012013239943459,-0.0012013210330829,0.0012013229933818,-0.001201324201718,0.0012013197033878,-0.0012013251269644,0.0012013187990608,-0.001022861828477,0.0010228589240765,-0.0010228645749915,0.0010228562972456,-4.3191009266667e-09,8.1683832239113e-09,-1.9355400758558e-08,2.3008544361469e-08,-0.0015001115218614,0.0015001151845744,-0.0016176339223426,0.0016176195522451,-0.0016176202071243,0.0016176336293633,-0.0016176299343235,0.0016176236586096,-0.001617616172363,0.0016176377787731,-0.0013222659264293,0.0013222320732352,-0.0013222248158722,0.0013222742557175,-0.0014057263048932,0.001405731764164,-0.0014057141097957,0.0014057443227808,-2.5394223882531e-09,-1.3569243850716e-10,-0.00079847379799536,0.00079847111786034,1.9538813950763e-08,-2.2992002761763e-08,-0.0009362886306489,0.00093629953090099,-0.00093630279302845,0.0009362854014347,-0.00093628784725699,0.00093630029144318,-0.00093630196456456,0.00093628621681938,-0.00083973692384746,0.00083972247474675,-0.00083973934287935,0.00083972004663787,0.62506142995244,128566,2924,0.0044752276384763,0.006229352373526,0.0033248160343045,38.09984828902,6.479878631216e-05,6.479878631216e-05,6.479878631216e-05,4088192.3062948,0.014129057775942
10619200,0.88515063591169,0.014156095673309,0.004581782074813,0.0059272682556766,0.0036470453428192,-0.0010843610967092,0.0010843597800272,7.6205255526238e-10,-2.1025218890375e-09,5.5367240389731e-09,-7.0980980710351e-09,-0.0012108114699882,0.0012108153496297,-0.0012108124085376,0.0012108143229559,-0.0012108155207298,0.0012108110886223,-0.0012108164678835,0.0012108101622511,-0.001030213976466,0.0010302111823394,-0.0010302167886334,0.0010302084904131,-4.2735079317367e-09,8.1102550927446e-09,-1.8931633614882e-08,2.2572817599035e-08,-0.0015126945851433,0.0015126982358335,-0.0016319539761178,0.0016319399129749,-0.0016319405406018,0.0016319536999604,-0.0016319500238601,0.0016319439822955,-0.0016319365368154,0.0016319578172387,-0.001332584705758,0.0013325516427347,-0.0013325444214635,0.0013325929784537,-0.0014170121426395,0.0014170173991595,-0.0014170000390595,0.0014170298600244,-2.5332809601379e-09,-6.7184785359289e-11,-0.00080340060895401,0.00080339800512065,1.9164270602217e-08,-2.2532251332581e-08,-0.00094301476975672,0.00094302544888198,-0.00094302865747515,0.00094301159405367,-0.00094301396806116,0.00094302622792933,-0.00094302780578909,0.00094301243267065,-0.00084477234849748,0.0008447583173024,-0.00084477483523865,0.00084475582209955,0.61395112740072,128566,2924,0.0045077711121583,0.0062814168015111,0.0033453483394135,38.029497319747,6.423597855798e-05,6.423597855798e-05,6.423597855798e-05,4085215.0041124,0.014235710483244
10819200,0.89296663672191,0.014255686894403,0.00461344245278,0.00597198385203,0.0036702605895927,-0.0010916031652154,0.0010916018623627,8.0027216450309e-10,-2.1270868235308e-09,5.497546951343e-09,-7.0445941948359e-09,-0.0012195975663005,0.0012196014483709,-0.0012195985256052,0.0012196004043182,-0.001219601585639,0.0012195972207683,-0.0012196025561167,0.0012195962717392,-0.0010369720046961,0.0010369693229751,-0.0010369748864003,0.0010369665644957,-4.2361818933157e-09,8.0608420587495e-09,-1.8589877330479e-08,2.2219413860276e-08,-0.0015243486963911,0.0015243523354761,-0.0016452542131569,0.0016452403935294,-0.0016452409991559,0.0016452539492288,-0.001645250286931,0.0016452444359061,-0.0016452370251375,0.0016452580351981,-0.0013421137907132,0.0013420813762372,-0.0013420741847547,0.0013421220127386,-0.0014274341351066,0.0014274392418264,-0.0014274221236878,0.0014274516105131,-2.5354551445343e-09,3.4191569947111e-12,-0.0008079315107499,0.00080792897727541,1.8850218053748e-08,-2.2138972931911e-08,-0.00094921662393474,0.0009492271105273,-0.00094923027544997,0.00094921349220978,-0.00094921579613845,0.00094922791593101,-0.00094922940158166,0.00094921435295672,-0.00084935063163669,0.0008493369675797,-0.00084935318331568,0.00084933440729971,0.60386754131936,128566,2924,0.0045378091005878,0.0063296350221642,0.0033642305668094,37.973675463277,6.3789403706217e-05,6.3789403706217e-05,6.3789403706217e-05,4085641.1754006,0.014334256900849
11019200,0.90026230783282,0.014346856238792,0.0046424063587361,0.0060130292095248,0.0036914206705312,-0.0010982493861386,0.0010982480935523,8.3896968977613e-10,-2.1559163412067e-09,5.4750918524632e-09,-7.010240428614e-09,-0.0012276871971314,0.0012276910930354,-0.001227688180257,0.0012276900274357,-0.0012276911984993,0.0012276868845122,-0.0012276921916575,0.0012276859133091,-0.0010431557513897,0.0010431531629916,-0.001043158699217,0.0010431503394481,-4.2132959344072e-09,8.0267693515885e-09,-1.8355046557809e-08,2.1973805046692e-08,-0.0015350959520734,0.0015350995803522,-0.0016575615128264,0.0016575478589807,-0.00165754845252,0.0016575612525866,-0.0016575576049719,0.0016575518819973,-0.0016575444964283,0.0016575653196249,-0.0013508620547157,0.0013508300823032,-0.0013508229124122,0.0013508702393877,-0.0014370205607786,0.0014370255529729,-0.0014370086019306,0.0014370378627578,-2.5441425259422e-09,6.2751321016872e-11,-0.00081205955907096,0.00081205707787843,1.86415162018e-08,-2.1871724556132e-08,-0.00095489431485511,0.00095490467167809,-0.00095490780876139,0.000954891210903,-0.00095489346464456,0.00095490549982748,-0.00095490691221354,0.00095489209457942,-0.00085347240943621,0.00085345902033794,-0.00085347502718617,0.00085345639212067,0.5932072005998,128566,2924,0.0045653750665705,0.0063740991548249,0.0033814337476473,37.918398020698,6.3347184165586e-05,6.3347184165586e-05,6.3347184165586e-05,4088407.1680969,0.014424792619992
11219200,0.9070601888067,0.014431756264322,0.0046693850361409,0.0060512072877547,0.0037111639404267,-0.0011043674848623,0.0011043661954085,8.7418436289829e-10,-2.1882213415641e-09,5.4714063847631e-09,-7.0028759508879e-09,-0.0012351178606669,0.0012351217785238,-0.0012351188669907,0.0012351206911261,-0.0012351218588671,0.0012351175739169,-0.0012351228747407,0.0012351165803494,-0.001048863528159,0.0010488610123609,-0.0010488665426708,0.0010488581228766,-4.2123010952695e-09,8.0170816971867e-09,-1.8287200742805e-08,2.1897392601746e-08,-0.0015449982169933,0.0015450018367505,-0.001668926443055,0.0016689128309105,-0.0016689134273385,0.0016689261755255,-0.0016689225382599,0.0016689168503927,-0.0016689094743287,0.001668930238849,-0.001358888197451,0.001358856354971,-0.0013588491929537,0.0013588963660199,-0.0014458667349209,0.0014458716814994,-0.0014458547856606,0.0014458839793927,-2.5665078297453e-09,1.0840730839475e-10,-0.00081583927766275,0.00081583682084081,1.8583624310298e-08,-2.1786465104891e-08,-0.00096007831483738,0.00096008862508069,-0.00096009176141998,0.00096007521157236,-0.00096007744194779,0.00096008947600429,-0.00096009084225357,0.00096007611794472,-0.00085723372167612,0.00085722046947927,-0.00085723640558694,0.00085721777444482,0.59263236588915,128566,2924,0.0045907500837171,0.0064150660399266,0.0033971846959147,37.837603680729,6.2700829445833e-05,6.2700829445833e-05,6.2700829445833e-05,4091512.1356254,0.014508090633239
11419200,0.91335039926112,0.014510898246857,0.0046945496005751,0.0060867031097849,0.0037296455364972,-0.0011097925426321,0.0011097912490777,9.0734153215519e-10,-2.2256601207924e-09,5.4835523480799e-09,-7.0187575809503e-09,-0.0012417326984841,0.0012417366438612,-0.001241733727034,0.0012417355341736,-0.0012417367051127,0.0012417324310095,-0.0012417377454949,0.0012417314129585,-0.0010539411074711,0.0010539386489702,-0.0010539441938507,0.0010539356885335,-4.234084440215e-09,8.0328997537207e-09,-1.8391959705491e-08,2.1996004132996e-08,-0.0015538989001863,0.0015539025140551,-0.0016791729969895,0.0016791592983914,-0.0016791599133412,0.0016791727116607,-0.0016791690787534,0.0016791633317212,-0.001679155948781,0.0016791767861471,-0.0013660575781499,0.0013660255466549,-0.0013660183794229,0.0013660657552009,-0.0014538067519943,0.0014538117266499,-0.0014537947673056,0.0014538240561339,-2.6013934734173e-09,1.3838925153728e-10,-0.00081912620304758,0.00081912374133259,1.8670046326812e-08,-2.1879197218407e-08,-0.00096463919364715,0.00096464953625241,-0.00096465269906916,0.00096463606395298,-0.00096463829782687,0.00096465041014334,-0.00096465175928364,0.00096463699105683,-0.00086051774313591,0.00086050448872756,-0.00086052048782947,0.00086050173205945,0.59626238439622,128566,2924,0.0046132506123154,0.0064518874412799,0.0034108843393262,37.630570115634,6.104456092507e-05,6.104456092507e-05,6.104456092507e-05,4090855.6848996,0.014582190338823
11619200,0.91917111158402,0.014584519528138,0.0047179696709743,0.0061196521340115,0.0037468977231526,-0.0011147856948141,0.001114784394294,9.3629932213407e-10,-2.2613725157884e-09,5.5010291398395e-09,-7.0440183198991e-09,-0.0012478202784142,0.0012478242536777,-0.0012478213287976,0.0012478231207006,-0.0012478242996328,0.0012478200256026,-0.0012478253608728,0.0012478189863763,-0.0010586368540726,0.001058634436789,-0.0010586400008199,0.0010586314134289,-4.2540361762914e-09,8.0483367971296e-09,-1.8526695383879e-08,2.2126168925374e-08,-0.0015621000866299,0.0015621036957514,-0.0016886090502949,0.0016885952479902,-0.0016885958805289,0.001688608748978,-0.0016886051209974,0.0016885992924209,-0.001688591903496,0.0016886128363602,-0.001372659455448,0.0013726271680533,-0.0013726199957949,0.0013726676410314,-0.0014611313221721,0.001461136342174,-0.0014611193021854,0.0014611487110626,-2.6449156596127e-09,1.6560812837405e-10,-0.00082215290353613,0.00082215042503777,1.8802429409541e-08,-2.2030350226224e-08,-0.00096884260499757,0.00096885300248388,-0.00096885620494365,0.00096883943542793,-0.00096884168641349,0.00096885389883519,-0.0009688552409184,0.00096884038666501,-0.00086356648279256,0.00086355318823867,-0.00086356929857457,0.00086355036139954,0.59873359397605,128566,2924,0.0046339595416386,0.0064858133957812,0.0034235001991716,37.420497882972,5.9363983063776e-05,5.9363983063776e-05,5.9363983063776e-05,4087993.1982222,0.014650438956864
11819200,0.92455872368971,0.014653151465668,0.0047398138734079,0.0061502942475342,0.0037630433447261,-0.001119391425277,0.0011193901185516,9.669306026397e-10,-2.29801111017e-09,5.5129621246719e-09,-7.0625084353329e-09,-0.0012534332630263,0.0012534372648185,-0.0012534343353841,0.001253436108727,-0.0012534372944017,0.0012534330264875,-0.0012534383776252,0.0012534319645151,-0.0010629918943895,0.0010629895274688,-0.0010629951064534,0.0010629864371444,-4.2711699615131e-09,8.0613641085659e-09,-1.8662392412193e-08,2.2257626497201e-08,-0.0015696687303096,0.0015696723352127,-0.0016973118858651,0.0016972979808427,-0.0016972986290372,0.0016973115715122,-0.0016973079465876,0.0016973020355434,-0.0016972946419317,0.0016973156691559,-0.0013787518457517,0.0013787193014084,-0.0013787121265323,0.0013787600403141,-0.0014679060309107,0.001467911105426,-0.0014678939814923,0.0014679235049256,-2.6875726391956e-09,1.911490138202e-10,-0.00082495141250962,0.00082494891626013,1.892592305363e-08,-2.2174406370971e-08,-0.00097272535659303,0.00097273580332788,-0.00097273904545034,0.00097272214742155,-0.00097272441529389,0.0009727367222901,-0.00097273805852028,0.00097272312138601,-0.00086640484248997,0.00086639150929337,-0.00086640772571009,0.00086638861603372,0.60218092533733,128566,2924,0.0046530614333818,0.0065171212072528,0.0034351655544801,37.210311803721,5.7682494429768e-05,5.7682494429768e-05,5.7682494429768e-05,4083669.8724204,0.014713439229795
12019200,0.9295542825614,0.014718868590734,0.0047607638811781,0.0061794273018155,0.0037786774077405,-0.0011237862437826,0.0011237849337452,9.9909730567121e-10,-2.3331405140395e-09,5.51661996392e-09,-7.0698050911309e-09,-0.0012587270435183,0.001258731068381,-0.0012587281377573,0.0012587298892851,-0.0012587310785476,0.0012587268262821,-0.0012587321839026,0.0012587257415466,-0.0010672026488046,0.001067200341894,-0.0010672059265594,0.0010671971846635,-4.2785938636003e-09,8.0646476087866e-09,-1.8752745076452e-08,2.2343738392718e-08,-0.0015767942839427,0.0015767978846189,-0.0017054653702911,0.0017054513990737,-0.001705452056141,0.0017054650490038,-0.0017054614273634,0.0017054554575222,-0.0017054480654036,0.0017054691503278,-0.001384517096371,0.0013844843780266,-0.0013844772059896,0.0013845252924788,-0.0014743490298687,0.0014743541481145,-0.0014743369707606,0.001474366559097,-2.7271881054941e-09,2.1970553359299e-10,-0.00082766986501682,0.00082766735714361,1.9007406686185e-08,-2.226940250683e-08,-0.00097642368752327,0.0009764341590966,-0.00097643743495932,0.00097642044461065,-0.00097642272332958,0.00097643510066946,-0.00097643642517043,0.00097642144113673,-0.00086921894889112,0.00086920561291111,-0.0008692218994399,0.00086920265365599,0.61929850555483,128566,2924,0.0046712882958889,0.0065465952234837,0.0034464964985301,37.027949396779,5.6223595174231e-05,5.6223595174231e-05,5.6223595174231e-05,4077175.3043146,0.0147733536774
12219200,0.93420427671205,0.014782140628169,0.0047809668116453,0.0062072859710827,0.0037938878454406,-0.0011280904290219,0.0011280891198466,1.0347954774971e-09,-2.3677603019575e-09,5.5087189746869e-09,-7.0611981503023e-09,-0.0012638602545321,0.001263864298246,-0.001263861371772,0.0012638630955397,-0.0012638642841587,0.0012638600616072,-0.0012638654127799,0.0012638589531707,-0.0010713919376834,0.0010713897065253,-0.0010713952844031,0.0010713864802769,-4.2762141876507e-09,8.0575140136543e-09,-1.8775476897422e-08,2.2361757032319e-08,-0.0015836602997167,0.0015836638957007,-0.00171324553245,0.0017132315461243,-0.0017132322050529,0.0017132452098242,-0.0017132415924914,0.0017132356015866,-0.0017132282173734,0.0017132493078543,-0.0013901360915316,0.001390103325584,-0.0013900961616267,0.0013901442801921,-0.0014806126234751,0.0014806177602363,-0.0014806005744654,0.0014806301621172,-2.7593072876961e-09,2.5271881954506e-10,-0.00083040000630105,0.00083039749907253,1.9021668838456e-08,-2.2283338767657e-08,-0.00098008789201046,0.00098009835214166,-0.00098010164884447,0.00098008462827348,-0.00098008690587171,0.00098009931553279,-0.00098010061730652,0.00098008564638794,-0.00087211108550309,0.00087209780474851,-0.00087211410028293,0.0008720947824394,0.63789981271603,128566,2924,0.004689139098859,0.0065749937964839,0.0034578764310804,36.91428928238,5.5314314259037e-05,5.5314314259037e-05,5.5314314259037e-05,4066810.9468651,0.014831847739147
12419200,0.93853308538042,0.0148390677043,0.0047991189997348,0.0062325069048084,0.0038074417997564,-0.0011319805908117,0.0011319792833233,1.0679878990668e-09,-2.3993057259587e-09,5.5017673802022e-09,-7.0520874533338e-09,-0.0012685894230837,0.0012685934848,-0.0012685905618276,0.0012685922601006,-0.0012685934475204,0.0012685892534649,-0.0012685945975542,0.0012685881232245,-0.0010751686237986,0.0010751664628583,-0.001075172033251,0.001075163172349,-4.2676479981654e-09,8.0439052628628e-09,-1.8766659044095e-08,2.2348016716371e-08,-0.0015900060007611,0.0015900095918352,-0.0017204270852806,0.0017204131086383,-0.0017204137650355,0.0017204267647783,-0.0017204231523619,0.0017204171566476,-0.0017204097842779,0.0017204308555063,-0.0013953390294261,0.0013953062732502,-0.0013952991220772,0.0013953472063701,-0.0014863345245849,0.0014863396704215,-0.0014863224965057,0.0014863520497258,-2.7926098996146e-09,2.9010983316589e-10,-0.00083283322758616,0.0008328307242151,1.9017789966865e-08,-2.2275785017752e-08,-0.00098348028344353,0.0009834907202656,-0.00098349403646303,0.00098347700018991,-0.00098347927385089,0.00098349170707599,-0.00098349298137438,0.00098347804185246,-0.00087466144737146,0.00087464824373003,-0.00087466453105697,0.00087464515214926,0.61826606633563,128566,2924,0.0047052728409513,0.0066012371154766,0.0034680229377717,36.802286098775,5.4418288790203e-05,5.4418288790203e-05,5.4418288790203e-05,4054678.8717415,0.014885164459087
12619200,0.94256308015646,0.014889148942971,0.0048150477915703,0.0062549222801525,0.0038191788712481,-0.001135434749338,0.0011354334441173,1.1029206677145e-09,-2.4320259076645e-09,5.4930998860746e-09,-7.0407395118291e-09,-0.0012728456599095,0.0012728497397534,-0.001272846821204,0.0012728484924915,-0.001272849677898,0.0012728455151373,-0.0012728508503606,0.0012728443621652,-0.0010784510321476,0.0010784489463994,-0.0010784545078642,0.0010784455892682,-4.2601837059003e-09,8.0316211090765e-09,-1.8736835261309e-08,2.231349488293e-08,-0.00159573254695,0.0015957361333282,-0.0017269677802718,0.0017269538262087,-0.0017269544803967,0.0017269674610185,-0.0017269638535246,0.0017269578677033,-0.001726950505885,0.0017269715451316,-0.0013999927312646,0.0013999600269795,-0.0013999528864427,0.0014000008965321,-0.001491422264188,0.0014914274035529,-0.0014914102548713,0.0014914397626687,-2.8223438051245e-09,3.2814462849324e-10,-0.00083495638139353,0.00083495388646547,1.8990288088705e-08,-2.2239370009553e-08,-0.00098648816810152,0.00098649856941318,-0.00098650189993392,0.00098648487055419,-0.00098648713593099,0.00098649957886083,-0.00098650082223521,0.00098648593477491,-0.00087681684943965,0.00087680374148608,-0.00087681999927727,0.0008768005837193,0.58731202341069,128566,2924,0.0047195980132823,0.0066249195892239,0.0034768765015716,36.690344983662,5.3522759869298e-05,5.3522759869298e-05,5.3522759869298e-05,4049388.8045679,0.014932736368004
12819200,0.94628116994086,0.014935748117601,0.0048298759439015,0.0062757193268734,0.0038301528468266,-0.0011382938825144,0.0011382925751475,1.1345534347449e-09,-2.4660320460167e-09,5.4967609799734e-09,-7.045934190547e-09,-0.001276370383502,0.0012763744859292,-0.0012763715664517,0.0012763732165104,-0.0012763744044274,0.0012763702583926,-0.0012763755986474,0.0012763690832346,-0.0010811375958805,0.0010811355689542,-0.0010811411353168,0.0010811321463097,-4.2651833826931e-09,8.033242286433e-09,-1.8756815750978e-08,2.2330061113608e-08,-0.0016005990823823,0.0016006026653708,-0.0017326134482628,0.001732599476248,-0.0017326001361968,0.0017326131234511,-0.0017326095190713,0.0017326035199796,-0.0017325961593388,0.0017326172097331,-0.0014038568987768,0.0014038241574663,-0.0014038170197398,0.0014038650644797,-0.0014957343226659,0.0014957394643927,-0.0014957223055495,0.0014957518284174,-2.8574297709966e-09,3.6279867081812e-10,-0.00083663384550926,0.00083663134988691,1.9010061820925e-08,-2.2260896867012e-08,-0.00098886773685935,0.00098887812810787,-0.00098888148230427,0.0009888644156165,-0.00098886668146662,0.00098887916084375,-0.00098888038144909,0.00098886550303838,-0.00087849785943811,0.00087848480582316,-0.00087850107660782,0.00087848157945619,0.59134553673398,128566,2924,0.0047314554575588,0.0066450467317463,0.0034838714858473,36.406901373921,5.1255210991365e-05,5.1255210991365e-05,5.1255210991365e-05,4047870.2112052,0.014972307949074
13019200,0.94966855123091,0.01497835943603,0.0048434377352476,0.0062947046377874,0.003840217062995,-0.0011403786196997,0.0011403773048201,1.1641245070895e-09,-2.5032473764081e-09,5.5130933798845e-09,-7.0696888455645e-09,-0.0012790459345959,0.0012790500650365,-0.0012790471392844,0.0012790487728897,-0.0012790499686666,0.0012790458241323,-0.0012790511849307,0.0012790446263545,-0.0010830912731996,0.0010830892907832,-0.0010830948774744,0.0010830858016292,-4.2855848654418e-09,8.0521794723267e-09,-1.8841163249219e-08,2.2412743086613e-08,-0.0016044930737391,0.001604496655103,-0.0017372109623431,0.0017371969204621,-0.001737197596072,0.0017372106238245,-0.0017372070201106,0.0017372009774222,-0.0017371936062865,0.0017372147232167,-0.001406854541231,0.0014068216474547,-0.0014068145016501,0.0014068627216487,-0.0014991307248957,0.0014991358817984,-0.0014991186684641,0.0014991482837152,-2.8972840534076e-09,3.9139437360759e-10,-0.00083769901749263,0.00083769651008046,1.9086837617036e-08,-2.2351978470574e-08,-0.00099055139687742,0.00099056180982293,-0.00099056519794403,0.00099054804169053,-0.00099055031856327,0.00099056286544226,-0.00099056407430816,0.00099054915187506,-0.00087954647432562,0.00087953342103333,-0.00087954975791728,0.00087953012760327,0.59302696749992,128566,2924,0.0047401020901176,0.0066611503463065,0.0034883195685088,35.874205867218,4.6993646937747e-05,4.6993646937747e-05,4.6993646937747e-05,4041154.5643827,0.015001952047907
13219200,0.95275819711505,0.015017403953455,0.0048558660658297,0.0063120656437683,0.0038494722438573,-0.001142183912614,0.0011421825923503,1.1961547406798e-09,-2.5403754841905e-09,5.521656871364e-09,-7.0845497771615e-09,-0.0012813812170401,0.0012813853731991,-0.0012813824445257,0.001281384057729,-0.0012813852589663,0.001281381124379,-0.0012813864980079,0.0012813799035078,-0.0010847897047482,0.0010847877771972,-0.0010847933762702,0.0010847842207861,-4.2991950800708e-09,8.0641948178544e-09,-1.887806565417e-08,2.2447932008733e-08,-0.0016079390259743,0.0016079426056323,-0.0017412912229704,0.0017412771472118,-0.0017412778334897,0.0017412908747022,-0.0017412872724832,0.0017412812127917,-0.0017412738352915,0.0017412949827965,-0.0014094899933173,0.0014094570353305,-0.0014094498829399,0.0014094981806669,-0.0015021297900301,0.0015021349435913,-0.0015021177097413,0.0015021473727075,-2.9321553850076e-09,4.2261618868538e-10,-0.0008385932705225,0.00083859075936976,1.9119057776174e-08,-2.2388398109218e-08,-0.0009920029228186,0.0009920133330531,-0.00099201674679584,0.00099199954204074,-0.00099200182236804,0.00099201441061913,-0.00099201560091266,0.00099200067428628,-0.00088043073068357,0.00088041771565075,-0.00088043407980346,0.00088041435819067,0.59512403653266,128566,2924,0.0047475900146361,0.0066754006123426,0.0034920554773265,35.335479534776,4.2683836278211e-05,4.2683836278211e-05,4.2683836278211e-05,4033361.4496708,0.015027816026924
13419200,0.95558042119197,0.015052485309103,0.0048670233323002,0.0063276978460109,0.0038577641307921,-0.001143710400755,0.0011437090774872,1.2285149308482e-09,-2.5754833929463e-09,5.5246590373925e-09,-7.0906924478012e-09,-0.0012834015860412,0.0012834057646922,-0.0012834028358097,0.001283404426567,-0.0012834056310236,0.0012834015128064,-0.0012834068924139,0.0012834002692947,-0.0010862153431777,0.0010862134761235,-0.0010862190806243,0.0010862098533979,-4.3048572060379e-09,8.0678083344639e-09,-1.8881890894194e-08,2.2449652055481e-08,-0.0016109656960432,0.0016109692736241,-0.0017448957348919,0.0017448816521576,-0.0017448823436312,0.0017448953815227,-0.001744891781335,0.001744885720905,-0.0017448783423856,0.001744899492715,-0.0014117845161478,0.0014117515537745,-0.0014117444006453,0.0014117927047263,-0.0015047341676527,0.0015047393118821,-0.0015047220786143,0.0015047517503523,-2.9651824768302e-09,4.5737404852712e-10,-0.00083930776946707,0.00083930525994839,1.912197801158e-08,-2.2389864581162e-08,-0.00099323801834869,0.00099324840922882,-0.0009932518437907,0.00099323461672615,-0.0009932368951929,0.00099324950935297,-0.00099325067525695,0.00099323577150652,-0.00088112576994439,0.00088111282150184,-0.00088112918586993,0.00088110939832459,0.58608287558528,128566,2924,0.004753921833426,0.0066879162560913,0.0034950428538925,34.796527335934,3.8372218687471e-05,3.8372218687471e-05,3.8372218687471e-05,4025230.352664,0.015049986316724
13619200,0.95817591153855,0.015084327537451,0.0048771434894958,0.0063419054747297,0.003865278573225,-0.00114519544677,0.0011451941263855,1.258269588226e-09,-2.6022127925109e-09,5.5139163142739e-09,-7.0774682561441e-09,-0.0012853309522045,0.001285335144324,-0.0012853322205333,0.0012853337878924,-0.0012853349886734,0.0012853309012285,-0.0012853362697087,0.0012853296378617,-0.0010875995947383,0.0010875977971687,-0.0010876033898562,0.0010875941161461,-4.2884212249694e-09,8.0476049887799e-09,-1.8795208481459e-08,2.2359402897884e-08,-0.0016138117437628,0.0016138153176443,-0.0017482818134445,0.0017482677961479,-0.001748268478201,0.0017482814669596,-0.0017482778708631,0.0017482718533352,-0.0017482644895665,0.0017482855655475,-0.0014139511701454,0.0014139183677313,-0.0014139112277167,0.0014139593401521,-0.0015071915003678,0.0015071966205658,-0.0015071794517631,0.0015072090227439,-2.9972666758601e-09,5.0413757127643e-10,-0.0008400487831541,0.00084004628863175,1.9054303886184e-08,-2.230497604786e-08,-0.00099444105278245,0.00099445138061522,-0.0009944548267043,0.0009944376396084,-0.00099443990288546,0.00099445250740407,-0.00099445363270724,0.00099443881968365,-0.00088184007918286,0.00088182726991346,-0.00088184357008585,0.0008818237725743,0.57889843105598,128566,2924,0.004760081555442,0.0066996855957144,0.0034981378731845,34.355829706924,3.4846637655395e-05,3.4846637655395e-05,3.4846637655395e-05,4020460.8515418,0.015071333331901
13819200,0.96057718400995,0.01511377768437,0.0048865032920382,0.0063550311604792,0.0038722432318522,-0.0011466754351419,0.0011466741224361,1.2966132300728e-09,-2.6328787651946e-09,5.4911409843019e-09,-7.0464875278782e-09,-0.0012872082867062,0.001287212491526,-0.0012872095784648,0.0012872111127918,-0.0012872123058137,0.0012872082665852,-0.0012872136097799,0.0012872069802471,-0.0010889870096454,0.0010889853049009,-0.001088990872727,0.0010889815572808,-4.2651886888839e-09,8.0196843166785e-09,-1.8672175379624e-08,2.2231908731625e-08,-0.0016165298148956,0.0016165333843526,-0.0017515043626536,0.001751490440002,-0.0017514911079692,0.0017515040269714,-0.0017515004365641,0.0017514944801566,-0.0017514871358669,0.0017515081084615,-0.0014160352009803,0.0014160026235436,-0.001415995501192,0.0014160433461934,-0.0015095587813151,0.0015095638645757,-0.0015095467824622,0.0015095762158214,-3.0187813254626e-09,5.4895267873921e-10,-0.0008408388801011,0.00084083640947987,1.8941147810318e-08,-2.2164936044445e-08,-0.00099564115772548,0.00099565140257495,-0.00099565484776239,0.00099563774560618,-0.00099563998564726,0.00099565255173241,-0.00099565363154138,0.00099563894780003,-0.00088260677130828,0.00088259413390632,-0.00088261032733584,0.00088259057186082,0.57842147694255,128566,2924,0.0047662201050207,0.0067109263237619,0.0035014347596871,34.003585757881,3.202868606305e-05,3.202868606305e-05,3.202868606305e-05,4018122.3610326,0.015092326900007
14019200,0.96280106288158,0.015141054904657,0.0048951731299862,0.0063671760410619,0.003878705733609,-0.0011480011086597,0.0011479998033535,1.3364404620068e-09,-2.6654873450121e-09,5.4708501788247e-09,-7.0180744766421e-09,-0.0012888982433717,0.0012889024636163,-0.0012888995597296,0.0012889010611598,-0.0012889022469378,0.0012888982547467,-0.0012889035747779,0.0012888969446728,-0.0010902334217934,0.0010902318099474,-0.0010902373552084,0.001090227992619,-4.2458334588788e-09,7.9959915121833e-09,-1.8569355956099e-08,2.2124955001577e-08,-0.0016189928902825,0.0016189964556322,-0.0017544325189235,0.0017544186757091,-0.0017544193320423,0.0017544321919869,-0.0017544286070085,0.001754422701213,-0.0017544153736734,0.0017544362590703,-0.0014179153496921,0.0014178829594914,-0.0014178758526582,0.001417923473743,-0.0015116999050546,0.0015117049565545,-0.00151168794671,0.0015117172646036,-3.0399097962284e-09,5.9074106636932e-10,-0.00084153517821479,0.00084153272873322,1.8844045562461e-08,-2.2044201598369e-08,-0.0009967142771785,0.00099672444941095,-0.00099672789529464,0.00099671086436869,-0.00099671308419937,0.00099672561962859,-0.00099672665778842,0.00099671208794565,-0.00088328205030916,0.00088326956812693,-0.0008832856683338,0.00088326594330575,0.57820996699337,128566,2924,0.0047717187616755,0.0067211123408075,0.0035043406816201,33.653489813893,2.9227918511146e-05,2.9227918511146e-05,2.9227918511146e-05,4015382.7401234,0.015111203415107
14219200,0.96486252940281,0.015165389512909,0.0049028938879401,0.0063780819786747,0.0038844136462944,-0.0011491319801114,0.0011491306809156,1.374358896939e-09,-2.6974683354701e-09,5.4553721933558e-09,-6.9961001768831e-09,-0.0012903808232449,0.0012903850607868,-0.0012903821635288,0.0012903836351747,-0.0012903848150341,0.0012903808641134,-0.0012903861658988,0.0012903795312683,-0.0010912810124349,0.0010912794860549,-0.0010912850135828,0.0010912756015637,-4.2299422729318e-09,7.9760947944261e-09,-1.8485617115969e-08,2.203738958064e-08,-0.0016211791217919,0.0016211826833469,-0.0017570543417893,0.0017570405634107,-0.0017570412103662,0.001757054021698,-0.0017570504418186,0.0017570445765736,-0.0017570372632683,0.0017570580769992,-0.0014195656110892,0.001419533372605,-0.0014195262786407,0.001419573716789,-0.0015135682718325,0.0015135732970003,-0.0015135563471824,0.0015135855700208,-3.0640223956823e-09,6.3213076567082e-10,-0.0008420957277668,0.00084209329605056,1.8766371243564e-08,-2.1946486582096e-08,-0.00099763743794993,0.00099764754764098,-0.00099765099831459,0.0009976340203331,-0.00099763622340857,0.00099764873949945,-0.00099764973860809,0.00099763526620129,-0.00088380271421961,0.00088379037243899,-0.00088380639700199,0.00088378668204042,0.55856305715749,128566,2924,0.0047764096169195,0.006730153065168,0.0035066814503562,33.3034742715,2.6427794172004e-05,2.6427794172004e-05,2.6427794172004e-05,4012799.1176034,0.015127523959694
14419200,0.96674339654445,0.015187843905211,0.0049100228466261,0.0063881100159731,0.0038897110426118,-0.0011495337604212,0.001149532458909,1.4220718638866e-09,-2.7478750601875e-09,5.4604599223189e-09,-7.0021959951894e-09,-0.0012910522139298,0.0012910564876598,-0.0012910535887715,0.0012910550267376,-0.0012910562121556,0.0012910522842017,-0.0012910575925438,0.0012910509216284,-0.0010915872313417,0.0010915857858282,-0.0010915913199625,0.0010915818112611,-4.2477081613138e-09,7.9932181230849e-09,-1.8572961547891e-08,2.2123942955435e-08,-0.001622473590711,0.0016224771514395,-0.0017587634089815,0.0017587495642588,-0.0017587502243439,0.0017587630775563,-0.0017587595004809,0.0017587535862137,-0.0017587462629971,0.0017587671466265,-0.0014203740644991,0.0014203416571718,-0.0014203345566811,0.0014203821842807,-0.0015145924157163,0.0015145974551493,-0.0015145804457662,0.0015146097679664,-3.0867397555704e-09,6.4680939876244e-10,-0.0008420503866839,0.00084204794650987,1.8823441502077e-08,-2.201439790074e-08,-0.000997834072195,0.00099784420567837,-0.00099784767713495,0.00099783063361651,-0.00099783284740617,0.00099784540778341,-0.00099784640195661,0.00099783189513583,-0.00088369030760927,0.00088367796051916,-0.00088369403328659,0.00088367422529339,0.56383118099912,128566,2924,0.0047780773304155,0.0067355066419797,0.0035065004471603,32.647879171577,2.1183033372615e-05,2.1183033372615e-05,2.1183033372615e-05,4009188.7863349,0.015134470944339
14619200,0.96844641342892,0.015208292512554,0.0049165166728981,0.0063972206508008,0.0038945551888547,-0.0011494706543509,0.0011494693498695,1.4338434623826e-09,-2.7626554027698e-09,5.475864025054e-09,-7.0209263115794e-09,-0.0012912223105725,0.0012912265979875,-0.0012912236899219,0.0012912251309744,-0.001291226315962,0.0012912223875292,-0.0012912277085902,0.0012912210100421,-0.001091446165123,0.0010914447442687,-0.0010914502900737,0.0010914407285965,-4.2502899762058e-09,7.9936917709094e-09,-1.8690221433624e-08,2.2239189021041e-08,-0.0016231926935052,0.0016231962523187,-0.0017598482869011,0.001759834358343,-0.0017598350213593,0.0017598479525778,-0.001759844372965,0.0017598383854735,-0.0017598310643485,0.001759852019115,-0.0014206723509599,0.0014206397275628,-0.0014206326315344,0.001420680473779,-0.0015150700704148,0.0015150751942419,-0.001515058110871,0.0015150874971065,-3.1532299156045e-09,6.8941185209005e-10,-0.0008416253918692,0.00084162292751719,1.8957160203592e-08,-2.2176041851966e-08,-0.00099761673039984,0.00099762689863218,-0.00099763042886408,0.00099761323299549,-0.00099761546609983,0.00099762814106062,-0.00099762912234025,0.00099761452616092,-0.00088319612044305,0.00088318374868609,-0.00088319994008038,0.00088317991807181,0.56645233459284,128566,2924,0.0047778176555329,0.0067384799534591,0.003504740977623,31.823541755731,1.4588334045849e-05,1.4588334045849e-05,1.4588334045849e-05,4000839.9287152,0.015135442365827
14819200,0.96999113742694,0.015226969252663,0.0049224498035448,0.0064055193409025,0.0038990001082158,-0.0011492714114376,0.001149270104747,1.4635513997226e-09,-2.7941539402566e-09,5.482507747284e-09,-7.0306815099765e-09,-0.0012912279017331,0.0012912322108779,-0.0012912292995952,0.0012912307252778,-0.0012912319101588,0.0012912279970685,-0.0012912333260894,0.0012912265975908,-0.0010911825642879,0.0010911812025375,-0.0010911867568612,0.0010911771242128,-4.2580466890083e-09,8.0008744598949e-09,-1.8785280294876e-08,2.2333436763778e-08,-0.0016236863875509,0.0016236899456419,-0.0017606652812395,0.0017606512817271,-0.0017606519528155,0.0017606649430642,-0.0017606613601079,0.0017606553162741,-0.0017606479917798,0.0017606690126327,-0.001420795966179,0.0014207631679477,-0.0014207560684797,0.001420804094619,-0.0015153479211043,0.0015153530995796,-0.0015153359552776,0.0015153654127599,-3.196908167819e-09,7.1969949934022e-10,-0.00084111701933659,0.00084111454127853,1.9044169044208e-08,-2.2278050770589e-08,-0.00099729143228248,0.00099730162306694,-0.00099730519094811,0.0009972878972137,-0.00099729014108178,0.00099730289142516,-0.00099730386163478,0.00099728921247982,-0.00088262680987751,0.00088261442687991,-0.00088263069775371,0.00088261053152019,0.56961685087899,128566,2924,0.0047769935134118,0.0067405208231445,0.0035026344371682,30.995075285699,7.9606022855914e-06,7.9606022855914e-06,7.9606022855914e-06,3991085.7523901,0.015134541611716
15019200,0.97137348724893,0.015243621600033,0.0049277390050305,0.0064129144451489,0.0039029681498539,-0.0011484192582173,0.0011484179568524,1.5201980766981e-09,-2.8463009443661e-09,5.4633457219207e-09,-7.0033481672855e-09,-0.0012905477437658,0.0012905520828249,-0.0012905491820276,0.0012905505558263,-0.0012905517412312,0.0012905478792621,-0.0012905531893824,0.0012905464500326,-0.0010902729236011,0.0010902716708712,-0.0010902772060556,0.0010902675002432,-4.2523213499723e-09,7.9933955674288e-09,-1.8943422009696e-08,2.2489516699467e-08,-0.0016234101657534,0.0016234137219808,-0.0017606705582172,0.001760656463198,-0.0017606571359267,0.0017606702266981,-0.0017606666462032,0.0017606604885542,-0.0017606531716899,0.0017606742953135,-0.0014202152435817,0.0014201821153012,-0.0014201750291396,0.0014202233730445,-0.0015148777749725,0.0015148830537916,-0.0015148657993409,0.0015148953619515,-3.2191661189826e-09,7.2376303279122e-10,-0.00084004263499964,0.00084004013716182,1.9156474973721e-08,-2.2415343041872e-08,-0.00099636069912843,0.00099637095002883,-0.00099637454588497,0.00099635713592978,-0.00099635940277144,0.00099637222204279,-0.00099637320238285,0.00099635846585446,-0.00088147436768333,0.00088146192461591,-0.00088147829418569,0.00088145798667777,0.5673775970151,128566,2924,0.0047734623038913,0.0067393766450026,0.0034981748885476,29.892116704835,-8.6306636132334e-07,-8.6306636132334e-07,-8.6306636132334e-07,3975920.6155243,0.015125270496263
15219200,0.97259220440952,0.015257637007704,0.0049321810033071,0.0064191846701323,0.0039062713342646,-0.0011468302528403,0.0011468289623905,1.5989942858332e-09,-2.9147621778594e-09,5.4236685794309e-09,-6.9507796125129e-09,-0.0012890941909244,0.0012890985682048,-0.0012890956858721,0.0012890969825789,-0.001289098167993,0.0012890943850331,-0.0012890996541859,0.0012890929162903,-0.0010886154561892,0.0010886143597446,-0.0010886198545585,0.0010886100698792,-4.2404714646252e-09,7.9793537962188e-09,-1.9140428291172e-08,2.2684738603278e-08,-0.0016222650655965,0.0016222686197081,-0.0017597737823259,0.0017597595765387,-0.0017597602449285,0.0017597734601838,-0.0017597698893185,0.0017597635834973,-0.0017597562798085,0.0017597775279458,-0.0014188285420247,0.0014187949868531,-0.0014187879203447,0.0014188366683117,-0.0015135529864205,0.0015135583886968,-0.0015135410044216,0.001513570699309,-3.2244113088909e-09,7.0715860446928e-10,-0.00083832668726571,0.00083832416670095,1.9271971620437e-08,-2.2558201897134e-08,-0.00099473602886957,0.00099474635779903,-0.00099474997237771,0.00099473244669641,-0.00099473474496084,0.00099474761766944,-0.00099474862304637,0.00099473378373986,-0.00087964382117533,0.00087963128843677,-0.00087964776190925,0.00087962733277204,0.54391180365817,128566,2924,0.0047668758246833,0.0067346384639293,0.0034910474755597,28.486450535881,-1.2108395712952e-05,-1.2108395712952e-05,-1.2108395712952e-05,3956550.0655951,0.015106540875361
15419200,0.97366893854628,0.015271852656672,0.0049367169685148,0.0064253676253704,0.0039097680627864,-0.0011452071492209,0.0011452058577915,1.5849238439991e-09,-2.9010000177409e-09,5.4270446028491e-09,-6.957921454511e-09,-0.0012875027311141,0.0012875070928834,-0.0012875042069347,0.0012875055246435,-0.0012875066999708,0.00128750291645,-0.0012875081886435,0.001287501444905,-0.0010869312236955,0.0010869301335643,-0.0010869356298638,0.0010869258356504,-4.2079934848052e-09,7.9418192915192e-09,-1.9151486640523e-08,2.2691236287425e-08,-0.0016209280518545,0.0016209316014287,-0.0017586591497273,0.0017586449444124,-0.0017586455933151,0.0017586588449328,-0.0017586552680265,0.0017586489387941,-0.0017586416632702,0.0017586628802368,-0.0014172739651753,0.0014172404001,-0.0014172333574182,0.0014172820610107,-0.0015121162617323,0.0015121217672265,-0.0015121043880976,0.001512133978049,-3.3135552032366e-09,7.8152716945956e-10,-0.00083663062958805,0.00083662809466543,1.935300089546e-08,-2.2653040171351e-08,-0.00099300068512783,0.00099301099266508,-0.00099301467408516,0.00099299703568245,-0.0009929993377132,0.0009930123164997,-0.00099301328235855,0.00099299841478574,-0.00087786267147148,0.0008778501937044,-0.00087786674252993,0.00087784611090681,0.61487580145046,128566,2924,0.0047601475381215,0.0067291089420051,0.0034839989524943,27.073483277394,-2.3412133780848e-05,-2.3412133780848e-05,-2.3412133780848e-05,3940456.9714639,0.01508694197909
15619200,0.97463952787942,0.015284950175836,0.0049409006307561,0.0064310380104729,0.0039130115346067,-0.0011440673311169,0.0011440660203044,1.4999591585825e-09,-2.8342936624698e-09,5.497188631885e-09,-7.0522186342086e-09,-0.0012865020305867,0.0012865063534058,-0.001286503432898,0.0012865048589193,-0.0012865060265964,0.0012865021501902,-0.0012865074926853,0.0012865006994877,-0.0010858362815691,0.0010858350555701,-0.0010858406184234,0.0010858308220405,-4.1670040321225e-09,7.8961970771877e-09,-1.8884834630324e-08,2.2420634415479e-08,-0.0016202081478876,0.0016202116930715,-0.0017580571139021,0.001758043078882,-0.0017580436999993,0.0017580568261062,-0.0017580532311,0.0017580470702646,-0.0017580398245018,0.0017580608097496,-0.0014164254886358,0.0014163925007183,-0.0014163854850666,0.0014164335451153,-0.0015112752898056,0.0015112807784537,-0.0015112635996144,0.0015112928386487,-3.4523598822607e-09,9.2982694626696e-10,-0.00083538742156303,0.0008353848974187,1.9306916092496e-08,-2.2591066462698e-08,-0.00099192607447687,0.00099193623405294,-0.00099193999889943,0.00099192234171144,-0.00099192460789462,0.00099193767607965,-0.00099193853942522,0.00099192378671945,-0.0008766007169766,0.0008765884817332,-0.00087660499255576,0.00087658420363165,0.62694796876279,128566,2924,0.0047554239906754,0.0067261263890649,0.0034788406660484,25.964519931955,-3.2283840544359e-05,-3.2283840544359e-05,-3.2283840544359e-05,3913297.4906476,0.01507388645051
15819200,0.97555244017581,0.01529819958211,0.004945145834799,0.0064367001690407,0.0039163535782706,-0.0011442064440392,0.0011442051379603,1.6872149486496e-09,-3.0164722164212e-09,5.4791396526053e-09,-7.0289640469144e-09,-0.0012867990301462,0.0012868035030842,-0.0012868005916739,0.0012868018545462,-0.0012868030539348,0.0012867992734588,-0.0012868046017116,0.0012867977443752,-0.0010860697127704,0.0010860687428004,-0.0010860742961057,0.0010860642827847,-4.3096174262047e-09,8.0509403252995e-09,-1.8600457868839e-08,2.2146954305395e-08,-0.0016208403850643,0.0016208439412755,-0.0017587779769389,0.0017587640806871,-0.0017587647857238,0.001758777601873,-0.0017587740391015,0.0017587681331708,-0.0017587607752812,0.0017587817212422,-0.0014169254854716,0.0014168930326073,-0.0014168858927347,0.0014169336370956,-0.0015118093662339,0.0015118142699579,-0.0015117972559673,0.0015118267380481,-3.2871145261558e-09,8.606352166008e-10,-0.00083534677962807,0.00083534435333315,1.8795150597521e-08,-2.1969277617111e-08,-0.00099211290721831,0.00099212290212646,-0.00099212649847176,0.00099210934346,-0.00099211155358555,0.00099212423200267,-0.00099212507463947,0.00099211075365281,-0.00087661007587617,0.00087659820117329,-0.00087661424033758,0.00087659403312716,0.66919699774324,128566,2924,0.0047560031685915,0.0067287368337986,0.0034786816436144,25.548203226168,-3.5614374190657e-05,-3.5614374190657e-05,-3.5614374190657e-05,3895586.3606715,0.015076966307465
16019200,0.97641260695855,0.015310651866579,0.0049491347255993,0.006442026505014,0.0039194906359658,-0.0011443100203123,0.0011443087077857,1.749340192652e-09,-3.0854529500336e-09,5.5091686170223e-09,-7.0646089071649e-09,-0.0012871223942772,0.0012871269389746,-0.0012871240132861,0.0012871252343855,-0.0012871264520407,0.001287122675336,-0.0012871280319317,0.0012871211149717,-0.0010863225133096,0.001086321607441,-0.0010863271898537,0.0010863170499738,-4.3525115336427e-09,8.0972926862666e-09,-1.8280449506816e-08,2.1829783236107e-08,-0.0016215201215031,0.0016215236807204,-0.001759496553176,0.0017594828546487,-0.0017594835820014,0.0017594961490973,-0.0017594925995914,0.0017594869245132,-0.0017594795308804,0.001759500309458,-0.0014175225472464,0.0014174907171674,-0.0014174835397068,0.0014175307263969,-0.0015123757606872,0.0015123803315578,-0.0015123635217692,0.0015123929198852,-3.2615908216098e-09,8.9142160256291e-10,-0.00083526636587421,0.00083526399622031,1.8489619602313e-08,-2.1600826638842e-08,-0.00099236710989241,0.00099237694629345,-0.00099238048948734,0.00099236359867279,-0.00099236576655391,0.00099237826558382,-0.00099237905187243,0.00099236502334887,-0.00087659414273584,0.00087658259257386,-0.00087659834849708,0.00087657837796852,0.6674279258207,128566,2924,0.0047564354487239,0.0067315404999911,0.0034783614697245,25.148426024051,-3.8812591807593e-05,-3.8812591807593e-05,-3.8812591807593e-05,3871934.6315253,0.01507993148502
16219200,0.97722369867334,0.0153223414747,0.0049528781228097,0.0064470302770575,0.0039224330748332,-0.001144349428781,0.0011443481048209,1.6908687247939e-09,-3.03845535498e-09,5.5534524814858e-09,-7.1210241505415e-09,-0.0012873686245392,0.0012873731269472,-0.0012873701802507,0.0012873714864361,-0.0012873726854774,0.0012873688606222,-0.0012873742610095,0.0012873673042528,-0.0010865052299889,0.0010865042706052,-0.0010865098963166,0.0010864997184373,-4.3400238970726e-09,8.0831430888213e-09,-1.8006458367704e-08,2.1554222256011e-08,-0.0016221172808895,0.00162212083856,-0.001760126647252,0.0017601131068921,-0.0017601138237802,0.0017601262465731,-0.0017601226719627,0.0017601171978767,-0.0017601098107276,0.0017601303682346,-0.0014180446450215,0.0014180134347327,-0.0014180062625511,0.0014180528080057,-0.0015128690317067,0.0015128735334873,-0.0015128569087532,0.0015128860061168,-3.3696800432109e-09,1.02497238121e-09,-0.00083513769033555,0.00083513534695046,1.8340513683073e-08,-2.1421457567529e-08,-0.00099254916590279,0.00099255880852654,-0.00099256240608141,0.00099254560033856,-0.00099254771334694,0.00099256023643098,-0.0009925609186661,0.00099254707434003,-0.00087651827368618,0.000876507005696,-0.0008765226279888,0.00087650264409366,0.66425605043421,128566,2924,0.0047566014213237,0.0067340029352955,0.0034778397683377,24.749261926776,-4.2005904585789e-05,-4.2005904585789e-05,-4.2005904585789e-05,3851096.4047267,0.015082074735253
16419200,0.97799186166671,0.015332237671074,0.0049560314443062,0.0064513492232182,0.0039248570035493,-0.0011443947496139,0.0011443934269821,1.7356095674036e-09,-3.081782667751e-09,5.549047477892e-09,-7.1155288846533e-09,-0.0012876268370969,0.0012876313705168,-0.0012876284262598,0.0012876296978165,-0.001287630898776,0.0012876271038859,-0.0012876324997918,0.0012876255221011,-0.0010866694106602,0.001086668526868,-0.0010866741484996,0.0010866639066072,-4.3411467210652e-09,8.0838833261487e-09,-1.792537814112e-08,2.1472789286262e-08,-0.0016227066954918,0.001622710252791,-0.0017607549584362,0.0017607414727201,-0.0017607421897851,0.0017607545548005,-0.001760750986178,0.0017607455605482,-0.0017607381716964,0.0017607586818638,-0.0014185600302849,0.0014185289690334,-0.0014185217917693,0.0014185681892083,-0.0015133366683254,0.0015133411046954,-0.0015133245340157,0.0015133535902767,-3.386322932078e-09,1.0554385426675e-09,-0.00083502584807545,0.00083502351924062,1.8259237579826e-08,-2.1323027359842e-08,-0.00099274329216599,0.00099275287684902,-0.00099275647646678,0.00099273972465133,-0.00099274182772917,0.00099275431695979,-0.00099275496954301,0.00099274121787234,-0.00087642812061406,0.00087641698012323,-0.00087643253057855,0.00087641256439146,0.59981698039523,128566,2924,0.0047567915637097,0.0067364335835012,0.0034773870915372,24.411798057142,-4.4705615542867e-05,-4.4705615542867e-05,-4.4705615542867e-05,3834500.9199281,0.015084280260639
16619200,0.97872342253275,0.015343463459883,0.0049596340901122,0.0064561014268665,0.003927727942904,-0.0011446625668386,0.0011446612478988,1.7735634256783e-09,-3.1160619699169e-09,5.5347188096892e-09,-7.0971070827797e-09,-0.0012879736627825,0.0012879782150004,-0.001287975278009,0.0012879765163512,-0.001287977715643,0.0012879739575228,-0.0012879793389623,0.001287972353381,-0.0010870019414463,0.0010870011369665,-0.0010870067441306,0.0010869964519907,-4.3246019047333e-09,8.0654048203602e-09,-1.796082744505e-08,2.1506472712962e-08,-0.0016233499516072,0.0016233535071593,-0.0017614836446144,0.0017614701475685,-0.0017614708548586,0.0017614832509583,-0.0017614796854533,0.0017614742217956,-0.001761466846241,0.0017614873682534,-0.0014190752654498,0.0014190441171994,-0.0014190369546417,0.001419083412331,-0.0015139322681732,0.0015139367540761,-0.0015139201623037,0.0015139492107332,-3.4206099831358e-09,1.0845401560395e-09,-0.00083515709053525,0.00083515475652067,1.8293169481141e-08,-2.1362596187982e-08,-0.00099297439988059,0.00099298398437828,-0.00099298761054059,0.00099297080593743,-0.00099297291616878,0.00099298544372867,-0.00099298608056431,0.00099297232223099,-0.00087659327777055,0.00087658217550385,-0.00087659775539056,0.00087657769187571,0.70235632190695,128566,2924,0.0047579031691788,0.0067390924559198,0.0034779372741934,24.157959833492,-4.6736321332063e-05,-4.6736321332063e-05,-4.6736321332063e-05,3831356.0802646,0.015088666621064
16819200,0.97942052025386,0.015354210519383,0.0049630826886684,0.006460653401789,0.003930474428926,-0.0011448895509948,0.0011448882381246,1.8118921805442e-09,-3.1484395068703e-09,5.5124526504124e-09,-7.0682029317228e-09,-0.001288418115532,0.0012884226806795,-0.0012884197541526,0.001288420957768,-0.0012884221518365,0.0012884184396347,-0.0012884237980816,0.0012884168122179,-0.0010874207082186,0.0010874199944335,-0.0010874255782544,0.0010874152407412,-4.3018496444463e-09,8.0399308919242e-09,-1.8071621068734e-08,2.1614766782476e-08,-0.0016241413313395,0.0016241448844036,-0.0017622565247061,0.0017622429693678,-0.0017622436644898,0.0017622561458227,-0.0017622525815662,0.0017622470270422,-0.0017622396711545,0.0017622602472599,-0.0014198339584863,0.0014198025751754,-0.0014197954341079,0.0014198420899656,-0.0015146377547979,0.0015146423570475,-0.0015146256946267,0.0015146547667567,-3.462265811316e-09,1.1079116952397e-09,-0.00083521930365629,0.00083521695079065,1.8388741964703e-08,-2.1479580431992e-08,-0.00099338244268766,0.00099339205816527,-0.00099339572440746,0.00099337880872178,-0.00099338093767431,0.00099339353894879,-0.00099339417230041,0.00099338034717603,-0.00087673178835345,0.00087672066272649,-0.00087673633077108,0.00087671611379896,0.7057157200564,128566,2924,0.0047588469515803,0.0067423566680741,0.0034782106892867,23.906123388775,-4.8751012889803e-05,-4.8751012889803e-05,-4.8751012889803e-05,3810341.2360404,0.015093221049343
17019200,0.9800850747059,0.015364250780636,0.0049663012852261,0.0064649205831607,0.0039330289122497,-0.0011450520403751,0.001145050733639,1.8482305151169e-09,-3.1787799149412e-09,5.48997211467e-09,-7.038790394491e-09,-0.0012888001478162,0.0012888047235156,-0.0012888018076849,0.0012888029782737,-0.0012888041664421,0.0012888004998545,-0.0012888058351289,0.0012887988497231,-0.0010877703853592,0.0010877697610606,-0.0010877753213076,0.0010877649400821,-4.2773308361261e-09,8.012580068179e-09,-1.8210555432326e-08,2.1751129008116e-08,-0.0016248743438176,0.0016248778943083,-0.0017629658282823,0.0017629521965283,-0.001762952878716,0.001762965465632,-0.001762961901535,0.0017629562371922,-0.001762948902609,0.0017629695492373,-0.0014205364863197,0.0014205048140351,-0.0014204976968533,0.0014205446022236,-0.0015152856992159,0.0015152904422268,-0.0015152736901226,0.0015153027984036,-3.5083716698817e-09,1.130839564071e-09,-0.00083523025350663,0.00083522787686041,1.8511713578181e-08,-2.1629731884945e-08,-0.00099373507768015,0.0009937447374825,-0.00099374844968282,0.00099373139778098,-0.00099373354931139,0.00099374624176465,-0.00099374687494675,0.00099373295893244,-0.00087681862035892,0.0008768074480732,-0.00087682322907541,0.00087680283232516,0.69245976229798,128566,2924,0.0047595230966932,0.0067453790641791,0.0034782713460959,23.654361120041,-5.0765111039669e-05,-5.0765111039669e-05,-5.0765111039669e-05,3790952.9481872,0.015097042077393
17219200,0.98070361925538,0.01537333926547,0.0049692107510542,0.0064688006227975,0.003935327891618,-0.0011443896532333,0.0011443883539301,1.8753771797001e-09,-3.1991891329837e-09,5.4626111691844e-09,-7.0017241848382e-09,-0.0012883136595635,0.001288318234623,-0.001288315331962,0.0012883164741774,-0.0012883176545322,0.0012883140340944,-0.0012883193406021,0.0012883123654983,-0.0010872628907554,0.001087262345628,-0.0010872678762928,0.0010872574689772,-4.2174423862065e-09,7.9466157776957e-09,-1.8473374126689e-08,2.2008330553491e-08,-0.0016246829307692,0.0016246864757287,-0.0017627602998994,0.0017627465308266,-0.0017627471803466,0.0017627599766297,-0.0017627564117863,0.0017627505313161,-0.0017627432467105,0.0017627640158495,-0.0014203286367382,0.0014202964123463,-0.0014202893535229,0.0014203367159323,-0.0015150186611865,0.0015150237007328,-0.0015150067772932,0.0015150359215454,-3.5780729287675e-09,1.1492339279722e-09,-0.00083448967525923,0.00083448724554168,1.8796059920683e-08,-2.1976016872079e-08,-0.00099325264630833,0.00099326243290242,-0.00099326622536195,0.00099324888624805,-0.00099325108671228,0.00099326396865399,-0.00099326462338492,0.00099325047474699,-0.00087610480266868,0.00087609345175177,-0.00087610949035272,0.00087608875478663,0.67475987462534,128566,2924,0.0047567787317548,0.0067445786990256,0.0034752061428761,22.994566112372,-5.6043471101027e-05,-5.6043471101027e-05,-5.6043471101027e-05,3769342.3656716,0.015090335912902
17419200,0.98126812441429,0.01538127094657,0.0049717446516137,0.006472210138976,0.0039373161559803,-0.0011430219334244,0.001143020643273,1.9055564916105e-09,-3.2206525123798e-09,5.4276776484787e-09,-6.9561226161113e-09,-0.0012870669604868,0.0012870715342065,-0.0012870686480903,0.0012870697560487,-0.0012870709277227,0.0012870673607727,-0.0012870726317661,0.0012870656736716,-0.0010860083983419,0.0010860079414854,-0.0010860134361443,0.0010860030110326,-4.1632212351549e-09,7.8872138637364e-09,-1.8786487092538e-08,2.2316812087533e-08,-0.0016236605936726,0.0016236641339046,-0.0017617373466649,0.0017617234030593,-0.001761724024391,0.0017617370598899,-0.0017617334942216,0.0017617273665769,-0.0017617201279088,0.0017617410605018,-0.0014193008508506,0.0014192679754137,-0.001419260969982,0.0014193088986681,-0.0015139317146055,0.0015139370702717,-0.001513919942951,0.0015139491741727,-3.6474917658693e-09,1.1638965758909e-09,-0.00083311411190862,0.00083311162567789,1.9109051768203e-08,-2.235418157426e-08,-0.00099203817916963,0.00099204811166391,-0.00099205198630555,0.00099203433709111,-0.00099203659093555,0.00099204967631705,-0.00099205035742993,0.00099203595254996,-0.00087470729721329,0.00087469574318066,-0.00087471206411999,0.00087469096645726,0.64747798366368,128566,2924,0.004751109515477,0.006740343015327,0.0034694984347033,21.991428272998,-6.406857381602e-05,-6.406857381602e-05,-6.406857381602e-05,3746854.3003113,0.015074489703508
17619200,0.98178372694807,0.015388230638765,0.0049739639879037,0.0064752187087813,0.0039390479420797,-0.0011415908037149,0.0011415895304805,1.9977374951875e-09,-3.2955094765309e-09,5.3620561501962e-09,-6.8730936531774e-09,-0.0012857014829487,0.0012857060881623,-0.0012857032338034,0.0012857042467263,-0.0012857054101382,0.0012857019551317,-0.0012857071613946,0.001285700221317,-0.0010846415499714,0.0010846412998127,-0.0010846467289848,0.0010846362316709,-4.1924988158037e-09,7.9178689667146e-09,-1.9097038898276e-08,2.2628705585813e-08,-0.0016224675136959,0.0016224710552725,-0.0017605658348086,0.001760551677584,-0.0017605523202841,0.0017605655337862,-0.0017605619714421,0.0017605556526385,-0.001760548396561,0.00176056956227,-0.0014180929554174,0.0014180594643971,-0.0014180524411756,0.0014181010283002,-0.0015126862695559,0.0015126917482131,-0.0015126744155286,0.0015127039389312,-3.6399263621122e-09,1.140111616648e-09,-0.00083170347210086,0.0008317009695791,1.9208170775744e-08,-2.2471324943748e-08,-0.0009906979773801,0.00099070798603888,-0.00099071186623385,0.00099069413014988,-0.00099069640732827,0.00099070953290236,-0.00099071023918269,0.00099069574417246,-0.00087324792686453,0.00087323627679538,-0.00087325268686324,0.00087323150679869,0.62390233959773,128566,2924,0.004745176893446,0.0067354037510485,0.0034636407690052,20.980033506033,-7.2159731951734e-05,-7.2159731951734e-05,-7.2159731951734e-05,3729881.9163591,0.015057508380476
17819200,0.98225586782827,0.01539437678377,0.004975920693799,0.0064778887803153,0.0039405673096555,-0.0011401619928132,0.0011401607170454,2.0283787333816e-09,-3.3283924180268e-09,5.3684406135339e-09,-6.8837018885737e-09,-0.0012842963351359,0.0012843009662455,-0.0012842981081771,0.0012842991015002,-0.001284300268438,0.0012842968259235,-0.0012843020398197,0.0012842950730776,-0.0010832354037827,0.0010832352047614,-0.0010832406403566,0.0010832300768955,-4.1874458068756e-09,7.9114448724957e-09,-1.9164585760942e-08,2.2694922259762e-08,-0.0016211894373458,0.0016211929775592,-0.0017593290300669,0.0017593148349653,-0.0017593154761358,0.001759328733107,-0.0017593251725677,0.0017593188047186,-0.0017593115546086,0.0017593327583263,-0.0014167904466003,0.0014167568170378,-0.0014167497967814,0.0014167985127313,-0.0015113643008985,0.0015113698290411,-0.0015113524551695,0.0015113820146035,-3.6825404753336e-09,1.1695689019356e-09,-0.00083031529152991,0.00083031277573892,1.9289001961495e-08,-2.2566485409379e-08,-0.0009893114469757,0.00098932147773552,-0.0009893253951069,0.00098930756207306,-0.00098930985366876,0.00098932304696649,-0.00098932374200285,0.0009893092020826,-0.00087179164124042,0.00087177999485845,-0.0008717964777482,0.000871775150176,0.60341628778713,128566,2924,0.0047392533965395,0.0067301151738944,0.0034578729793774,19.990330836249,-8.0077353310008e-05,-8.0077353310008e-05,-8.0077353310008e-05,3717722.716783,0.015040272106998
18019200,0.98268918559702,0.015400013314878,0.0049777152646187,0.0064803337276406,0.0039419643226187,-0.0011387439793048,0.0011387426950522,2.0351044640732e-09,-3.3435408160237e-09,5.4008401290432e-09,-6.9252718011708e-09,-0.0012828650367529,0.0012828696874942,-0.0012828668137548,0.0012828678185043,-0.0012828689900086,0.001282865527008,-0.0012828707731471,0.0012828637624292,-0.0010818079272063,0.0010818077292427,-0.0010818131965042,0.0010818025674287,-4.1868155211304e-09,7.9105740024531e-09,-1.9089814169575e-08,2.2619794094229e-08,-0.0016198464281499,0.0016198499679708,-0.0017580423421863,0.0017580281909728,-0.0017580288321275,0.00175804204404,-0.0017580384806259,0.0017580321644822,-0.0017580249140742,0.0017580460653612,-0.0014154136560178,0.0014153801849949,-0.0014153731642913,0.0014154217205861,-0.0015099888539603,0.0015099943460302,-0.0015099770226818,0.0015100065187489,-3.7390150156211e-09,1.2270157754184e-09,-0.00082895566386022,0.00082895314900254,1.9290031473074e-08,-2.2566589483663e-08,-0.0009878949302663,0.00098790491973767,-0.00098790887359934,0.00098789100874784,-0.00098789329543861,0.00098790652983866,-0.00098790718676209,0.00098789268213286,-0.00087035409448523,0.00087034254942262,-0.00087035903170402,0.00087033760526461,0.60265703795603,128566,2924,0.004733374293076,0.0067245598485907,0.0034522211890251,19.018939714193,-8.7848482286454e-05,-8.7848482286454e-05,-8.7848482286454e-05,3709215.2735999,0.015022927204814
18219200,0.98308729171149,0.01540529640364,0.0049793990474235,0.0064826139428393,0.0039432834133774,-0.0011373079204037,0.0011373066301191,2.0609074927753e-09,-3.3754514263195e-09,5.4256957112424e-09,-6.9560692528003e-09,-0.0012814076207906,0.0012814123008444,-0.00128140941473,0.0012814104151122,-0.0012814115903245,0.0012814081243401,-0.0012814133943358,0.0012814063374534,-0.0010803586563033,0.0010803584966464,-0.0010803639882229,0.0010803532711552,-4.2097988288296e-09,7.9350579495441e-09,-1.897134749918e-08,2.2502650354596e-08,-0.0016184530718417,0.001618456613004,-0.0017567005900689,0.0017566864996363,-0.0017566871531442,0.001756700275469,-0.0017566967106937,0.0017566904913396,-0.0017566832227268,0.0017567043109027,-0.00141399408626,0.0014139608705426,-0.0014139538319023,0.0014140021666511,-0.0015085682650452,0.001508573640575,-0.0015085563937574,0.0015085858526184,-3.7690406579668e-09,1.2750295277585e-09,-0.00082759009200488,0.00082758759552596,1.9192043989671e-08,-2.2448496802099e-08,-0.00098646446779007,0.00098647437544023,-0.00098647833715326,0.00098646053851963,-0.00098646280517174,0.00098647601422638,-0.00098647662681075,0.00098646223540269,-0.00086891392770213,0.0008689025423938,-0.00086891893379346,0.00086889752881082,0.6133875164049,128566,2924,0.0047274203427119,0.0067187964566995,0.0034465443916654,18.047987910082,-9.561609671934e-05,-9.561609671934e-05,-9.561609671934e-05,3700249.094774,0.015005270070854
18419200,0.98346266926115,0.015410315618451,0.0049809995220378,0.0064847746724488,0.0039445414239645,-0.0011365979760803,0.0011365966768512,2.116494430638e-09,-3.4389475347525e-09,5.4551514309787e-09,-6.9977836245138e-09,-0.0012807045238739,0.0012807092634472,-0.00128070636343,0.0012807073351447,-0.0012807085220122,0.0012807050589425,-0.001280710361966,0.0012807032385093,-0.0010796536702364,0.0010796535842495,-0.0010796591095069,0.0010796482595444,-4.2750558570957e-09,8.0064880502859e-09,-1.8703541122363e-08,2.2240511529228e-08,-0.0016178358971682,0.0016178394438352,-0.001756122060251,0.0017561081101042,-0.0017561088008207,0.0017561217035988,-0.0017561181415897,0.0017561121432745,-0.0017561048205598,0.0017561257887352,-0.0014133465302215,0.0014133138717206,-0.0014133067690022,0.0014133546483387,-0.0015079198170391,0.0015079248736435,-0.0015079078035749,0.0015079372416744,-3.749211953233e-09,1.3118119823794e-09,-0.00082690459463865,0.00082690215660489,1.8894211046616e-08,-2.2081851246103e-08,-0.00098577046262953,0.00098578020512752,-0.00098578411688164,0.00098576658308464,-0.00098576879789881,0.0009857818443975,-0.00098578239571115,0.00098576829051108,-0.00086819121711418,0.00086818013549165,-0.00086819625590273,0.00086817509388644,0.61738403546948,128566,2924,0.0047244772343514,0.0067162432368575,0.0034436954655999,17.475444849505,-0.00010019644120396,-0.00010019644120396,-0.00010019644120396,3695106.2652225,0.014996798905049
18619200,0.98382421953644,0.015415102826255,0.0049825255194179,0.0064868373936516,0.0039457399131858,-0.001136487522136,0.0011364862084045,2.1168378737068e-09,-3.4542366183084e-09,5.5140509121528e-09,-7.0707296649446e-09,-0.0012806233176521,0.0012806280871316,-0.0012806251590789,0.0012806261586095,-0.0012806273550632,0.0012806238442733,-0.0012806292045746,0.0012806220130079,-0.0010795590278695,0.0010795589111737,-0.0010795644941621,0.0010795535558439,-4.3058931243325e-09,8.0401671570006e-09,-1.8320135808485e-08,2.1859524965753e-08,-0.0016178573758659,0.0016178609251393,-0.0017561799984071,0.0017561662756205,-0.0017561669799427,0.0017561796180396,-0.0017561760539787,0.0017561703348591,-0.0017561629839934,0.001756183720887,-0.0014133273592205,0.0014132954892256,-0.0014132883580206,0.0014133354960516,-0.0015079043120076,0.0015079090682291,-0.0015078922454256,0.0015079214823736,-3.7835279643141e-09,1.3980848092679e-09,-0.00082677648740312,0.00082677410185407,1.8613897006341e-08,-2.1743295174024e-08,-0.00098567556227836,0.00098568510499581,-0.00098568900579423,0.00098567169383926,-0.00098567385352081,0.00098568678911363,-0.00098568724939837,0.00098567343654452,-0.00086804793736835,0.00086803721916956,-0.00086805307950443,0.00086803207172721,0.61178640530902,128566,2924,0.0047240198715182,0.0067163316748757,0.0034431637765571,17.230639410329,-0.00010215488471737,-0.00010215488471737,-0.00010215488471737,3694248.4485261,0.014995884844905
18819200,0.9841727293465,0.015420030791283,0.0049841009723834,0.0064889362569694,0.0039469935619307,-0.001136399541762,0.0011363982240999,2.1547330123727e-09,-3.4961504294373e-09,5.5291134619416e-09,-7.0898524769912e-09,-0.0012805540892447,0.0012805588936938,-0.001280555958847,0.0012805569384932,-0.001280558139218,0.0012805546386656,-0.0012805600143575,0.0012805527820497,-0.0010794841416112,0.0010794840842303,-0.0010794896830748,0.0010794786547156,-4.3290268363782e-09,8.0654205268804e-09,-1.8103645319121e-08,2.1644844209573e-08,-0.0016178821177243,0.0016178856688522,-0.0017562449302847,0.001756231336273,-0.0017562320521292,0.0017562445330206,-0.0017562409711069,0.0017562354106799,-0.0017562280395128,0.0017562486531836,-0.0014133079684912,0.001413276536546,-0.00141326938185,0.0014133161176168,-0.0015079015230491,0.0015079060879357,-0.0015078894058551,0.001507918552813,-3.7922833236123e-09,1.4456598450786e-09,-0.0008266719808035,0.00082666963465993,1.8405170676376e-08,-2.1489998092548e-08,-0.00098558847445152,0.00098559788438934,-0.00098560176594898,0.00098558462516896,-0.00098558674790542,0.00098559958634413,-0.00098559998974077,0.00098558638768992,-0.00086793315630141,0.00086792268736023,-0.00086793835585851,0.00086791748190181,0.64922937341477,128566,2924,0.0047236556483547,0.0067164340470897,0.0034427296210466,16.993695039921,-0.00010405043968063,-0.00010405043968063,-0.00010405043968063,3694159.4269953,0.014995178187983
19019200,0.98450877176753,0.01542508713305,0.004985721540676,0.0064910688875374,0.0039482967048369,-0.001136310118429,0.0011363087989549,2.1831284879324e-09,-3.5264188414982e-09,5.5363087549079e-09,-7.0992542293035e-09,-0.0012805311864182,0.0012805360132152,-0.0012805330750293,0.0012805340400017,-0.0012805352409346,0.0012805317540349,-0.0012805371368279,0.00128052987672,-0.0010794599047384,0.0010794599007057,-0.0010794655070136,0.0010794544105711,-4.3328435615446e-09,8.0695623715852e-09,-1.7955546030394e-08,2.1497012432085e-08,-0.001617975189142,0.0016179787405299,-0.0017563382164045,0.0017563247161319,-0.001756325432611,0.0017563378149273,-0.0017563342534963,0.0017563287943502,-0.0017563214185746,0.0017563419367167,-0.0014133907511536,0.0014133596161783,-0.0014133524546805,0.0014133988992868,-0.0015079596562132,0.0015079641189237,-0.001507947535088,0.0015079765888798,-3.8202450217215e-09,1.4951989361782e-09,-0.00082655377528148,0.00082655145118231,1.8281257804123e-08,-2.1340702790479e-08,-0.00098557633053836,0.00098558564400313,-0.00098558953019641,0.00098557247656857,-0.00098557457703607,0.0009855873728575,-0.00098558772925696,0.00098557426377626,-0.00086782870070171,0.00086781841637821,-0.00086783397281542,0.00086781313805085,0.68719101453876,128566,2924,0.0047232860414107,0.0067168163193571,0.0034422424315702,16.757041084993,-0.00010594367132006,-0.00010594367132006,-0.00010594367132006,3686955.8393191,0.014994698048465
19219200,0.98484330791521,0.015430277842947,0.0049873871112534,0.0064932487115368,0.0039496420201572,-0.0011371495567882,0.0011371482342079,2.2141343603401e-09,-3.5600859158615e-09,5.5500562081606e-09,-7.1168982982305e-09,-0.0012815048401575,0.0012815096953964,-0.0012815067506282,0.0012815077017274,-0.0012815089050302,0.0012815054266098,-0.0012815108229736,0.001281503527513,-0.0010804239210732,0.0010804239690745,-0.0010804295889731,0.0010804184159802,-4.3433717567978e-09,8.080918829712e-09,-1.7806369816684e-08,2.1348686841095e-08,-0.0016191351497136,0.0016191387019372,-0.0017574640315083,0.0017574506224596,-0.0017574513435635,0.0017574636220404,-0.0017574600611243,0.0017574547084389,-0.0017574473225974,0.0017574677507345,-0.001414546544311,0.00141451571066,-0.0014145085358158,0.0014145546952292,-0.0015090727441386,0.0015090770880956,-0.0015090606036627,0.001509089579813,-3.8458079379059e-09,1.5411475275432e-09,-0.0008272862792542,0.00082728397634846,1.8154778848145e-08,-2.1188827717793e-08,-0.0009865389968034,0.00098654821395565,-0.00098655210394713,0.00098653513920137,-0.00098653721894915,0.00098654996682816,-0.00098655027942243,0.00098653694979091,-0.00086863133493973,0.00086862123104018,-0.00086863667718346,0.00086861588514444,0.70677988312559,128566,2924,0.0047267682859084,0.0067216094385527,0.0034452950142914,17.022464177077,-0.00010382028658338,-0.00010382028658338,-0.00010382028658338,3681665.0106706,0.015006199607239
19419200,0.98518149284041,0.015435410833009,0.004989032582308,0.0064954132803764,0.003950964970325,-0.0011384419490367,0.0011384406282162,2.2515658515893e-09,-3.5959559297072e-09,5.5464847314322e-09,-7.1109559355891e-09,-0.0012829716808551,0.0012829765596324,-0.0012829736163198,0.0012829745411685,-0.001282975743199,0.0012829722933323,-0.0012829776848993,0.001282970370253,-0.0010818698298656,0.0010818699520103,-0.0010818755670385,0.0010818643284877,-4.344407828323e-09,8.0817677198378e-09,-1.7776439662735e-08,2.1318486566516e-08,-0.0016208297229475,0.0016208332749246,-0.0017591141549781,0.0017591007649177,-0.001759101486605,0.0017591137439799,-0.0017591101844054,0.0017591048508072,-0.0017590974645711,0.0017591178741391,-0.0014162330456347,0.0014162022692577,-0.0014161950943329,0.0014162411972751,-0.0015107113341495,0.0015107156550434,-0.0015106991893828,0.0015107281493021,-3.8754639544827e-09,1.5746174777881e-09,-0.00082842740065537,0.00082842510145193,1.8115371073496e-08,-2.1145579984135e-08,-0.00098797448645536,0.00098798365935127,-0.00098798756669435,0.00098797061134425,-0.00098797268827863,0.00098798543281274,-0.00098798572067332,0.00098797244351398,-0.00086986325119303,0.00086985324305854,-0.00086986865633999,0.00086984783268699,0.69264758438155,128566,2924,0.0047321287051799,0.0067286127170697,0.0034500479169764,17.539061247724,-9.9687510018204e-05,-9.9687510018204e-05,-9.9687510018204e-05,3678659.0377005,0.015023577927422
19619200,0.98552319749208,0.015440464599955,0.0049906507518188,0.0064975545916788,0.0039522592564575,-0.0011397335335357,0.0011397322160739,2.2820755384658e-09,-3.6231976277177e-09,5.5334720808899e-09,-7.0945681077554e-09,-0.0012844228835922,0.0012844277740036,-0.0012844248367833,0.0012844257374042,-0.0012844269348742,0.0012844235187331,-0.0012844288975596,0.0012844215755157,-0.0010832968520781,0.0010832970476159,-0.0010833026501258,0.0010832913641098,-4.3234338161235e-09,8.059603814577e-09,-1.7846989014383e-08,2.1387971825319e-08,-0.001622508596005,0.0016225121467818,-0.0017607686821097,0.0017607552570772,-0.0017607559669215,0.0017607682852723,-0.0017607647243117,0.0017607593299508,-0.0017607519599397,0.0017607723994041,-0.0014178818175239,0.0014178508920375,-0.0014178437346347,0.0014178899555929,-0.0015123378143874,0.0015123422271834,-0.0015123257160817,0.0015123546745718,-3.9216534188068e-09,1.6070014183605e-09,-0.00082956869905333,0.0008295663856593,1.818480884469e-08,-2.1230760145742e-08,-0.00098937348134313,0.00098938266371489,-0.00098938661161664,0.00098936956598145,-0.00098937165540088,0.00098938446460149,-0.00098938474069751,0.00098937142300784,-0.00087108505842676,0.00087107505767452,-0.00087109053652959,0.00087106957413596,0.67638954246823,128566,2924,0.0047374854821201,0.0067355518549616,0.0034548001858615,18.061744356368,-9.5506045149058e-05,-9.5506045149058e-05,-9.5506045149058e-05,3679420.1721284,0.015040886265086
19819200,0.98586814974455,0.015445413225251,0.0049922330126744,0.0064996629021048,0.0039535173104716,-0.0011410166370384,0.0011410153259299,2.3249482486493e-09,-3.6599312115105e-09,5.5100549546291e-09,-7.0641211733001e-09,-0.0012858453531048,0.0012858502600514,-0.0012858473338956,0.0012858481951639,-0.0012858493880924,0.0012858460209084,-0.0012858513752146,0.0012858440522289,-0.0010846927251815,0.0010846930174747,-0.0010846985952368,0.0010846872596306,-4.3049944770797e-09,8.0383902325785e-09,-1.7972697969532e-08,2.1511111175143e-08,-0.0016241542107025,0.0016241577590201,-0.0017624107364469,0.0017623972420409,-0.0017623979420909,0.0017624103512599,-0.001762406793011,0.0017624013000464,-0.0017623939468487,0.0017624144538847,-0.0014194749301295,0.0014194437403442,-0.0014194366016108,0.0014194830558328,-0.0015139349010505,0.0015139394282284,-0.0015139228370416,0.0015139518405486,-3.9606182585018e-09,1.6247846590368e-09,-0.00083070269039914,0.00083070035561455,1.8291160465456e-08,-2.1361478919728e-08,-0.0009907258231936,0.00099073504651105,-0.00099073903387821,0.00099072186814668,-0.00099072398012029,0.0009907368650943,-0.00099073714265933,0.00099072374567923,-0.00087228958202009,0.00087227954149946,-0.00087229511922805,0.0008722739976882,0.65786895251843,128566,2924,0.0047428067001915,0.0067423543974028,0.0034595206768397,18.584652772613,-9.1322777819096e-05,-9.1322777819096e-05,-9.1322777819096e-05,3683428.1992138,0.015057987037583
20019200,0.9862067909319,0.015450454715825,0.004993847145648,0.0065017986190918,0.0039548089510855,-0.0011414932735584,0.001141491970798,2.344940894533e-09,-3.6721124533486e-09,5.4799081913733e-09,-7.0232670754236e-09,-0.0012864124728963,0.0012864173715431,-0.0012864144599555,0.0012864152975491,-0.0012864164808591,0.0012864131590159,-0.0012864184811905,0.0012864111755235,-0.0010852515069978,0.0010852518703025,-0.0010852574146038,0.0010852460680755,-4.2376179262106e-09,7.9642852535524e-09,-1.8260204336586e-08,2.1792446746064e-08,-0.0016248983999997,0.0016249019422241,-0.0017631684824066,0.0017631548379981,-0.001763155500649,0.0017631681410241,-0.0017631645813006,0.0017631588516242,-0.0017631515543051,0.0017631721929032,-0.0014201680888558,0.001420136296888,-0.0014201292218802,0.0014201761721713,-0.0015146446241189,0.0015146494823064,-0.0015146327045425,0.0015146617407385,-4.0418854184856e-09,1.647517375431e-09,-0.00083109070328155,0.00083108830836051,1.8608881170072e-08,-2.1748937794644e-08,-0.00099124518966313,0.00099125455113285,-0.00099125863092093,0.00099124114224781,-0.00099124330896129,0.00099125640754974,-0.00099125670831859,0.00099124305119935,-0.00087271121562381,0.00087270097709833,-0.00087271684422147,0.0008726953399869,0.68048384379471,128566,2924,0.004744783700427,0.0067454294621037,0.0034611385192924,18.671647371096,-9.0626821031232e-05,-9.0626821031232e-05,-9.0626821031232e-05,3683657.3293261,0.015064758823959
20219200,0.98653671696675,0.015455512758026,0.0049954682439455,0.0065039320953158,0.0039561124187649,-0.0011417417220221,0.0011417404315319,2.4029275483856e-09,-3.7177232810242e-09,5.4315619090268e-09,-6.9622482613888e-09,-0.0012867648141098,0.0012867697264202,-0.0012867668378119,0.0012867676143108,-0.0012867687890315,0.0012867655464202,-0.0012867708206698,0.0012867635316026,-0.0010856029468905,0.0010856034514953,-0.0010856089480691,0.001085597558867,-4.2124268544864e-09,7.9363856113379e-09,-1.8585479290189e-08,2.2115385017698e-08,-0.0016254284181196,0.0016254319579191,-0.0017636901488829,0.0017636763084106,-0.0017636769599556,0.0017636898262822,-0.0017636862681376,0.0017636803013916,-0.0017636730276296,0.0017636938637637,-0.0014206720660052,0.0014206396074251,-0.0014206325590056,0.0014206801363565,-0.0015151372936099,0.0015151424072454,-0.001515125417819,0.001515154623746,-4.0794927175882e-09,1.6423896717084e-09,-0.00083126036590603,0.0008312579275169,1.8850872171413e-08,-2.2039969867047e-08,-0.0009915747868922,0.00099158427576746,-0.00099158840838731,0.00099157068683247,-0.00099157289849782,0.00099158614034138,-0.00099158647184345,0.0009915726097896,-0.00087291771724302,0.00087290729969648,-0.00087292338703603,0.00087290162252023,0.69908660235263,128566,2924,0.0047458149251926,0.0067476173519856,0.0034618505472071,18.638377406867,-9.0892980745067e-05,-9.0892980745067e-05,-9.0892980745067e-05,3678270.8499551,0.015068751271095
20419200,0.98685810487342,0.015460446820555,0.0049970494786478,0.0065060133866263,0.0039573839552813,-0.0011419688235731,0.0011419675349482,2.4110718797878e-09,-3.7239774951732e-09,5.4225225959216e-09,-6.9511297772274e-09,-0.0012871153445425,0.001287120251583,-0.0012871173669914,0.001287118138754,-0.0012871193074122,0.0012871160829924,-0.0012871213485458,0.0012871140581969,-0.0010859511416502,0.0010859516835658,-0.0010859571707535,0.0010859457606008,-4.1820202647398e-09,7.9027230938812e-09,-1.8768332782199e-08,2.2295284812e-08,-0.0016259665113695,0.0016259700482236,-0.0017642036553114,0.001764189709694,-0.0017641903448002,0.0017642033531858,-0.0017641997903192,0.0017641936859139,-0.001764186438545,0.0017642073638618,-0.0014211975238928,0.0014211646999526,-0.0014211576802761,0.0014212055742683,-0.0015156341710062,0.0015156394791374,-0.001515622372257,0.0015156516170083,-4.1583951415446e-09,1.6852511019218e-09,-0.00083140694459946,0.00083140446949177,1.9057575629264e-08,-2.2288563381837e-08,-0.0009919149447132,0.00099192450388183,-0.00099192871235429,0.00099191076881766,-0.0009919130105493,0.00099192641400433,-0.00099192674004173,0.00099191272733164,-0.00087310842858407,0.00087309792893226,-0.00087311420339293,0.00087309214723856,0.69998401451313,128566,2924,0.0047467578331247,0.0067498374847336,0.0034624682339773,18.602132344205,-9.1182941246357e-05,-9.1182941246357e-05,-9.1182941246357e-05,3670348.7909756,0.015072591695334
20619200,0.98717118680045,0.015464735993502,0.0049984172597317,0.0065078574657459,0.0039584612680244,-0.0011421561533639,0.0011421548699287,2.4768943083438e-09,-3.784603857477e-09,5.4023261467659e-09,-6.925268297219e-09,-0.0012874318747484,0.0012874368192346,-0.0012874339443864,0.0012874346585838,-0.0012874358276847,0.0012874326602584,-0.0012874379056959,0.0012874305986365,-0.0010862482908436,0.0010862489609643,-0.0010862544280212,0.0010862429313277,-4.1860514730009e-09,7.9068973465959e-09,-1.893573464454e-08,2.2462819306407e-08,-0.0016264653189782,0.0016264688559503,-0.0017646828045505,0.0017646687507657,-0.0017646693906606,0.0017646825017181,-0.0017646789423303,0.0017646727244519,-0.0017646654761361,0.0017646865208234,-0.0014216813881534,0.001421648222319,-0.0014216412036841,0.0014216894457891,-0.0015160826403854,0.0015160880365219,-0.0015160708184452,0.0015161001982487,-4.1704114533718e-09,1.6827660626739e-09,-0.00083151832214806,0.00083151583197509,1.9156030383745e-08,-2.2404637283265e-08,-0.00099222142712131,0.00099223104544737,-0.0009922352712992,0.0009922172338366,-0.00099221949530395,0.00099223295353287,-0.00099223329064127,0.00099221920092854,-0.00087325197300981,0.00087324141293554,-0.0008732577724295,0.00087323560642666,0.63099125370498,128566,2924,0.0047475357199656,0.0067518951006006,0.0034629395289378,18.565776731088,-9.1473786151297e-05,-9.1473786151297e-05,-9.1473786151297e-05,3663264.016999,0.015075951085296
20819200,0.98746159391604,0.015469033257347,0.0049997920896757,0.0065096797496034,0.0039595614180674,-0.0011408888386468,0.0011408875598766,2.4820230920637e-09,-3.7860556276958e-09,5.3860201406826e-09,-6.9017064325472e-09,-0.00128615533332,0.0012861602665196,-0.0012861573996627,0.0012861581061556,-0.0012861592681095,0.0012861561252556,-0.0012861613522246,0.0012861540560867,-0.0010849945580726,0.0010849952628507,-0.0010850007099327,0.0010849892086272,-4.129424469917e-09,7.8445077012627e-09,-1.9155439084661e-08,2.2677070159543e-08,-0.001625255569517,0.0016252591011648,-0.0017635125781993,0.0017634984116024,-0.0017634990205356,0.0017635123121998,-0.0017635087495391,0.001763502349711,-0.0017634951484908,0.0017635162865419,-0.0014204391796025,0.0014204055563976,-0.0014203985929531,0.0014204472031469,-0.001514863655059,0.0015148693197994,-0.0015148519579055,0.0015148813450014,-4.2597907457579e-09,1.7224624635727e-09,-0.00083030352436329,0.00083030098259401,1.9432110302722e-08,-2.274200772986e-08,-0.00099095950712472,0.00099096923215857,-0.00099097354999647,0.0009909552217322,-0.00099095752803344,0.00099097118722982,-0.00099097153094049,0.00099095722744988,-0.00087198556525615,0.00087197486888963,-0.00087199147588844,0.00087196894594763,0.67642718647517,128566,2924,0.0047422812112865,0.0067468903027694,0.0034578911226927,17.742238917333,-9.8062088661337e-05,-9.8062088661337e-05,-9.8062088661337e-05,3655082.3890477,0.015060410914347
21019200,0.98772972142953,0.015472869764756,0.0050010177335749,0.0065113148601939,0.0039605371709875,-0.0011394334016907,0.0011394321302391,2.5738728754265e-09,-3.8702839159644e-09,5.3555700413442e-09,-6.8640662143712e-09,-0.0012847320323265,0.0012847370165788,-0.0012847341645603,0.001284734790203,-0.0012847359523702,0.0012847328891571,-0.0012847380876984,0.0012847307705988,-0.0010835895763826,0.0010835904609938,-0.0010835958808267,0.0010835842613203,-4.140656283381e-09,7.8561696111758e-09,-1.931861068994e-08,2.2840621962795e-08,-0.0016238995516803,0.0016239030837401,-0.0017621497660817,0.0017621354931505,-0.0017621361110097,0.0017621494953138,-0.0017621459381808,0.0017621394308617,-0.00176213222397,0.0017621534853042,-0.0014191044807793,0.001419070520818,-0.001419063550817,0.0014191125135973,-0.001513482652759,0.0015134883803282,-0.0015134709106506,0.0015135004528363,-4.2427702605107e-09,1.6991523505041e-09,-0.00082890636930313,0.00082890382144265,1.9487944812575e-08,-2.2804500446877e-08,-0.00098959654448483,0.0009896063247445,-0.00098961063513525,0.00098959226664293,-0.00098959458644237,0.00098960825897856,-0.00098960862124143,0.00098959426710602,-0.00087054506199075,0.00087053430218411,-0.00087055095713604,0.00087052839634833,0.65601666071129,128566,2924,0.0047362474476337,0.0067412779577193,0.003452088037795,16.831565887776,-0.00010534747289779,-0.00010534747289779,-0.00010534747289779,3637993.630772,0.015042699143591
21219200,0.98797744961727,0.015476438363965,0.005002158207962,0.006512832242895,0.0039614479131085,-0.0011379622730212,0.0011379609956931,2.5580865958024e-09,-3.8599860959481e-09,5.3756516967476e-09,-6.8915406242233e-09,-0.0012832567981622,0.0012832617763741,-0.0012832589140018,0.0012832595662198,-0.0012832607262583,0.001283257641034,-0.0012832628602523,0.0012832555227299,-0.001082138193148,0.0010821390549398,-0.001082144495137,0.0010821328566935,-4.1434301088191e-09,7.8589670893618e-09,-1.9252964412271e-08,2.277514859455e-08,-0.0016224648770409,0.001622468409113,-0.0017607248509567,0.0017607106121024,-0.0017607112304364,0.00176072457719,-0.00176072101372,0.001760714559536,-0.0017607073501179,0.0017607285611152,-0.0014176789539781,0.0014176451482063,-0.0014176381740789,0.0014176869861371,-0.0015120342761021,0.0015120399770986,-0.0015120225541709,0.0015120520349811,-4.3215585240135e-09,1.782377846487e-09,-0.00082751071201678,0.00082750816901361,1.9473585210986e-08,-2.2783918380919e-08,-0.00098817472131358,0.00098818443252369,-0.00098818879243938,0.00098817039388484,-0.00098817270146851,0.00098818642869065,-0.00098818673225171,0.00098817244053307,-0.00086909634025024,0.00086908573236885,-0.00086910237278737,0.00086907969138904,0.659671030884,128566,2924,0.0047301481894225,0.0067353419912819,0.0034462886319261,15.918590106103,-0.00011265127915118,-0.00011265127915118,-0.00011265127915118,3624553.4336991,0.015024595339683
21419200,0.98820981636469,0.015479809733743,0.0050032360533728,0.0065142626305049,0.0039623110498654,-0.0011368995787656,0.001136898301346,2.6785893982818e-09,-3.9797830113348e-09,5.3734237963397e-09,-6.8920175523594e-09,-0.0012821987897729,0.0012822038638077,-0.0012822010022606,0.0012822015618428,-0.0012822027347359,0.0012821997145452,-0.0012822049362971,0.0012821975346492,-0.0010810991173624,0.0010811001755426,-0.0010811056265842,0.0010810937975298,-4.2263450493539e-09,7.9533124049419e-09,-1.9111305587792e-08,2.264497199065e-08,-0.0016214552237425,0.0016214587670073,-0.0017597206746348,0.001759706495909,-0.0017597071601882,0.0017597203582941,-0.0017597167985033,0.001759710489359,-0.0017597032077255,0.0017597244146522,-0.0014166748198663,0.001416641305842,-0.0014166342690874,0.0014166829227691,-0.0015110105381844,0.0015110159347579,-0.001510998602226,0.0015110282166821,-4.2366018299612e-09,1.7629180369887e-09,-0.00082650056651385,0.00082649808874385,1.9180806212301e-08,-2.2412949221481e-08,-0.00098715912784431,0.00098716872999797,-0.00098717299558954,0.00098715489785913,-0.00098715715820182,0.00098717067703526,-0.00098717095600291,0.0009871569254105,-0.00086804975455873,0.00086803936738607,-0.00086805572657859,0.00086803338963344,0.66373455132577,128566,2924,0.0047257424483607,0.0067311641778149,0.0034420917411937,15.230162187865,-0.00011815870249708,-0.00011815870249708,-0.00011815870249708,3614130.3559606,0.015011622316658
21619200,0.98842824787669,0.015483008591474,0.0050042591843806,0.006515616833452,0.0039631325736413,-0.0011358730032817,0.0011358717072863,2.6293788935959e-09,-3.9494377644607e-09,5.4453911949468e-09,-6.9822227884748e-09,-0.0012811816833373,0.0012811867517629,-0.0012811838562103,0.001281184488134,-0.0012811856666641,0.0012811825624105,-0.0012811878533172,0.0012811803927247,-0.0010800992449564,0.0010801001900461,-0.0010801057022323,0.001080093838053,-4.2316742736674e-09,7.9559310825901e-09,-1.8757191300917e-08,2.228717745091e-08,-0.0016204802706244,0.0016204838105057,-0.0017587474388696,0.0017587334729549,-0.0017587341387267,0.0017587471066426,-0.001758743543538,0.0017587374809616,-0.0017587301969209,0.0017587511536473,-0.0014157100843159,0.0014156773097,-0.001415670253714,0.0014157181722236,-0.0015100210659087,0.0015100262610175,-0.0015100091597739,0.0015100385091887,-4.3324472221286e-09,1.8820972666336e-09,-0.00082552689976201,0.00082552444720889,1.9008915326685e-08,-2.2215787300366e-08,-0.00098618909927429,0.00098619851941625,-0.00098620282934543,0.00098618482195258,-0.00098618704366904,0.00098620055061926,-0.00098620073066512,0.00098618690721988,-0.00086704186286529,0.00086703179663446,-0.00086704800844761,0.00086702564356709,0.66920856528424,128566,2924,0.0047214864592375,0.0067271297110153,0.0034380465485865,14.565839864565,-0.00012347328108348,-0.00012347328108348,-0.00012347328108348,3603598.3799019,0.014999101152879
21819200,0.98863370705961,0.015485972476032,0.005005206609749,0.006516873860607,0.0039638920056762,-0.0011348340523162,0.001134832746542,2.6394898848407e-09,-3.969317610732e-09,5.4827780931152e-09,-7.0302725100006e-09,-0.0012801569570985,0.0012801620506204,-0.0012801591372481,0.0012801597814644,-0.0012801609653376,0.0012801578370133,-0.0012801631655846,0.0012801556536171,-0.0010790899464328,0.0010790908923972,-0.0010790964433555,0.0010790845035034,-4.2551961490315e-09,7.9816852925226e-09,-1.8490204811582e-08,2.2022202326483e-08,-0.0016194918858052,0.0016194954277342,-0.0017577555005064,0.0017577416908492,-0.0017577423680128,0.0017577551505595,-0.001757751585464,0.00175774571903,-0.0017577384134006,0.001757759211161,-0.0014147389374683,0.0014147067136084,-0.0014146996326151,0.0014147470369034,-0.001509016633733,0.0015090216170364,-0.0015090046905742,0.0015090339038835,-4.3668413645343e-09,1.9534867361061e-09,-0.00082454398875888,0.00082454157400757,1.8806761681664e-08,-2.1970622958281e-08,-0.00098521849638412,0.00098522776598091,-0.00098523207437213,0.00098521422067307,-0.00098521640246114,0.00098522983557407,-0.00098522994424627,0.00098521633701602,-0.00086602487620365,0.000866015088129,-0.00086603111482542,0.00086600884282441,0.65988856041422,128566,2924,0.0047171792285981,0.0067230394474429,0.0034339631876725,13.902156650282,-0.00012878274679774,-0.00012878274679774,-0.00012878274679774,3592387.2419303,0.014986432982418
22019200,0.98883884503673,0.015488883473306,0.0050061365926721,0.006518110673521,0.0039646362071126,-0.0011354969213402,0.0011354956025445,2.6926091908618e-09,-4.0349309728398e-09,5.533904803426e-09,-7.0961821085664e-09,-0.0012808578040264,0.0012808629683059,-0.0012808600305822,0.0012808606562874,-0.0012808618567449,0.0012808587111183,-0.0012808640917568,0.0012808564941989,-0.0010797870037727,0.001079787999609,-0.001079793604076,0.001079781514109,-4.3307908405479e-09,8.0645935484382e-09,-1.8071368749384e-08,2.1609988043875e-08,-0.001620293517447,0.0016202970660006,-0.0017585665039641,0.0017585529272762,-0.0017585536453504,0.0017585661033847,-0.0017585625428435,0.001758557003406,-0.0017585496340256,0.0017585702224535,-0.0014155044679143,0.0014154731033733,-0.0014154659506848,0.0014155126138965,-0.0015097987564263,0.0015098032994419,-0.0015097866437315,0.0015098157611174,-4.3371449053602e-09,1.9995936684253e-09,-0.0008251494774353,0.00082514714034191,1.8389431180412e-08,-2.1464033735124e-08,-0.00098588668452221,0.00098589572244089,-0.00098589996156946,0.00098588247800079,-0.00098588459018746,0.00098589779212006,-0.00098589782062622,0.00098588460507649,-0.00086665777801881,0.00086664840200923,-0.00086666404913516,0.00086664212622276,0.64982379944362,128566,2924,0.0047199281270778,0.0067263547632743,0.0034364813737323,14.153474838867,-0.00012677220128906,-0.00012677220128906,-0.00012677220128906,3597242.8698253,0.014995144588796
22219200,0.98904484948095,0.015491782584679,0.0050070624043655,0.0065193443396035,0.0039653758407104,-0.0011363416571001,0.0011363403309518,2.7239233834001e-09,-4.0736190823514e-09,5.562540661918e-09,-7.1328263568157e-09,-0.0012817428642934,0.0012817480674377,-0.0012817451160758,0.0012817457318685,-0.0012817469398142,0.0012817437878234,-0.0012817491976934,0.001281741549229,-0.0010806562228983,0.0010806572556763,-0.0010806628901169,0.0010806507048607,-4.3548491794645e-09,8.0916749264736e-09,-1.7796473416365e-08,2.1337784578152e-08,-0.0016212784702767,0.0016212820215068,-0.0017595768733977,0.0017595634634342,-0.0017595641927242,0.0017595764558476,-0.0017595728968411,0.0017595675557039,-0.0017595601637705,0.0017595805928144,-0.0014164363593143,0.0014164055486992,-0.0014163983706779,0.0014164445186955,-0.0015107615345867,0.0015107658459028,-0.0015107493689299,0.0015107783612602,-4.3489927771567e-09,2.0528269994836e-09,-0.00082592136711277,0.00082591907188599,1.816144122829e-08,-2.1188026692496e-08,-0.00098671873277731,0.00098672762245703,-0.00098673184345417,0.00098671454446795,-0.00098671661745944,0.00098672971275228,-0.00098672967964726,0.00098671669437469,-0.00086745598547191,0.00086744688402949,-0.00086746232344106,0.00086744054106895,0.64497436395241,128566,2924,0.0047234309720355,0.0067304289396429,0.0034396904329578,14.499932130427,-0.00012400054295658,-0.00012400054295658,-0.00012400054295658,3605369.5348162,0.015006092948565
22419200,0.98925165813931,0.015494823655074,0.0050080353215834,0.0065206294754787,0.0039661588580114,-0.0011371992167572,0.0011371978935868,2.7564873285976e-09,-4.1033623163542e-09,5.5527109519534e-09,-7.119390006287e-09,-0.0012826359019288,0.001282641119737,-0.0012826381733893,0.0012826387648754,-0.00128263996871,0.0012826368491961,-0.0012826422481388,0.0012826345881873,-0.001081535516503,0.0010815366240978,-0.0010815422471516,0.0010815300073858,-4.3484778665743e-09,8.0841577060607e-09,-1.7758987955344e-08,2.1299179989201e-08,-0.0016222702345866,0.0016222737847858,-0.0017605997371714,0.0017605863545899,-0.001760587079391,0.0017605993221963,-0.001760595763741,0.0017605904433638,-0.0017605830564038,0.0017606034533812,-0.0014173679767343,0.001417337238688,-0.0014173300650045,0.0014173761294324,-0.0015117332376987,0.0015117375400883,-0.0015117210883109,0.0015117500371869,-4.3821879663808e-09,2.0924957709695e-09,-0.00082670260538014,0.00082670031681669,1.8113126213251e-08,-2.1132261106647e-08,-0.0009875516938068,0.00098756053021876,-0.00098756476900923,0.00098754748756035,-0.00098754955307283,0.00098756264627791,-0.00098756258214666,0.00098754966058702,-0.00086826548875278,0.00086825649626862,-0.00086827189381563,0.00086825008516329,0.67139355073901,128566,2924,0.0047269869641352,0.00673453149891,0.0034429380594949,14.848921028219,-0.00012120863177424,-0.00012120863177424,-0.00012120863177424,3613827.6086441,0.015017163185291
22619200,0.98945902855722,0.015497908732787,0.0050090227192392,0.0065219315878386,0.0039669544257092,-0.0011380330140383,0.0011380316978732,2.7939054236549e-09,-4.1339128382737e-09,5.5273715587824e-09,-7.0862640212631e-09,-0.0012835427825562,0.0012835480108425,-0.0012835450765906,0.0012835456325782,-0.0012835468302771,0.0012835437591451,-0.0012835491318427,0.0012835414757392,-0.0010824243234635,0.0010824255222988,-0.0010824311187682,0.0010824188396265,-4.3179003444025e-09,8.0505458015872e-09,-1.7861943938168e-08,2.1399405972719e-08,-0.0016232937235076,0.0016232972709704,-0.0017616302956321,0.0017616168651352,-0.0017616175725367,0.0017616299002545,-0.0017616263434315,0.0017616209319194,-0.0017616135700741,0.0017616340103349,-0.0014183522078779,0.0014183212454022,-0.0014183140986063,0.0014183603395243,-0.0015127261142441,0.0015127305434056,-0.0015127140261509,0.0015127429771168,-4.4258999383078e-09,2.1159960958517e-09,-0.00082744915679824,0.00082744684763841,1.8209667590478e-08,-2.1252062208528e-08,-0.00098841503694691,0.0009884239031771,-0.00098842818430404,0.00098841078836486,-0.00098841287429341,0.0009884260413599,-0.00098842597469689,0.00098841298418425,-0.00086905355375507,0.00086904453655844,-0.00086906002551624,0.000869038058327,0.67880268820199,128566,2924,0.004730444878148,0.006738763253519,0.0034460442965554,15.187094501843,-0.00011850324398525,-0.00011850324398525,-0.00011850324398525,3617321.2885104,0.015028122913637
22819200,0.98966394713124,0.015500947607693,0.0050099951360561,0.0065232154892297,0.0039677369824073,-0.0011384457006857,0.0011384443971956,2.8336397872459e-09,-4.1611924777468e-09,5.4793036591575e-09,-7.0242449553147e-09,-0.0012840300512591,0.0012840352775192,-0.0012840323663814,0.0012840328763418,-0.0012840340620165,0.0012840310623132,-0.0012840363860775,0.0012840287560529,-0.0010828979991721,0.0010828993131989,-0.0010829048602122,0.0010828925630478,-4.2680741327356e-09,7.9958261978217e-09,-1.8154885067606e-08,2.1687951187567e-08,-0.0016238868959668,0.0016238904390129,-0.001762224203027,0.0017622106108394,-0.0017622112915243,0.0017622238411084,-0.0017622202843602,0.0017622146429475,-0.0017622073232571,0.0017622279157706,-0.0014189204605372,0.0014188888889908,-0.0014188817888059,0.0014189285610478,-0.0015132879130077,0.00151329263438,-0.0015132759276403,0.0015133049626561,-4.4839727739928e-09,2.1260142747407e-09,-0.00082779968810396,0.00082779732995116,1.8464049778954e-08,-2.1562247054496e-08,-0.00098888057763301,0.00098888956082,-0.0009888939120079,0.00098887625903963,-0.00098887839205528,0.00098889172217089,-0.00098889168009243,0.00098887847729883,-0.00086943344109089,0.00086942425505653,-0.00086943997808258,0.00086941771075566,0.67691803973901,128566,2924,0.0047321568373414,0.0067412143073226,0.0034475052195622,15.303549716709,-0.00011757160226633,-0.00011757160226633,-0.00011757160226633,3616190.7715254,0.015033833037877
23019200,0.98986634288635,0.015503733985089,0.0050108838986016,0.0065244074299974,0.0039684426564896,-0.0011388317465866,0.0011388304526189,2.8715314595784e-09,-4.1896579650271e-09,5.4424973857294e-09,-6.9770322029848e-09,-0.0012844877190508,0.0012844929489212,-0.0012844900552934,0.0012844905245958,-0.0012844917017366,0.001284488761135,-0.0012844940476664,0.0012844864326179,-0.0010833384696624,0.0010833398856036,-0.0010833453948396,0.0010833330699585,-4.2260464444761e-09,7.949564579906e-09,-1.843436075805e-08,2.1963638994082e-08,-0.0016244486758859,0.0016244522151096,-0.0017627904446185,0.0017627766951609,-0.0017627773536857,0.0017627901111999,-0.0017627865546253,0.0017627806976032,-0.0017627734140318,0.0017627941563132,-0.0014194540765835,0.0014194219268389,-0.0014194148665753,0.0014194621511039,-0.0015138163736819,0.0015138213619448,-0.0015138044743666,0.0015138336022319,-4.5419783426959e-09,2.1367781948171e-09,-0.00082812546771619,0.00082812306149366,1.8720163047869e-08,-2.187304425048e-08,-0.00098931403682634,0.0009893231388149,-0.00098932755929791,0.0009893096489742,-0.0009893118284475,0.0009893253231524,-0.00098932530444143,0.00098931189020125,-0.00086978389130328,0.0008697745380036,-0.00086979049571184,0.00086976792623096,0.63260004049635,128566,2924,0.0047337582336982,0.0067435356443446,0.0034488630318174,15.414767665254,-0.00011668185867796,-0.00011668185867796,-0.00011668185867796,3615521.2684157,0.01503919449917
23219200,0.99006621380465,0.015506613084765,0.0050118040741074,0.0065256291985703,0.0039691798120873,-0.0011392297149775,0.0011392284288783,2.9092656949741e-09,-4.2195424462218e-09,5.4131200595542e-09,-6.9387760355669e-09,-0.0012848930018567,0.0012848982392767,-0.0012848953595808,0.0012848957916251,-0.0012848969618318,0.0012848940736615,-0.0012848993301422,0.0012848917222984,-0.0010837371580962,0.0010837386706888,-0.0010837441491565,0.0010837317879372,-4.1950030565362e-09,7.9151492367416e-09,-1.8684596065416e-08,2.2210841604506e-08,-0.0016249306261771,0.0016249341623559,-0.0017633181377232,0.0017633042429777,-0.0017633048858626,0.0017633178257688,-0.0017633142687693,0.0017633082235502,-0.0017633009674773,0.0017633218488176,-0.0014198691441885,0.0014198364815211,-0.0014198294526418,0.0014198772008284,-0.001514284881669,0.0015142900963447,-0.001514273045906,0.0015143022705194,-4.5956691798729e-09,2.1505986431413e-09,-0.00082847623937382,0.00082847379237858,1.8939808514704e-08,-2.2139357510726e-08,-0.00098966280779447,0.00098967200918099,-0.0009896764913852,0.00098965835827981,-0.00098966057689012,0.00098967421624683,-0.00098967421414216,0.00098966062194554,-0.00087014239520808,0.00087013290739035,-0.00087014906556399,0.0008701262299843,0.65900011041291,128566,2924,0.0047354083035871,0.0067455300071217,0.0034503203443525,15.525792677049,-0.00011579365858361,-0.00011579365858361,-0.00011579365858361,3622055.3653086,0.015044372322734
23419200,0.99026441134098,0.015509436668132,0.0050127060302764,0.0065268298951327,0.0039699007427228,-0.0011397501304527,0.0011397488489511,2.9561695904857e-09,-4.2617427727034e-09,5.3923451544871e-09,-6.9141639883892e-09,-0.0012854604246802,0.0012854656835044,-0.0012854628135577,0.0012854632043956,-0.0012854643708576,0.0012854615307664,-0.0012854667691366,0.0012854591529773,-0.0010842873813186,0.0010842889968616,-0.0010842944602733,0.0010842820365272,-4.2008991637083e-09,7.922952857464e-09,-1.8841188167046e-08,2.2369334635358e-08,-0.0016255929671617,0.0016255965050358,-0.0017640018997139,0.0017639878999848,-0.0017639885490706,0.0017640015887762,-0.0017639980287314,0.0017639918842211,-0.0017639846239122,0.0017640056171847,-0.0014204848813427,0.0014204519111638,-0.0014204448815048,0.0014204929490743,-0.001514921195537,0.0015149264989657,-0.0015149093445983,0.0015149386933162,-4.6244052696669e-09,2.1679097053687e-09,-0.00082892979579701,0.00082892733651852,1.9028678703692e-08,-2.2241279254205e-08,-0.00099018566900802,0.0009901949073365,-0.00099019941730207,0.00099018119203632,-0.00099018342407291,0.00099019712776379,-0.00099019712343176,0.0009901834726677,-0.00087061867089661,0.00087060915772298,-0.00087062539182842,0.00087060243066602,0.65256369463179,128566,2924,0.0047375665345159,0.0067482687620647,0.0034522074848345,15.704473986865,-0.00011436420810508,-0.00011436420810508,-0.00011436420810508,3624843.1697495,0.015051259332832
23619200,0.9904651270944,0.015512364189801,0.0050136421194684,0.0065280700163797,0.0039706520539527,-0.001140900660165,0.0011408993709566,2.9853212414669e-09,-4.2980604575467e-09,5.4204136801379e-09,-6.9515249969184e-09,-0.0012866644087021,0.0012866697028772,-0.0012866668191519,0.0012866672024708,-0.0012866683759227,0.0012866655290589,-0.0012866707956377,0.0012866631284596,-0.0010854687812205,0.0010854704339832,-0.0010854759229323,0.0010854634056203,-4.2299307226964e-09,7.9532447560085e-09,-1.875317495526e-08,2.2282285696291e-08,-0.0016269177740556,0.0016269213129616,-0.0017653555657259,0.0017653416060275,-0.0017653422715047,0.0017653552339632,-0.0017653516746921,0.0017653456098965,-0.0017653383280972,0.0017653592821434,-0.0014217388289768,0.0014217060536405,-0.0014216989951946,0.0014217469101772,-0.0015162204780519,0.0015162256669917,-0.0015162085725246,0.0015162379215657,-4.6530945224542e-09,2.2087603543202e-09,-0.00082997064078384,0.00082996819485853,1.8953048480379e-08,-2.2149768737169e-08,-0.00099130965036387,0.00099131882325017,-0.00099132334303149,0.00099130516307794,-0.00099130738154878,0.00099132106718543,-0.00099132102588196,0.00099130746646784,-0.00087170713043777,0.00087169775064445,-0.00087171391948089,0.00087169095745178,0.66669035087406,128566,2924,0.0047423372335513,0.0067537482169758,0.0034565354225746,16.219134243401,-0.00011024692605279,-0.00011024692605279,-0.00011024692605279,3633772.7108858,0.015066057922511
23819200,0.99066832893684,0.015515493223338,0.0050146447550539,0.0065293850664672,0.0039714634018174,-0.0011420726156588,0.0011420713179157,3.0076814188715e-09,-4.3293229194765e-09,5.4551861643587e-09,-6.9942077314019e-09,-0.0012879135691796,0.0012879188972771,-0.0012879159966391,0.0012879163800968,-0.0012879175612761,0.0012879146990112,-0.0012879199991285,0.0012879122789456,-0.0010866947414738,0.0010866964138931,-0.0010867019361319,0.0010866893279848,-4.2489281896898e-09,7.9737893298565e-09,-1.8613780219909e-08,2.2144185136815e-08,-0.0016283019976526,0.0016283055379808,-0.0017667563934909,0.0017667425127279,-0.0017667431877287,0.0017667560481858,-0.0017667524886787,0.0017667465306175,-0.0017667392328769,0.0017667601088278,-0.0014230602553019,0.0014230277696999,-0.00142302069682,0.0014230683505544,-0.0015175751137381,0.0015175801755712,-0.0015175631693769,0.0015175924636463,-4.6857427030269e-09,2.2576142319096e-09,-0.00083102255233419,0.00083102012255151,1.8864877763463e-08,-2.2044817324028e-08,-0.00099248488276941,0.00099249397925469,-0.00099249851030021,0.0009924803841865,-0.00099248258614245,0.00099249625151702,-0.00099249616710793,0.00099248271382418,-0.00087281718890308,0.000872807967389,-0.00087282405324095,0.00087280109639155,0.70079155563066,128566,2924,0.0047471969788538,0.0067594721887868,0.0034609111639337,16.741746807597,-0.00010606602553922,-0.00010606602553922,-0.00010606602553922,3640227.499275,0.015081244602712
24019200,0.9908738760869,0.015518695908974,0.0050156713222619,0.0065307299280414,0.0039722946586708,-0.0011432355439492,0.0011432342409057,3.0379595495424e-09,-4.3648943926814e-09,5.476105571526e-09,-7.0208672210316e-09,-0.0012892020004951,0.0012892073610756,-0.0012892044503409,0.0012892048224651,-0.0012892060084654,0.0012892031473063,-0.0012892084683367,0.0012892007052372,-0.0010879577270122,0.0010879594431498,-0.0010879649866257,0.0010879522931025,-4.2705800205942e-09,7.9974514027023e-09,-1.8496592265215e-08,2.2028756760073e-08,-0.001629754683899,0.0016297582260187,-0.0017681946078199,0.0017681807895816,-0.0017681814765921,0.0017681942477434,-0.0017681906880794,0.0017681848228858,-0.0017681775068584,0.0017681983237736,-0.0014244747799198,0.0014244425391351,-0.0014244354465937,0.0014244828892006,-0.0015189871190074,0.0015189920611535,-0.0015189751303195,0.0015190043943475,-4.7108437597325e-09,2.3017592597804e-09,-0.00083205214991802,0.00083204973957105,1.8761711773613e-08,-2.1919631313736e-08,-0.00099371973033295,0.00099372874658218,-0.0009937332820104,0.00099371522741177,-0.00099371741060582,0.00099373104191946,-0.00099373091578991,0.00099371757998705,-0.00087392258317464,0.00087391352385051,-0.00087392951512589,0.00087390658536066,0.70866201281676,128566,2924,0.0047520197917198,0.0067654766669756,0.0034651978672151,17.264652428542,-0.00010188278057166,-0.00010188278057166,-0.00010188278057166,3641162.6423699,0.015096589936757
24219200,0.99108038389276,0.015521771694147,0.005016655274518,0.0065320316388137,0.0039730847808158,-0.0011442028516603,0.0011442015404489,3.0630200677733e-09,-4.398415820306e-09,5.5093836835992e-09,-7.0614752253673e-09,-0.0012903042454232,0.0012903096400097,-0.0012903067130323,0.0012903070830715,-0.001290308276833,0.0012903054036641,-0.0012903107553972,0.0012903029382516,-0.0010890361501041,0.0010890378935403,-0.0010890434647295,0.0010890306751327,-4.2477182671815e-09,7.9705016465871e-09,-1.8376566726148e-08,2.1904739205842e-08,-0.0016310263767525,0.0016310299151663,-0.0017694470839717,0.001769433357904,-0.001769434028702,0.0017694467330324,-0.0017694431779688,0.0017694373750129,-0.0017694300776433,0.0017694507916912,-0.0014257132510541,0.0014256812330088,-0.0014256741578231,0.0014257213370959,-0.0015202160603956,0.0015202209704242,-0.0015202041218178,0.0015202332482314,-4.751838911072e-09,2.3371608592422e-09,-0.00083289569031643,0.00083289327504795,1.87638368394e-08,-2.1928900947521e-08,-0.00099477856052147,0.00099478755009658,-0.00099479211507257,0.00099477402778344,-0.00099477621409393,0.00099478987277571,-0.00099478972445093,0.00099477640407771,-0.00087483558097985,0.00087482658288396,-0.00087484258258636,0.0008748195740564,0.68010064020852,128566,2924,0.0047560314947767,0.006770731653423,0.0034687122021148,17.692486090552,-9.8460111275581e-05,-9.8460111275581e-05,-9.8460111275581e-05,3639976.0704854,0.01510956739415
24419200,0.99128468924711,0.015524811402659,0.0050176275299009,0.0065333185415965,0.0039738653311612,-0.0011447305514119,0.0011447292508439,3.1078066131302e-09,-4.4325109241207e-09,5.4683645129384e-09,-7.0099220509873e-09,-0.0012909150490268,0.0012909204513729,-0.0012909175448346,0.0012909178677728,-0.0012909190512357,0.0012909162444703,-0.0012909215565287,0.0012909137556397,-0.0010896363024585,0.0010896381628013,-0.0010896436975334,0.0010896308777399,-4.2556011773052e-09,7.9806475250492e-09,-1.8478962985836e-08,2.2009402794088e-08,-0.0016317731804709,0.0016317767209638,-0.001770202428725,0.0017701886276096,-0.0017701893061051,0.0017702020762457,-0.0017701985181017,0.0017701926512375,-0.0017701853461805,0.0017702061422543,-0.0014264102944595,0.0014263780762055,-0.0014263709959311,0.0014264183922292,-0.0015209344858635,0.0015209394463982,-0.0015209225270345,0.0015209517470396,-4.7771111172073e-09,2.3679954295053e-09,-0.000833338992818,0.00083333658260721,1.8758420992174e-08,-2.1916817340296e-08,-0.00099534428019875,0.00099535324976075,-0.00099535782946517,0.00099533973319272,-0.0009953419161654,0.00099535558982318,-0.0009953554192522,0.00099534212957561,-0.00087531786422017,0.0008753089359219,-0.00087532492480609,0.00087530186884747,0.67934590311926,128566,2924,0.004758219995207,0.0067738175220283,0.003470560041064,17.88488316338,-9.6920934692963e-05,-9.6920934692963e-05,-9.6920934692963e-05,3640134.5975391,0.015116798791019
24619200,0.99148668341972,0.015527962493954,0.0050186372460285,0.0065346428308853,0.0039746824170401,-0.0011452558769035,0.0011452545767558,3.133685295898e-09,-4.4579835915921e-09,5.4674270307929e-09,-7.008221394647e-09,-0.0012915120088082,0.001291517426773,-0.0012915145203687,0.0012915148262542,-0.0012915160090458,0.0012915132213238,-0.0012915185316542,0.0012915107141943,-0.0010902293361448,0.0010902312493044,-0.0010902367818036,0.0010902239098931,-4.2266970506005e-09,7.9480466455131e-09,-1.8492562900133e-08,2.2019644784967e-08,-0.0016325037768169,0.0016325073140225,-0.0017709421404227,0.0017709283501643,-0.0017709290107278,0.0017709418052162,-0.0017709382494398,0.001770932353289,-0.0017709250722457,0.0017709458494312,-0.0014270918135324,0.0014270595514329,-0.0014270524950212,0.0014270998873036,-0.0015216406735364,0.0015216457009823,-0.001521628776578,0.0015216579368883,-4.8258229714116e-09,2.4028851301521e-09,-0.0008337806281963,0.00083377820418208,1.8827475227556e-08,-2.2001522098317e-08,-0.00099589399607709,0.00099590297510258,-0.0009959075957314,0.0009958894078209,-0.00099589160347538,0.00099590534383754,-0.00099590515832394,0.00099589183132598,-0.00087579936771713,0.00087579045487119,-0.00087580650794155,0.00087578330786013,0.70944458966397,128566,2924,0.0047603986211117,0.0067768367522721,0.0034724003209334,18.071692821857,-9.5426457425147e-05,-9.5426457425147e-05,-9.5426457425147e-05,3640486.0563431,0.015123944644209
24819200,0.99168633029319,0.015530844843494,0.005019557722671,0.0065358700146729,0.0039754171061504,-0.001145759307972,0.0011457580147947,3.1783486813721e-09,-4.4956170988586e-09,5.4405967748744e-09,-6.9740609745774e-09,-0.0012921286901517,0.0012921341233008,-0.0012921312303342,0.0012921314946312,-0.0012921326713671,0.001292129937113,-0.0012921352210596,0.0012921274039337,-0.001090829616541,0.001090831635408,-0.0010908371419127,0.0010908242201011,-4.2307850742436e-09,7.9531408762408e-09,-1.8567552258436e-08,2.2095576228901e-08,-0.0016332706396553,0.0016332741777121,-0.0017716931551964,0.0017716793126048,-0.0017716799768792,0.0017716928187706,-0.0017716892619795,0.0017716833181802,-0.001771676034067,0.001771696867173,-0.0014278348452935,0.0014278024355105,-0.0014277953768771,0.0014278429251175,-0.0015223678778848,0.0015223729449182,-0.001522355969732,0.0015223851936492,-4.8508516259321e-09,2.4304870611168e-09,-0.00083419233697959,0.00083418991529691,1.8825223544402e-08,-2.1996612610153e-08,-0.00099648319543508,0.00099649215763879,-0.00099649679364864,0.00099647859207351,-0.00099648078626004,0.00099649454294648,-0.00099649433792758,0.0009964810340892,-0.00087625728917661,0.00087624843522286,-0.00087626448368137,0.00087624123414683,0.66112228029852,128566,2924,0.0047624869226543,0.0067800039374233,0.0034741189810243,18.258296438325,-9.3933628493402e-05,-9.3933628493402e-05,-9.3933628493402e-05,3636485.1742853,0.015131026989033
25019200,0.99188587394009,0.015533690815282,0.0050204660548963,0.0065370837385824,0.003976141021803,-0.0011466109501104,0.0011466096556262,3.2131544193638e-09,-4.5314934012002e-09,5.4437129029656e-09,-6.9795740858027e-09,-0.0012930357499392,0.0012930412085501,-0.0012930383137936,0.0012930385565673,-0.00129303973399,0.0012930370194324,-0.0012930423081175,0.0012930344635934,-0.0010917229440381,0.0010917250288027,-0.0010917305414145,0.0010917175458609,-4.2400751814372e-09,7.9637840191589e-09,-1.8526498328781e-08,2.2055912706124e-08,-0.0016343147351116,0.001634318274471,-0.0017727687943542,0.0017727549752613,-0.0017727556441623,0.0017727684536231,-0.0017727648955432,0.0017727589874622,-0.0017727516951888,0.001772772507879,-0.001428801101096,0.0014287687796798,-0.0014287617128511,0.0014288091872768,-0.0015233888374985,0.0015233938585921,-0.0015233769122184,0.001523406128325,-4.8779208896372e-09,2.4677815858397e-09,-0.00083494476478388,0.000834942353432,1.8779381593254e-08,-2.1937833349614e-08,-0.00099731326045695,0.00099732217626382,-0.00099732682428576,0.00099730864538638,-0.00099731082961916,0.00099732458285104,-0.00099732434722165,0.00099731110892713,-0.00087704800690556,0.00087703925956279,-0.00087705526451244,0.00087703199595173,0.65362537928221,128566,2924,0.0047660180837301,0.006784321293857,0.0034772492357723,18.629836469491,-9.0961308244072e-05,-9.0961308244072e-05,-9.0961308244072e-05,3643378.2378202,0.015142172524797
25219200,0.992088529477,0.015536682555189,0.0050214222337621,0.006538352485615,0.0039769078358115,-0.0011479801933881,0.0011479788889265,3.2284576557538e-09,-4.5565287812952e-09,5.4818030404484e-09,-7.0289151838777e-09,-0.0012944600598583,0.0012944655496671,-0.0012944626355825,0.0012944628856927,-0.001294464071374,0.0012944613329099,-0.0012944666592322,0.0012944587614914,-0.0010931276837187,0.0010931297730151,-0.0010931353226961,0.0010931222457524,-4.2450084421413e-09,7.9686294069592e-09,-1.8352198388819e-08,2.1881531013365e-08,-0.0016358899606075,0.0016358934997912,-0.0017743853218948,0.0017743716127961,-0.0017743722820198,0.0017743849741632,-0.0017743814185411,0.0017743756291912,-0.0017743683324294,0.0017743890310391,-0.0014302786588878,0.0014302466873672,-0.0014302396110892,0.0014302867422586,-0.0015249405733014,0.0015249454732353,-0.0015249286437583,0.0015249577503652,-4.9193059778365e-09,2.5212701548387e-09,-0.00083617794406451,0.00083617554561021,1.8702508464087e-08,-2.1845922247745e-08,-0.00099862809211568,0.00099863693115309,-0.00099864159822472,0.00099862345772572,-0.00099862562855854,0.00099863937104087,-0.00099863909068742,0.00099862595135606,-0.00087833579092362,0.00087832720139942,-0.00087834313864459,0.00087831984927658,0.67454674021616,128566,2924,0.0047716951643867,0.0067908363461622,0.0034823768030054,19.270793756227,-8.583364995018e-05,-8.583364995018e-05,-8.583364995018e-05,3655534.8461079,0.015159755294597
25419200,0.9922941770879,0.015539980063603,0.0050224795094569,0.0065397340555717,0.0039777664985749,-0.0011493740776234,0.0011493727752686,3.282859454432e-09,-4.6089222987016e-09,5.4746367718601e-09,-7.01903398033e-09,-0.0012959396709966,0.0012959451949467,-0.0012959422854413,0.0012959424941468,-0.001295943679311,0.0012959409820416,-0.0012959463013409,0.0012959383775905,-0.0010945871706917,0.0010945893662053,-0.0010945949090305,0.0010945817414463,-4.2829497990589e-09,8.0100839321989e-09,-1.8319390856302e-08,2.1851648796894e-08,-0.001637537562539,0.0016375411047943,-0.0017760549613226,0.0017760412499761,-0.001776041943075,0.00177605459027,-0.0017760510337352,0.0017760452914166,-0.0017760379644427,0.0017760586758416,-0.0014318440555412,0.0014318121676124,-0.0014318050611313,0.0014318521681385,-0.0015265586680973,0.0015265634670671,-0.0015265466535911,0.0015265758285433,-4.9208846705074e-09,2.5478686519328e-09,-0.00083742408921793,0.00083742171589976,1.8568002647735e-08,-2.168367626469e-08,-0.0010000101338832,0.0010000188917624,-0.0010000235438556,0.0010000055143983,-0.0010000076627298,0.0010000213387514,-0.0010000210249,0.0010000080196364,-0.00087965249751305,0.00087964406431584,-0.00087965987795283,0.00087963667816528,0.72789190378691,128566,2924,0.0047774747868178,0.0067976490930841,0.0034875606582877,19.918168739263,-8.0654650085897e-05,-8.0654650085897e-05,-8.0654650085897e-05,3663913.6486954,0.015177802910737
25619200,0.99250260038896,0.015543342744693,0.00502355768577,0.0065411434624125,0.0039786415965107,-0.0011507515748087,0.0011507502677802,3.3006848378623e-09,-4.6315083884565e-09,5.4938204556224e-09,-7.0428934477926e-09,-0.0012974781777351,0.0012974837231629,-0.0012974808038787,0.0012974810099219,-0.0012974821986255,0.0012974794972082,-0.0012974848352996,0.0012974768780631,-0.0010961007467209,0.001096102965849,-0.0010961085270049,0.0010960952958729,-4.2770820993719e-09,8.0034050769981e-09,-1.8237642368368e-08,2.1769138013424e-08,-0.0016392864644281,0.001639290005948,-0.001777777193066,0.0017777635405181,-0.0017777642284825,0.0017777768248083,-0.0017777732686138,0.0017777675784433,-0.0017777602557976,0.0017777809042586,-0.0014335511961723,0.0014335194698681,-0.0014335123672323,0.0014335593020142,-0.0015282598791151,0.0015282646384278,-0.0015282478799721,0.0015282769819743,-4.9682764969127e-09,2.5951771330465e-09,-0.00083863568981783,0.00083863331657612,1.8556285858469e-08,-2.1671790094816e-08,-0.0010014850760401,0.0010014937933269,-0.0010014984770262,0.0010014804247564,-0.0010014825718161,0.0010014962731118,-0.0010014959277176,0.001001482960309,-0.00088096115505334,0.00088095281873176,-0.00088096862425756,0.0008809453429294,0.73243474208215,128566,2924,0.0047831872640331,0.0068048766749509,0.0034926065511165,20.565771811244,-7.547382551005e-05,-7.547382551005e-05,-7.547382551005e-05,3663832.843995,0.015196066241664
25819200,0.99270839326835,0.015546570802471,0.0050245913022677,0.0065425034717713,0.003979476028432,-0.0011513465278742,0.0011513452291093,3.3387953826499e-09,-4.6616763319874e-09,5.463077863883e-09,-7.0026777043559e-09,-0.0012982246512083,0.0012982302041828,-0.0012982273000735,0.0012982274675952,-0.0012982286486769,0.0012982260014863,-0.0012982313081885,0.0012982233596955,-0.0010968334412055,0.0010968357582602,-0.0010968412879089,0.0010968280216405,-4.2541314522043e-09,7.9783622843323e-09,-1.8399042015308e-08,2.192859376416e-08,-0.001640223097193,0.0016402266367955,-0.0017786844259752,0.0017786706802218,-0.0017786713568044,0.001778684073517,-0.0017786805169226,0.0017786747022006,-0.0017786673989669,0.0017786881372998,-0.0014344630038618,0.0014344309436761,-0.0014344238642179,0.0014344710977031,-0.0015291520756757,0.0015291569869882,-0.0015291401221222,0.0015291692822214,-5.0124471613803e-09,2.6176892021261e-09,-0.00083911876002082,0.00083911636434158,1.8676638747448e-08,-2.1818301087217e-08,-0.0010022062512987,0.0010022150131653,-0.0010022197405913,0.0010022015563238,-0.0010022037251547,0.001002217514992,-0.0010022171691136,0.0010022041142131,-0.00088151275229998,0.00088150437194066,-0.00088152028632523,0.00088149683024847,0.71386318474302,128566,2924,0.0047856552081434,0.0068087437955026,0.0034946250418149,20.804983772806,-7.3560129817552e-05,-7.3560129817552e-05,-7.3560129817552e-05,3657391.6929779,0.015204550439036
26019200,0.99290699789123,0.015549558103548,0.0050255459940601,0.0065437706586053,0.003980241450883,-0.0011512429288922,0.0011512416531918,3.3766190729599e-09,-4.6768645042859e-09,5.3784553670018e-09,-6.8921843394406e-09,-0.0012982232774204,0.0012982288050063,-0.0012982259425677,0.0012982260512997,-0.0012982272092871,0.0012982246676363,-0.0012982298877135,0.0012982220076412,-0.0010968312149562,0.0010968336731336,-0.0010968391168025,0.0010968258828268,-4.2606802270849e-09,7.9858301233714e-09,-1.8768585314602e-08,2.2299042199979e-08,-0.0016403690028261,0.0016403725433155,-0.001778818339039,0.0017788043454963,-0.001778805030017,0.0017788179873909,-0.0017788144248266,0.0017788083732686,-0.0017788010689324,0.0017788220550385,-0.0014345853723388,0.001434552595083,-0.0014345455222742,0.0014345934849662,-0.0015292643362104,0.0015292694830376,-0.0015292523706637,0.0015292817879528,-5.0628692960187e-09,2.6491399483288e-09,-0.00083896120106416,0.00083895878526174,1.8795776889977e-08,-2.196162479319e-08,-0.0010021985333461,0.0010022073351123,-0.0010022121089282,0.001002193792194,-0.0010021959796536,0.0010022098658772,-0.0010022095117279,0.0010021963771464,-0.00088138508494077,0.00088137667848326,-0.00088139269375074,0.0008813690571261,0.68688291045747,128566,2924,0.0047852265545001,0.0068093418807771,0.0034939783515068,20.67576417048,-7.4593886636157e-05,-7.4593886636157e-05,-7.4593886636157e-05,3648858.3728159,0.015204067884033
26219200,0.9930986008948,0.01555261737367,0.0050265260255853,0.0065450555047122,0.0039810358433726,-0.00115113692197,0.001151135638805,3.4152446307422e-09,-4.7226604909812e-09,5.4008302227704e-09,-6.9234477750112e-09,-0.0012981663628769,0.0012981719298496,-0.0012981690549975,0.0012981691448786,-0.0012981703119442,0.001298167772757,-0.0012981730177078,0.0012981650856349,-0.0010967878033393,0.0010967903147261,-0.0010967957820917,0.0010967824416084,-4.192808011711e-09,7.9107288887802e-09,-1.882447782983e-08,2.2348416386161e-08,-0.001640434917573,0.0016404384514906,-0.0017788962568664,0.0017788822779663,-0.0017788829208099,0.0017788959476412,-0.0017788923912872,0.0017788862550836,-0.0017788790064878,0.0017788999667594,-0.0014346077307524,0.0014345747977065,-0.0014345677772681,0.0014346157862682,-0.0015293132849596,0.0015293185967751,-0.0015293014594164,0.0015293307618425,-5.1113223386516e-09,2.6511086570864e-09,-0.00083881412161729,0.0008388116590649,1.9040461079749e-08,-2.2258394588187e-08,-0.0010021169762184,0.0010021258978217,-0.0010021307332147,0.0010021121729022,-0.0010021144060123,0.0010021284437636,-0.0010021281179431,0.0010021147752282,-0.00088125568854267,0.00088124710609184,-0.00088126335063599,0.00088123943350312,0.72524660523325,128566,2924,0.0047847874134304,0.0068096116567879,0.0034933715717919,20.537712947549,-7.5698296419606e-05,-7.5698296419606e-05,-7.5698296419606e-05,3644878.4567009,0.015203280262287
26419200,0.99328348541775,0.015555656486679,0.0050275005449844,0.0065463266682657,0.0039818292734287,-0.0011510249486478,0.0011510236655357,3.4503258028728e-09,-4.7576954642198e-09,5.3983153460486e-09,-6.9207518650752e-09,-0.00129814629961,0.001298151888386,-0.0012981490151414,0.0012981490799461,-0.0012981502475252,0.0012981477330917,-0.0012981529757953,0.00129814502209,-0.0010967775857212,0.0010967801682546,-0.0010967856330437,0.0010967722270673,-4.1773612414227e-09,7.8937355899727e-09,-1.8904480765501e-08,2.2427044484774e-08,-0.001640553579769,0.0016405571123075,-0.0017789922813918,0.001778978255485,-0.001778978890959,0.0017789919814347,-0.0017789884253731,0.0017789822226135,-0.0017789749860333,0.0017789959907855,-0.0014347183206596,0.001434685216494,-0.0014346782098747,0.0014347263666155,-0.001529403998644,0.0015294093925418,-0.0015293922028081,0.0015294215266466,-5.1521899434794e-09,2.6749709970402e-09,-0.00083865236906024,0.00083864988913247,1.9142089672035e-08,-2.238004422557e-08,-0.0010020973099986,0.0010021062671595,-0.001002111140882,0.0010020924685696,-0.0010020947184019,0.0010021088346907,-0.0010021085037049,0.0010020950924841,-0.00088112589970804,0.00088111728984747,-0.00088113362688558,0.00088110955452686,0.74502754886071,128566,2924,0.0047843241984077,0.0068100973590226,0.0034927068334948,20.399335320246,-7.6805317438035e-05,-7.6805317438035e-05,-7.6805317438035e-05,3635445.3112791,0.01520263020515
26619200,0.99346598800583,0.015558628120852,0.0050284529333697,0.0065475715989282,0.0039826035885541,-0.0011515837226754,0.0011515824293958,3.4871164878085e-09,-4.8041696693801e-09,5.4343190399987e-09,-6.9689732091228e-09,-0.0012988352729548,0.0012988409085002,-0.0012988380176221,0.0012988380723631,-0.0012988392501249,0.0012988367250092,-0.0012988420048455,0.0012988339864037,-0.0010974684367971,0.0010974710624815,-0.001097476564022,0.0010974630423103,-4.2005946279528e-09,7.91910682484e-09,-1.8753336058162e-08,2.2277964036785e-08,-0.0016414260060295,0.0016414295405304,-0.0017798272248326,0.0017798132826831,-0.0017798139304307,0.0017798269083783,-0.0017798233535733,0.001779817265732,-0.0017798100090554,0.0017798309351076,-0.0014355774972243,0.0014355447021311,-0.0014355376712077,0.0014355855547113,-0.0015302413635648,0.0015302466093719,-0.0015302295201264,0.0015302587975686,-5.1686931633762e-09,2.7100209348797e-09,-0.00083911241146862,0.00083910995092875,1.9044721128284e-08,-2.2259431838163e-08,-0.0010027678585181,0.0010027767454246,-0.0010027816179365,0.0010027630186232,-0.0010027652505192,0.0010027793294653,-0.0010027789625962,0.0010027656601046,-0.00088165215638147,0.00088164368912771,-0.0008816599378537,0.00088163590292133,0.73848439443545,128566,2924,0.0047866421602035,0.0068136995166465,0.0034946284932161,20.629840132486,-7.496127894011e-05,-7.496127894011e-05,-7.496127894011e-05,3629658.3082045,0.015210594371525
26819200,0.9936483106878,0.015561521557229,0.0050293791266662,0.0065487889180656,0.003983353512497,-0.0011525134439545,0.0011525121363602,3.5295473474204e-09,-4.8606638279991e-09,5.4887754471208e-09,-7.0394761113075e-09,-0.001299898199067,0.0012999038968876,-0.0012999009787897,0.001299901026879,-0.0012999022196032,0.001299899670254,-0.0012999050052602,0.001299896900019,-0.0010985263107425,0.0010985289740702,-0.0010985345314464,0.0010985208624026,-4.2244089492064e-09,7.9450051491934e-09,-1.8489348110813e-08,2.2015826358029e-08,-0.0016426884279221,0.0016426919642412,-0.0017810633744345,0.0017810495906366,-0.0017810502496444,0.0017810630395881,-0.0017810594884354,0.0017810535886986,-0.0017810463110714,0.0017810670852455,-0.0014368052311301,0.0014367729637115,-0.0014367659085379,0.0014368132997574,-0.001531468612385,0.0015314736318913,-0.0015314567164021,0.0015314858763498,-5.1729751644464e-09,2.7416802495122e-09,-0.00083992034701626,0.00083991791465979,1.8891748573725e-08,-2.2073682052941e-08,-0.0010037888916449,0.0010037976824098,-0.001003802539934,0.0010037840667843,-0.001003786273401,0.0010038002769078,-0.0010037998707383,0.0010037867214203,-0.00088253582910792,0.00088252754056653,-0.00088254365177675,0.00088251971549254,0.7212190458137,128566,2924,0.0047904978431885,0.0068189151463608,0.0034979957312066,21.064489833857,-7.1484081329147e-05,-7.1484081329147e-05,-7.1484081329147e-05,3628964.9290825,0.015223225195904
27019200,0.99383035296722,0.015564327722822,0.0050302761018983,0.0065499753718606,0.0039840762490634,-0.0011534505567896,0.0011534492430715,3.5664662787562e-09,-4.903861748994e-09,5.5148145479033e-09,-7.0714748618853e-09,-0.0013009468930912,0.0013009526309838,-0.0013009497013152,0.0013009497350923,-0.0013009509341346,0.0013009483857703,-0.0013009537454148,0.0013009455889827,-0.0010995680111045,0.0010995707262355,-0.0010995763078658,0.0010995625370928,-4.2540945421554e-09,7.977410296062e-09,-1.8303266585887e-08,2.1831961039694e-08,-0.0016439259716985,0.0016439295104296,-0.0017822952155859,0.0017822815323174,-0.0017822822083466,0.0017822948600768,-0.0017822913090104,0.001782285551701,-0.0017822782476716,0.0017822989272278,-0.0014379883516796,0.0014379564668683,-0.0014379493841195,0.0014379964396812,-0.0015326745335864,0.0015326793710536,-0.001532662572664,0.0015326916774697,-5.186088666257e-09,2.7831913126732e-09,-0.00084073945972546,0.00084073705623849,1.8732114426321e-08,-2.1882038465987e-08,-0.0010047816317122,0.0010047903154069,-0.0010047951636273,0.0010047768162576,-0.0010047789954196,0.001004792927496,-0.0010047924754521,0.0010047794897973,-0.00088341952053737,0.00088341143318832,-0.00088342739837793,0.00088340355225729,0.70228505179235,128566,2924,0.0047943838118854,0.006824029106553,0.0035014077187442,21.504076484928,-6.7967388120575e-05,-6.7967388120575e-05,-6.7967388120575e-05,3631471.2817309,0.015235828278915
27219200,0.99401195716921,0.015567038068,0.0050311410597493,0.0065511276559261,0.0039847693523247,-0.0011543947341969,0.0011543934217108,3.5809514039258e-09,-4.9171502112696e-09,5.5132104381559e-09,-7.0684292285743e-09,-0.0013019741736175,0.001301979918275,-0.0013019769900865,0.0013019770163165,-0.0013019782114882,0.0013019756769455,-0.0013019810342829,0.0013019728697047,-0.0011005899736501,0.0011005927248897,-0.0011005983055482,0.0011005845049148,-4.2917926209167e-09,8.0189369129229e-09,-1.8216786501324e-08,2.174889730894e-08,-0.0016451226792663,0.0016451262214352,-0.0017835080157854,0.0017834943619826,-0.0017834950601887,0.001783507636567,-0.0017835040814154,0.0017834984101978,-0.0017834910754745,0.0017835117285105,-0.0014391128016817,0.001439081118013,-0.001439074003826,0.0014391209180286,-0.0015338428199359,0.0015338475331852,-0.0015338307864509,0.0015338599126148,-5.2239350316482e-09,2.8525014831476e-09,-0.00084156474668824,0.00084156237521954,1.8561763095967e-08,-2.1675482474842e-08,-0.0010057353803322,0.0010057439317021,-0.0010057487849491,0.0010057305598922,-0.0010057327062921,0.0010057465816241,-0.001005746063015,0.0010057332675356,-0.00088429598561473,0.00088428815475088,-0.00088430396215155,0.00088428017385525,0.68191771980221,128566,2924,0.0047982987332358,0.0068289756698036,0.0035048432985367,21.943845994005,-6.4449232047958e-05,-6.4449232047958e-05,-6.4449232047958e-05,3636937.7457375,0.015248314019994
27419200,0.99419153789549,0.015569805155316,0.0050320252365111,0.0065522980363351,0.0039854818824696,-0.0011551103742627,0.0011551090636699,3.6118581504223e-09,-4.9464243362922e-09,5.5083028918373e-09,-7.0605849610937e-09,-0.001302735365894,0.001302741128126,-0.0013027382021594,0.0013027382056523,-0.0013027393992689,0.0013027368908381,-0.0013027422425113,0.0013027340636033,-0.0011013511974609,0.0011013540124427,-0.0011013595878509,0.0011013457327741,-4.2798554375895e-09,8.0059404205451e-09,-1.8206868878712e-08,2.1738022340398e-08,-0.0016460216251547,0.0016460251663873,-0.0017844430155442,0.0017844293785709,-0.0017844300686926,0.0017844426441358,-0.0017844390899245,0.0017844334178449,-0.00178442609258,0.0017844467271228,-0.0014399273924125,0.00143989572158,-0.0014398886188255,0.0014399355010161,-0.0015347211167945,0.0015347258468389,-0.0015347091066387,0.0015347381985809,-5.261417246607e-09,2.8895041561328e-09,-0.00084217866836543,0.00084217629622003,1.8561540906637e-08,-2.167660150514e-08,-0.0010064156872979,0.0010064242138188,-0.0010064290924382,0.0010064108413999,-0.0010064129885336,0.001006426888536,-0.0010064263460477,0.0010064135738972,-0.00088494361667277,0.00088493585786849,-0.00088495166424653,0.00088492780365307,0.70214877787543,128566,2924,0.0048012658009142,0.0068326923105653,0.0035073979980709,22.252131126605,-6.1982950987158e-05,-6.1982950987158e-05,-6.1982950987158e-05,3643136.5009764,0.015257693452316
27619200,0.99436856840524,0.01557257617101,0.0050329111671176,0.006553467540512,0.0039861974633802,-0.0011557501056584,0.0011557488014459,3.6477107700336e-09,-4.9758158473987e-09,5.4835515222173e-09,-7.029460368811e-09,-0.0013034423897127,0.001303448160987,-0.001303445247023,0.0013034452171537,-0.0013034464037196,0.0013034439425771,-0.0013034492697736,0.0013034410932792,-0.0011020539924024,0.0011020568983711,-0.0011020624490198,0.0011020485535934,-4.2659773947306e-09,7.9905427555214e-09,-1.8291296648855e-08,2.1821078952075e-08,-0.0016468686179674,0.0016468721577697,-0.0017853076555759,0.0017852939710203,-0.0017852946541205,0.0017853072932573,-0.0017853037387126,0.0017852980010738,-0.00178529068798,0.0017853113658489,-0.0014407110380506,0.0014406791938559,-0.0014406721023421,0.0014407191362821,-0.0015355396562137,0.0015355444715496,-0.0015355276779971,0.001535556793606,-5.3007661715243e-09,2.9195312611531e-09,-0.00084271498105175,0.00084271259954889,1.8608185666701e-08,-2.1733363794797e-08,-0.0010070574131815,0.0010070659412315,-0.0010070708519317,0.0010070525349873,-0.0010070546906137,0.0010070686395069,-0.001007068083095,0.0010070552899294,-0.00088552142032285,0.00088551368366707,-0.00088552953455866,0.00088550556347073,0.71252806512778,128566,2924,0.0048039185679281,0.0068361928303027,0.0035096317464664,22.519138617448,-5.9846891060419e-05,-5.9846891060419e-05,-5.9846891060419e-05,3645273.2983249,0.015266209540008
27819200,0.99454297951676,0.01557535306202,0.005033799548138,0.0065546367015353,0.0039869168123472,-0.0011563849324768,0.0011563836327729,3.6814007747205e-09,-5.0050463697817e-09,5.4664093193612e-09,-7.0073821344035e-09,-0.0013041567209981,0.0013041625049738,-0.0013041595991711,0.0013041595394528,-0.0013041607222918,0.0013041582991153,-0.0013041636088108,0.0013041554290196,-0.0011027642473514,0.0011027672309969,-0.0011027727636053,0.001102758824805,-4.2445130603337e-09,7.9667408654763e-09,-1.8376242522817e-08,2.1903964142049e-08,-0.0016477274233892,0.0016477309611311,-0.0017861750038732,0.0017861612784812,-0.0017861619492494,0.0017861746555539,-0.001786171102234,0.0017861652927935,-0.0017861579977282,0.0017861787131581,-0.001441513807499,0.0014414817811994,-0.0014414747087885,0.0014415218905591,-0.0015363675231353,0.0015363724352309,-0.0015363555883019,0.0015363847127339,-5.3444497730387e-09,2.9475775049924e-09,-0.00084324489817458,0.00084324250079018,1.8688291353057e-08,-2.1831428542812e-08,-0.001007714537697,0.0010077230861794,-0.0010077280360959,0.0010077096203267,-0.0010077117916161,0.0010077258081536,-0.0010077252430508,0.0010077123995434,-0.000886099190443,0.00088609145022647,-0.00088610737550888,0.00088608325886545,0.72383355819033,128566,2924,0.0048065511531998,0.0068397414518385,0.0035118399634764,22.78512846623,-5.7718972270161e-05,-5.7718972270161e-05,-5.7718972270161e-05,3645721.905012,0.015274728592703
28019200,0.9947147154434,0.015578137635983,0.0050346909850513,0.0065558061739117,0.0039876404770198,-0.0011570161379589,0.0011570148428185,3.7174532950705e-09,-5.0365930046592e-09,5.4487389263064e-09,-6.9847010185313e-09,-0.0013048805746048,0.0013048863719042,-0.0013048834746235,0.0013048833837619,-0.0013048845621456,0.0013048821795981,-0.0013048874714305,0.0013048792865559,-0.0011034867980156,0.0011034898665965,-0.0011034953809316,0.0011034813928599,-4.2291337104564e-09,7.9497840108495e-09,-1.8467167247835e-08,2.1993482804844e-08,-0.0016486012498855,0.0016486047862092,-0.0017870474715714,0.0017870336957551,-0.0017870343584154,0.0017870471336224,-0.0017870435800699,0.0017870376995578,-0.0017870304176662,0.0017870511800867,-0.0014423385553361,0.0014423063407554,-0.0014422992828287,0.0014423466288154,-0.0015372090952716,0.0015372140984288,-0.0015371971928367,0.001537226342773,-5.384563992711e-09,2.9745189864417e-09,-0.00084376814589995,0.0008437657349292,1.8760393721202e-08,-2.1919105750714e-08,-0.0010083879007456,0.001008396466491,-0.0010084014518511,0.0010083829479533,-0.0010083851320578,0.0010083992111822,-0.0010083986367837,0.0010083857492446,-0.00088667601574799,0.00088666827434412,-0.00088668426547491,0.00088666001817541,0.73612509114446,128566,2924,0.0048091688842561,0.006843351395081,0.0035140215658164,23.051080453354,-5.559135637317e-05,-5.559135637317e-05,-5.559135637317e-05,3644556.2615298,0.015283268331131
28219200,0.99488305934524,0.015580920818739,0.005035582595516,0.0065569720673236,0.0039883661558992,-0.0011575167015931,0.0011575153964609,3.7711264146491e-09,-5.1004427810812e-09,5.4826574890091e-09,-7.0286946152042e-09,-0.0013054848428239,0.0013054907005823,-0.0013054877871144,0.0013054876681007,-0.0013054888630686,0.0013054864783724,-0.0013054918047917,0.0013054835498495,-0.0011040937893858,0.0011040969213776,-0.0011041024673666,0.0011040883412466,-4.1641398906788e-09,7.8771785204269e-09,-1.8440562422064e-08,2.1960084249383e-08,-0.001649359299708,0.0016493628299056,-0.0017877932712939,0.0017877795636054,-0.0017877801841533,0.0017877929745938,-0.0017877894298142,0.0017877835155715,-0.0017877762832538,0.001787796979293,-0.0014430586806458,0.0014430264578325,-0.0014430194517107,0.0014430666994149,-0.0015379345645289,0.001537939655285,-0.0015379227761725,0.0015379517726633,-5.4112119307138e-09,2.9647703713586e-09,-0.00084416863794626,0.0008441661903039,1.8947906728132e-08,-2.2148545471836e-08,-0.001008955983378,0.0010089646529996,-0.0010089696800435,0.0010089509906012,-0.0010089532139539,0.0010089673983592,-0.0010089668535014,0.0010089538025463,-0.00088713123850679,0.00088712335120969,-0.00088713951906565,0.00088711506492233,0.74948916590432,128566,2924,0.0048112451134484,0.0068464816064737,0.0035156940064181,23.250910850358,-5.3992713197132e-05,-5.3992713197132e-05,-5.3992713197132e-05,3640850.1525797,0.015290254683562
28419200,0.99504791909925,0.015583703610581,0.0050364747112536,0.0065581346533352,0.0039890942459918,-0.0011579919510869,0.0011579906601869,3.7856232822209e-09,-5.1007059698338e-09,5.4316690455259e-09,-6.9627717435144e-09,-0.001306075778789,0.0013060816112496,-0.0013060787229875,0.0013060785795771,-0.0013060797543842,0.0013060774324699,-0.0013060827064794,0.0013060744945996,-0.0011046914363775,0.0011046946535955,-0.001104700149991,0.0011046860504136,-4.2075195409897e-09,7.9260019052589e-09,-1.8610676409964e-08,2.2135074808541e-08,-0.0016501131624508,0.0016501166968922,-0.0017885239951226,0.0017885101313229,-0.0017885107841519,0.0017885236709047,-0.0017885201166071,0.0017885141216325,-0.0017885068566839,0.0017885277035323,-0.001443784095413,0.0014437515789021,-0.0014437445417104,0.0014437921570791,-0.0015386551843963,0.0015386603235734,-0.0015386433225518,0.0015386725240883,-5.4650421094612e-09,3.0311815873587e-09,-0.0008445435418862,0.00084454110650932,1.8896746699036e-08,-2.2083803284379e-08,-0.0010095195204922,0.001009528115842,-0.0010095331708712,0.001009514498777,-0.001009516706262,0.0010095309067775,-0.001009530309555,0.0010095173458199,-0.00088756615110908,0.00088755842178356,-0.00088757453668077,0.00088755003153895,0.7640241614312,128566,2924,0.0048132166085985,0.0068495936754264,0.0035172612885403,23.44153220958,-5.2467742323359e-05,-5.2467742323359e-05,-5.2467742323359e-05,3635574.5125903,0.015297009934527
28619200,0.9952092997929,0.015586446581047,0.0050373541684679,0.0065592799504148,0.0039898124621641,-0.0011584552442227,0.0011584539585332,3.8096781281247e-09,-5.1194674984826e-09,5.4133288848732e-09,-6.9386995316687e-09,-0.001306668513268,0.0013066743487653,-0.0013066714692713,0.0013066713041643,-0.0013066724717911,0.0013066701855395,-0.0013066754411808,0.0013066672324408,-0.0011052935290423,0.0011052968121177,-0.0011053022905507,0.0011052881619916,-4.2267684231849e-09,7.9471272440119e-09,-1.8692176026559e-08,2.221827077455e-08,-0.0016508802353829,0.0016508837715283,-0.0017892566648986,0.001789242738426,-0.0017892434029568,0.0017892563310403,-0.0017892527725743,0.0017892467430929,-0.0017892394651622,0.0017892603744068,-0.001444531980717,0.0014444993274634,-0.0014444922771613,0.0014445400590653,-0.0015393877836076,0.0015393929463057,-0.0015393758900692,0.0015394051794997,-5.5088232981267e-09,3.0793525849208e-09,-0.00084490445817843,0.00084490202700433,1.8885710094079e-08,-2.2068280864623e-08,-0.0010100924619849,0.0010101010206065,-0.0010101061017504,0.0010100874137153,-0.0010100896150536,0.0010101038440574,-0.0010101032121614,0.001010090289775,-0.0008879921146806,0.00088798448309377,-0.00088800058231476,0.00088797600798582,0.76896079020806,128566,2924,0.0048151386765322,0.0068527594750607,0.0035187715600622,23.631914754165,-5.0944681966676e-05,-5.0944681966676e-05,-5.0944681966676e-05,3628948.2027078,0.015303712111555
28819200,0.99536723170891,0.015589058326489,0.0050381905011408,0.0065603753362437,0.0039904924891043,-0.001158908740105,0.001158907464161,3.8128016095427e-09,-5.112829932179e-09,5.3776049340628e-09,-6.8929627917182e-09,-0.0013072538325853,0.0013072596445584,-0.0013072567829886,0.0013072566060854,-0.0013072577584943,0.0013072555129094,-0.0013072607332865,0.001307252558595,-0.0011058879945416,0.0011058913250954,-0.0011058967697622,0.0011058826676174,-4.2739304267122e-09,7.9997290225931e-09,-1.8806051784203e-08,2.2337140002059e-08,-0.0016516446297346,0.0016516481708598,-0.0017899855237853,0.0017899714906629,-0.0017899721849725,0.0017899851649174,-0.0017899815954093,0.0017899755331894,-0.0017899682194409,0.0017899892367753,-0.0014452779117592,0.0014452450867479,-0.0014452380019385,0.0014452860323467,-0.0015401176448948,0.0015401228062344,-0.0015401056702899,0.0015401351245311,-5.5672144800166e-09,3.1592224922009e-09,-0.00084525650248212,0.00084525409241672,1.8795958886035e-08,-2.1954446210192e-08,-0.0010106589834897,0.0010106674433589,-0.0010106725502611,0.0010106539093708,-0.0010106560856341,0.0010106703174952,-0.0010106696197296,0.0010106568276007,-0.00088840839446213,0.0008884009734567,-0.00088841698124628,0.00088839237592595,0.74978434423168,128566,2924,0.0048170201172401,0.0068559139947746,0.0035202451786247,23.824510606855,-4.9403915145162e-05,-4.9403915145162e-05,-4.9403915145162e-05,3622571.3340265,0.015310324376735
29019200,0.99552285427259,0.01559148843464,0.0050389666821312,0.0065614038790234,0.0039911178734856,-0.0011595897372369,0.0011595884438862,3.8719061377562e-09,-5.1890798877691e-09,5.4372553988446e-09,-6.9718734634043e-09,-0.0013080429284426,0.0013080488208224,-0.0013080459283377,0.0013080457296481,-0.0013080469048634,0.0013080446366356,-0.0013080499201778,0.001308041641488,-0.0011066845675372,0.0011066879484929,-0.0011066934556208,0.001106679171343,-4.2425719871027e-09,7.9646772041668e-09,-1.8626755114123e-08,2.2154466923302e-08,-0.0016526044390057,0.0016526079766623,-0.0017909315520587,0.0017909176723037,-0.0017909183432978,0.001790931210955,-0.0017909276526832,0.0017909216847287,-0.0017909143961623,0.0017909352636266,-0.0014461931164272,0.001446160609875,-0.0014461535455181,0.0014462012031838,-0.0015410475755976,0.0015410526622552,-0.0015410356541923,0.0015410649287757,-5.5727832157484e-09,3.1526279880716e-09,-0.00084582240840879,0.00084581998647178,1.8841939056019e-08,-2.2012899894962e-08,-0.0010114003596552,0.0010114088513826,-0.0010114139685506,0.001011395274473,-0.001011397467354,0.0010114117186002,-0.001011411033671,0.0010113981966063,-0.00088903354782689,0.000889026090067,-0.0008890421489048,0.00088901747936234,0.71130253285711,128566,2924,0.0048198442905001,0.0068598782967322,0.003522605500858,24.140332595078,-4.6877339239376e-05,-4.6877339239376e-05,-4.6877339239376e-05,3621592.2939767,0.015319615452402
29219200,0.99567612018433,0.015593822593386,0.0050397113322831,0.0065623957505681,0.0039917155105343,-0.0011602869992592,0.0011602857001334,3.9136457734992e-09,-5.236695638175e-09,5.4590729863304e-09,-6.9994141409967e-09,-0.0013087954344741,0.0013088013683548,-0.0013087984658154,0.0013087982470893,-0.0013087994294074,0.0013087971672668,-0.0013088024717797,0.0013087941423101,-0.0011074450869805,0.0011074485304932,-0.0011074540568637,0.0011074396672543,-4.2460722381725e-09,7.9679038062434e-09,-1.8531587433666e-08,2.2058936459751e-08,-0.0016534965671966,0.0016535001045717,-0.0017918487199833,0.0017918348963901,-0.0017918355694021,0.0017918483735628,-0.0017918448180791,0.0017918389109403,-0.0017918316182194,0.0017918524307889,-0.0014470061955282,0.00144697387146,-0.0014469668025654,0.0014470142827626,-0.0015419214519558,0.0015419264643017,-0.0015419095173802,0.0015419387413373,-5.5932656623289e-09,3.1774161837559e-09,-0.00084641350479594,0.00084641108747309,1.8805660101904e-08,-2.1971917869385e-08,-0.0010120768963144,0.0010120853525553,-0.0010120904805744,0.0010120718006216,-0.0010120739902801,0.0010120882341184,-0.0010120875288781,0.001012074738891,-0.00088966190082563,0.0008896545214451,-0.00088967055170172,0.00088964586307244,0.69516967026652,128566,2924,0.0048227352101348,0.0068635656757352,0.0035250664824645,24.459074504434,-4.4327403964527e-05,-4.4327403964527e-05,-4.4327403964527e-05,3626586.225074,0.01532879359217
29419200,0.99582695756621,0.015595959026618,0.0050403905381169,0.0065633149694056,0.0039922535190958,-0.0011609879957092,0.0011609866925328,3.9405561484572e-09,-5.2676528449641e-09,5.463150378052e-09,-7.0077271375698e-09,-0.0013095300881275,0.0013095360406451,-0.0013095331384745,0.0013095329014001,-0.0013095340867619,0.0013095318364113,-0.0013095371489185,0.0013095287915246,-0.0011081786240843,0.0011081821187855,-0.0011081876540572,0.0011081731979541,-4.2607694715938e-09,7.983962914531e-09,-1.8482231584982e-08,2.2010781900428e-08,-0.0016543487407089,0.0016543522792911,-0.0017927436816017,0.0017927298779817,-0.0017927305599553,0.0017927433252101,-0.0017927397685246,0.0017927339041115,-0.0017927265990197,0.0017927473925124,-0.0014477665543688,0.0014477343376362,-0.0014477272561021,0.0014477746521036,-0.0015427558740444,0.0015427608271149,-0.0015427439107447,0.0015427731337557,-5.6260127802192e-09,3.221636618835e-09,-0.00084701047141742,0.00084700806582726,1.8741942593813e-08,-2.1894890821046e-08,-0.001012721449953,0.0010127298441766,-0.001012734986776,0.001012716339888,-0.001012718517641,0.0010127327522502,-0.0010127320098873,0.0010127193031777,-0.00089028356891996,0.00089027632128872,-0.00089029229368977,0.00089026758945473,0.650898576315,128566,2924,0.0048256413429989,0.0068670893147706,0.0035275498087905,24.777924381968,-4.1776604944256e-05,-4.1776604944256e-05,-4.1776604944256e-05,3633829.511728,0.01533784308311
29619200,0.99597521631448,0.015598026983849,0.0050410475010804,0.0065642067664524,0.0039927727163167,-0.0011616878823659,0.0011616865773971,3.9750452445449e-09,-5.3039191394236e-09,5.4677935707681e-09,-7.0141107581428e-09,-0.0013102036597406,0.0013102096378538,-0.0013102067339372,0.0013102064748971,-0.0013102076622224,0.0013102054298182,-0.0013102107477958,0.0013102023615088,-0.0011088481744446,0.0011088517324966,-0.0011088572733373,0.0011088427429464,-4.2633426002218e-09,7.9866302248701e-09,-1.844527419577e-08,2.1973874501512e-08,-0.0016551008283636,0.001655104367013,-0.0017935812778866,0.001793567497197,-0.0017935681803218,0.0017935809193985,-0.0017935773633242,0.0017935715248482,-0.0017935642174889,0.001793584988584,-0.0014483894407648,0.001448357297743,-0.0014483502136332,0.0014483975393947,-0.0015435038499742,0.0015435087731173,-0.0015434918807797,0.0015435210850843,-5.655686690084e-09,3.2559582703224e-09,-0.00084761850090705,0.00084761610009407,1.8715522829801e-08,-2.1863054392686e-08,-0.0010132734407767,0.0010132817990762,-0.0010132869584287,0.0010132683139273,-0.0010132704873059,0.0010132847282696,-0.0010132839600342,0.0010132712987187,-0.00089089462870641,0.00089088746825767,-0.00089090341652639,0.00089087867329196,0.64191386314748,128566,2924,0.0048285421449011,0.0068702024966697,0.0035300744324751,25.08754654376,-3.929962764992e-05,-3.929962764992e-05,-3.929962764992e-05,3647204.7122715,0.015346510452698
29819200,0.99612034836368,0.015600177764612,0.0050417327923359,0.0065651244434588,0.0039933205288176,-0.001162295125599,0.0011622938206118,4.0124721254073e-09,-5.3414749524182e-09,5.4660865880642e-09,-7.0120802287623e-09,-0.0013107700468753,0.0013107760485829,-0.0013107731459856,0.0013107728606511,-0.0013107740480569,0.0013107718420099,-0.0013107771587319,0.0013107687484277,-0.0011094087328998,0.0011094123653117,-0.0011094179052333,0.001109403301854,-4.2670286115579e-09,7.990606601571e-09,-1.8462764678271e-08,2.1991600890512e-08,-0.0016557273055741,0.001655730844451,-0.0017943009877319,0.0017942871930956,-0.0017942878789057,0.0017943006271689,-0.0017942970705388,0.0017942912235543,-0.0017942839134079,0.0017943046985612,-0.001448885269104,0.001448853094469,-0.001448846008941,0.001448893371736,-0.0015441285618654,0.0015441334900918,-0.001544116585711,0.0015441458090915,-5.6857531610041e-09,3.2855957865756e-09,-0.0008481436620435,0.00084814126069484,1.8716661623276e-08,-2.1865187609156e-08,-0.0010137199187276,0.0010137282577982,-0.0010137334374911,0.0010137147714662,-0.0010137169451895,0.0010137312068865,-0.0010137304194095,0.0010137177760884,-0.00089141849879925,0.00089141139530569,-0.00089142734449827,0.00089140254204248,0.67837703777047,128566,2924,0.0048310588573865,0.0068727969282262,0.0035322536081465,25.339797769551,-3.7281617843592e-05,-3.7281617843592e-05,-3.7281617843592e-05,3660081.5954979,0.015353910205796
30019200,0.99626232489028,0.015602315979662,0.0050424145870948,0.0065660345901177,0.0039938668024498,-0.0011628946083732,0.0011628933035685,4.0422966842618e-09,-5.3710302964289e-09,5.4667853237973e-09,-7.0128532450884e-09,-0.0013113843644208,0.0013113903868077,-0.0013113874833446,0.0013113871787576,-0.0013113883661841,0.0013113861793528,-0.0013113914963507,0.0013113830663468,-0.0011100092191824,0.0011100129092647,-0.0011100184490808,0.001110003788385,-4.2606790057693e-09,7.9834715874819e-09,-1.8471876253213e-08,2.1999992968316e-08,-0.0016564179633037,0.001656421501468,-0.0017950468934438,0.0017950330969551,-0.0017950337789485,0.0017950465366281,-0.0017950429808572,0.0017950371225289,-0.0017950298178382,0.0017950506039741,-0.0014494823926609,0.0014494501951109,-0.0014494431141405,0.0014494904896815,-0.0015448002741123,0.0015448052196952,-0.0015447883101646,0.001544817526115,-5.7260560397016e-09,3.3206923893829e-09,-0.00084864981325732,0.0008486474067167,1.8743432561413e-08,-2.1897497206673e-08,-0.0010142449365535,0.0010142532650286,-0.0010142584749478,0.0010142397590715,-0.0010142419381406,0.0010142562391163,-0.00101425543136,0.0010142427890772,-0.00089194585328422,0.00089193879940507,-0.00089195477378377,0.00089192987167411,0.68873090403848,128566,2924,0.0048335442094731,0.0068756537670293,0.0035343578928846,25.590685357003,-3.5274517143979e-05,-3.5274517143979e-05,-3.5274517143979e-05,3665843.3278083,0.015361470749631
30219200,0.99640113200609,0.015604310808118,0.0050430493043306,0.0065668905433614,0.0039943709604265,-0.0011634852619192,0.0011634839587482,4.0781987971313e-09,-5.4052878948549e-09,5.4621772877608e-09,-7.0065070354901e-09,-0.0013120087782758,0.0013120148219111,-0.0013120119204093,0.0013120115904952,-0.0013120127762936,0.0013120106181486,-0.0013120159299103,0.0013120074816839,-0.0011106148279288,0.0011106185922831,-0.0011106241268283,0.0011106094025189,-4.2569286673395e-09,7.9792585994211e-09,-1.8495501693354e-08,2.2023195294207e-08,-0.001657121250758,0.0016571247884926,-0.0017957938568683,0.0017957800469142,-0.001795780727043,0.0017957935024761,-0.0017957899467275,0.0017957840699505,-0.0017957767685599,0.0017957975671142,-0.0014501028968298,0.0014500706503321,-0.0014500635729231,0.001450110991416,-0.0015454776865559,0.0015454826553263,-0.0015454657306038,0.0015454949536817,-5.7599451639562e-09,3.3513662402475e-09,-0.0008491449031866,0.00084914249335327,1.8760171492344e-08,-2.1917983079469e-08,-0.0010147895533003,0.0010147978693209,-0.0010148031039501,0.0010147843511468,-0.0010147865333257,0.0010148008650338,-0.0010148000389153,0.0010147874025704,-0.00089246615601445,0.00089245914968588,-0.00089247513950561,0.00089245015910899,0.66008312996328,128566,2924,0.0048359931828234,0.0068785619083528,0.0035364174585174,25.841522437942,-3.3267820496461e-05,-3.3267820496461e-05,-3.3267820496461e-05,3669526.9860991,0.01536900180229
30419200,0.9965370517837,0.015606150965209,0.0050436331657666,0.0065676882115714,0.003994829587871,-0.001164148569031,0.0011641472685718,4.1135074614905e-09,-5.4377784232355e-09,5.4535649204473e-09,-6.9955836656033e-09,-0.0013126699579314,0.0013126760207068,-0.0013126731228112,0.0013126727666438,-0.0013126739496759,0.0013126718233532,-0.0013126771259239,0.0013126686644503,-0.0011112548911727,0.0011112587311048,-0.0011112642569961,0.0011112494761181,-4.251465825108e-09,7.9734300194802e-09,-1.8506004090866e-08,2.2033432748166e-08,-0.0016578386527836,0.0016578421901734,-0.0017965818553086,0.001796568042081,-0.0017965687190398,0.0017965815045475,-0.0017965779491169,0.0017965720613861,-0.0017965647641335,0.0017965855654016,-0.001450711578885,0.0014506793076909,-0.0014506722344317,0.0014507196692995,-0.0015461781934662,0.001546183179746,-0.0015461662500276,0.0015461954688079,-5.7934048646144e-09,3.3848569383075e-09,-0.00084971312729837,0.00084971071751514,1.8762081770604e-08,-2.1919359797202e-08,-0.0010153446635162,0.0010153529583333,-0.0010153582154296,0.0010153394389968,-0.0010153416213328,0.0010153559762233,-0.0010153551280407,0.0010153425128051,-0.00089304744014631,0.00089304049839313,-0.00089305648993763,0.00089303144233161,0.62526527781104,128566,2924,0.0048387428763025,0.0068815305841669,0.003538778085913,26.129471667211,-3.0964226662313e-05,-3.0964226662313e-05,-3.0964226662313e-05,3678136.4032783,0.015377204189437
30619200,0.99667087152515,0.015608084434204,0.0050442487219738,0.0065685164447093,0.0039953192675213,-0.0011650335484194,0.0011650322510492,4.1460344297993e-09,-5.4670284642253e-09,5.4467443930891e-09,-6.9862338816446e-09,-0.0013135067375844,0.0013135128187247,-0.001313509922932,0.0013135095442952,-0.0013135107238402,0.0013135086266524,-0.0013135139207582,0.0013135054472424,-0.0011120735213174,0.0011120774313761,-0.0011120829485104,0.0011120681159693,-4.2362783617804e-09,7.9565863516309e-09,-1.8465164235496e-08,2.1991102572618e-08,-0.0016587075556906,0.0016587110915376,-0.0017975538147403,0.001797540037754,-0.0017975407048023,0.0017975534722598,-0.001797549918921,0.0017975440462453,-0.0017975367609355,0.0017975575226564,-0.001451437064393,0.0014514048631194,-0.001451397799597,0.0014514451403451,-0.0015470441424452,0.0015470491313959,-0.0015470322317983,0.001547061389903,-5.8280821588241e-09,3.4232282005389e-09,-0.00085049235975348,0.00085048995390648,1.8742689456085e-08,-2.1894715404676e-08,-0.0010160363000066,0.0010160445591482,-0.00101604983702,0.001016031054781,-0.0010160332335159,0.0010160476016528,-0.0010160467252251,0.0010160341527819,-0.00089383418005813,0.00089382732734649,-0.00089384330170881,0.0008938182005384,0.66318230625976,128566,2924,0.0048424109903243,0.0068851285856703,0.0035420121607759,26.523706104282,-2.7810351165746e-05,-2.7810351165746e-05,-2.7810351165746e-05,3693393.2237645,0.015387863641677
30819200,0.99680251204903,0.015610077437266,0.0050448846798122,0.00656936392363,0.0039958288338239,-0.0011659226511214,0.0011659213567171,4.1826360666076e-09,-5.5009582710895e-09,5.439731753348e-09,-6.9749671613646e-09,-0.0013144093901029,0.0013144154913044,-0.001314412599056,0.0013144121932548,-0.0013144133703839,0.0013144113054172,-0.001314416590685,0.0013144081024326,-0.0011129519298684,0.0011129559166406,-0.0011129614248259,0.0011129465315037,-4.2295626237063e-09,7.9488162572961e-09,-1.8448538685983e-08,2.1973435567038e-08,-0.0016596618222014,0.0016596653570888,-0.001798569210137,0.0017985554483493,-0.0017985561116398,0.0017985688713458,-0.0017985653188326,0.0017985594519611,-0.0017985521719042,0.0017985729166957,-0.001452287394886,0.0014522552213856,-0.0014522481642774,0.0014522954659945,-0.0015479781223112,0.0015479831131647,-0.0015479662231918,0.0015479953546465,-5.858525127099e-09,3.4569020682408e-09,-0.0008512586411338,0.00085125623843442,1.8721593198855e-08,-2.1871049303197e-08,-0.0010168233022932,0.0010168315287308,-0.0010168368246139,0.0010168180389387,-0.001016820214402,0.0010168345924628,-0.0010168336914288,0.0010168211584628,-0.0008946320511083,0.00089462527986909,-0.00089464123481304,0.00089461608939925,0.69236328557052,128566,2924,0.0048460970080738,0.0068890762826808,0.0035451969973798,26.920475619712,-2.46361950423e-05,-2.46361950423e-05,-2.46361950423e-05,3700905.5910479,0.015398848815324
31019200,0.99693187756179,0.01561209677954,0.0050455300032109,0.0065702187744175,0.0039963480019111,-0.0011668043162308,0.0011668030234452,4.2173819060211e-09,-5.5341540131348e-09,5.435544233568e-09,-6.9690832441142e-09,-0.0013153497913207,0.0013153559134572,-0.0013153530229516,0.0013153525928057,-0.0013153537683048,0.0013153517309179,-0.0013153570112191,0.0013153485053036,-0.0011138680455868,0.001113872103645,-0.0011138776069975,0.0011138626520252,-4.224984820908e-09,7.943696915512e-09,-1.8437701091358e-08,2.1962111260223e-08,-0.0016606745210848,0.0016606780554771,-0.0017996096705681,0.0017995959187032,-0.0017995965791841,0.0017996093343129,-0.0017996057823879,0.0017995999190729,-0.0017995926425695,0.00179961337646,-0.0014532262268351,0.0014531940712893,-0.0014531870175949,0.0014532342940407,-0.0015489615289221,0.0015489665214033,-0.0015489496392442,0.0015489787533401,-5.8911258689905e-09,3.4910974172811e-09,-0.00085200706313412,0.00085200466207661,1.871070781922e-08,-2.1858306887477e-08,-0.0010176706693504,0.0010176788672581,-0.0010176841838213,0.0010176653852956,-0.0010176675592161,0.0010176819532722,-0.0010176810283626,0.0010176685271108,-0.00089543044108862,0.00089542374477611,-0.00089543969006682,0.00089541448871681,0.71215832498968,128566,2924,0.0048497527667598,0.006893263072735,0.003548311040251,27.317339151636,-2.1461286786915e-05,-2.1461286786915e-05,-2.1461286786915e-05,3703024.421088,0.015409975885574
31219200,0.99705998830928,0.015614198401238,0.0050462031040051,0.0065711020726544,0.0039968932245787,-0.0011679703798668,0.0011679690840278,4.2520000634418e-09,-5.5713890133428e-09,5.4499636131725e-09,-6.988600536639e-09,-0.0013166074398809,0.001316613594706,-0.0013166106957241,0.0013166102497816,-0.0013166114275559,0.0013166094005781,-0.0013166146954878,0.0013166061517922,-0.0011151052558214,0.0011151093722068,-0.0011151148899796,0.0011150998513485,-4.1965017543991e-09,7.9127885239775e-09,-1.834206115574e-08,2.1864246537865e-08,-0.0016620278393061,0.0016620313713378,-0.0018009681804953,0.0018009545089657,-0.0018009551518243,0.0018009678605474,-0.0018009643113043,0.0018009584892477,-0.0018009512339135,0.0018009718828998,-0.0014545141625101,0.0014544821745907,-0.0014544751377583,0.0014545222023266,-0.001550282754397,0.001550287739703,-0.0015502709269944,0.0015502999168334,-5.9223623334842e-09,3.5227858964404e-09,-0.00085300514491792,0.00085300274454481,1.8708090556293e-08,-2.185295956522e-08,-0.0010188280954216,0.0010188362694973,-0.0010188416066946,0.0010188227905216,-0.0010188249639036,0.0010188393755548,-0.0010188384299593,0.0010188259527306,-0.00089650388693578,0.00089649725328477,-0.00089651319980833,0.00089648793746089,0.74546030033632,128566,2924,0.0048545878324275,0.0068988569501848,0.0035524650643404,27.866834247619,-1.7065326019049e-05,-1.7065326019049e-05,-1.7065326019049e-05,3704254.0472396,0.015424786501611
31419200,0.99718679879121,0.015616178091989,0.0050468358996553,0.0065719411619144,0.0039974010304196,-0.0011691475477997,0.0011691462580372,4.2856393012604e-09,-5.5993130663618e-09,5.4263122283384e-09,-6.9568074138971e-09,-0.0013179260223426,0.0013179321846982,-0.0013179292990186,0.0013179288201854,-0.0013179299924549,0.001317928009712,-0.0013179332798021,0.0013179247396179,-0.0011164017195064,0.0011164059193731,-0.0011164114129665,0.0011163963384074,-4.2203215970133e-09,7.9385903549257e-09,-1.8367333251048e-08,2.1891360081329e-08,-0.0016634711146969,0.0016634746486914,-0.0018023848892396,0.0018023711840578,-0.0018023718416316,0.0018023845543627,-0.0018023810035263,0.0018023751817863,-0.0018023679075003,0.0018023885939313,-0.001455918983013,0.0014558869610549,-0.0014558799084193,0.001455927044988,-0.0015516817933043,0.0015516867483881,-0.0015516699130202,0.0015516989720222,-5.952888750504e-09,3.5654891755771e-09,-0.00085400014979955,0.00085399776165127,1.8635109755806e-08,-2.1767601937624e-08,-0.0010200645218684,0.0010200726308904,-0.0010200779806308,0.0010200592049154,-0.0010200613664815,0.0010200757624013,-0.0010200747796752,0.0010200623919599,-0.00089758911416855,0.00089758261944221,-0.00089759849695587,0.00089757323058812,0.71242630552565,128566,2924,0.0048594693634667,0.0069048200943789,0.003556610029666,28.434928858573,-1.2520569131415e-05,-1.2520569131415e-05,-1.2520569131415e-05,3701125.8721268,0.015440011842427
31619200,0.99731212385985,0.015618039537665,0.0050474296920836,0.0065727366263208,0.0039978732192606,-0.0011703209267303,0.0011703196344697,4.319723844512e-09,-5.6359438137736e-09,5.4363372845155e-09,-6.9696235449025e-09,-0.0013191932005692,0.0013191993917544,-0.0013191965005163,0.0013191960033575,-0.0013191971781359,0.0013191952089213,-0.0013192004890574,0.0013191919152874,-0.0011176584244468,0.0011176626827841,-0.0011176681861838,0.0011176530313738,-4.2136586269743e-09,7.9311524890297e-09,-1.8340715774252e-08,2.1864015778679e-08,-0.0016648475142477,0.0016648510475181,-0.0018037679256112,0.0018037542443276,-0.001803754897027,0.0018037675948117,-0.0018037640450543,0.0018037582367325,-0.0018037509680059,0.0018037716290725,-0.0014572221100546,0.0014571901364623,-0.0014571830888897,0.0014572301654049,-0.0015530279865782,0.0015530329368365,-0.0015530161205321,0.00155304514598,-5.9864094292607e-09,3.5960473793805e-09,-0.00085500077618273,0.00085499838511092,1.8645788561135e-08,-2.1781519546501e-08,-0.0010212244128475,0.0010212325062726,-0.0010212378801814,0.0010212190714855,-0.0010212212359187,0.0010212356589851,-0.0010212346578715,0.001021222279952,-0.0008986612086598,0.00089865476541035,-0.00089867065435039,0.00089864531296011,0.68057767380407,128566,2924,0.0048643343449854,0.0069105090632326,0.0035607750644656,29.003514076269,-7.9718873898472e-06,-7.9718873898472e-06,-7.9718873898472e-06,3704176.2479031,0.015454960693093
31819200,0.99743366181883,0.015619779366485,0.0050479838326394,0.0065734847866379,0.0039983107472073,-0.0011709167684659,0.0011709154697534,4.3476729114078e-09,-5.6706042122981e-09,5.4537555014266e-09,-6.9929662897388e-09,-0.0013198249339402,0.0013198311529672,-0.001319828254451,0.0013198277432753,-0.0013198289250439,0.0013198269566379,-0.001319832256396,0.0013198236417842,-0.0011182814365924,0.0011182857354643,-0.001118291258245,0.0011182760217196,-4.2329479765802e-09,7.9522630982328e-09,-1.8462092946616e-08,2.1986993250802e-08,-0.0016655530410351,0.0016655565759655,-0.0018045127169909,0.001804498942743,-0.0018044996088316,0.0018045123758858,-0.0018045088231153,0.0018045029488416,-0.0018044956662926,0.0018045164237877,-0.0014578425629364,0.0014578103637486,-0.0014578033063006,0.0014578506385599,-0.001553715237893,0.0015537202307242,-0.0015537033301054,0.0015537324783124,-6.0326342363912e-09,3.6218941565921e-09,-0.00085548674544701,0.00085548433328525,1.8756664223754e-08,-2.1917346691928e-08,-0.0010217644124312,0.0010217725433769,-0.0010217779615578,0.0010217590268464,-0.0010217612115639,0.0010217757200954,-0.0010217747152411,0.0010217622594749,-0.00089917677490174,0.00089917030136326,-0.00089918629055832,0.00089916077751055,0.65805653660132,128566,2924,0.0048668044477304,0.0069134260061091,0.0035627973178372,29.265792539824,-5.873659681408e-06,-5.873659681408e-06,-5.873659681408e-06,3708167.3688913,0.015462484927002
32019200,0.99754981241133,0.015621608007523,0.0050485688038093,0.0065742585978734,0.0039987806058406,-0.0011710604595724,0.0011710591534147,4.382854609598e-09,-5.7132877615519e-09,5.4688428944436e-09,-7.0152740963095e-09,-0.0013199532684836,0.0013199595183649,-0.0013199566145322,0.0013199560820123,-0.0013199572717455,0.0013199553091806,-0.0013199606288643,0.0013199519686698,-0.0011184104471317,0.0011184148017336,-0.00111842034318,0.0011184050106113,-4.2704166924073e-09,7.9925614719098e-09,-1.8663430163078e-08,2.2190677693911e-08,-0.0016657247242475,0.0016657282617365,-0.0018047434519735,0.0018047295217363,-0.0018047302134902,0.0018047430904918,-0.0018047395327804,0.0018047335537225,-0.0018047262451567,0.0018047471645179,-0.001457927058411,0.0014578944891798,-0.0014578874087004,0.0014579351675953,-0.0015538812370586,0.0015538862888993,-0.0015538692504468,0.0015538986120169,-6.0737728224554e-09,3.6374646679136e-09,-0.00085557196028322,0.00085556952184416,1.8895937514197e-08,-2.2087453508483e-08,-0.0010218167391535,0.001021824929237,-0.0010218303912197,0.0010218113095866,-0.0010218135192969,0.0010218281246427,-0.001021827125703,0.0010218145614581,-0.00089926408966456,0.00089925754426019,-0.00089927366062157,0.00089924796381035,0.71766339411072,128566,2924,0.0048673998093478,0.006914137246451,0.0035631507949533,29.280992137983,-5.7520628961337e-06,-5.7520628961337e-06,-5.7520628961337e-06,3712025.2428714,0.015464169481113
32219200,0.99766077161292,0.015623396028579,0.0050491412887821,0.0065750128189064,0.0039992419208904,-0.0011711761437127,0.0011711748302903,4.4072844404342e-09,-5.7445997099307e-09,5.4905383363742e-09,-7.0458525041601e-09,-0.0013201339973277,0.0013201402760602,-0.0013201373611277,0.0013201368208013,-0.0013201380173926,0.0013201360494047,-0.0013201413931911,0.0013201326899451,-0.0011185852658238,0.0011185896521414,-0.0011185952180079,0.0011185798067914,-4.2783771562206e-09,8.0017690709181e-09,-1.87466480263e-08,2.2275156778486e-08,-0.0016659828452751,0.0016659863838416,-0.001804999363927,0.0018049853740777,-0.0018049860711081,0.001804998998615,-0.0018049954393111,0.0018049894118404,-0.0018049820980586,0.0018050030782155,-0.0014581602726249,0.0014581275463826,-0.0014581204604742,0.0014581683894989,-0.0015541107782724,0.0015541158709564,-0.0015540987790506,0.001554128213752,-6.123285985831e-09,3.6669950196189e-09,-0.00085561614804798,0.00085561368953072,1.9012802626695e-08,-2.2226274329388e-08,-0.001021969461775,0.001021977690425,-0.0010219831982913,0.0010219639862618,-0.0010219662153711,0.0010219809123034,-0.0010219799066894,0.0010219672640878,-0.00089933959624345,0.00089933302257686,-0.00089934924554119,0.00089932336641312,0.73340852613303,128566,2924,0.0048678802948491,0.0069152014355626,0.003563339723155,29.290210968545,-5.6783122516414e-06,-5.6783122516414e-06,-5.6783122516414e-06,3705739.2022452,0.015465931753037
32419200,0.99776676681458,0.015625149023375,0.0050497031203358,0.0065757494678318,0.0039996964352076,-0.0011712770405242,0.0011712757255929,4.4443218264233e-09,-5.7830281830859e-09,5.4930550076184e-09,-7.0498857092426e-09,-0.0013203188435745,0.0013203251481347,-0.0013203222324901,0.0013203216675036,-0.0013203228657411,0.0013203209192222,-0.0013203262666737,0.0013203175346842,-0.0011187696224588,0.0011187740791321,-0.0011187796486393,0.0011187641604324,-4.2913860545135e-09,8.0160138019867e-09,-1.8816793855041e-08,2.2346395214554e-08,-0.0016662589321557,0.0016662624718324,-0.0018052569144797,0.0018052428696609,-0.0018052435756931,0.0018052565420931,-0.001805252980966,0.0018052469166394,-0.0018052395935844,0.0018052606310588,-0.0014584239239544,0.001458391068502,-0.0014583839741312,0.0014584320530129,-0.0015543572500798,0.0015543623638367,-0.0015543452239656,0.0015543747341265,-6.1555538519155e-09,3.6939037859693e-09,-0.00085564704130861,0.00085564457711884,1.9052062020818e-08,-2.2272276882342e-08,-0.0010221405945459,0.0010221488264153,-0.0010221543592687,0.0010221350941429,-0.0010221373285629,0.0010221520679446,-0.0010221510478898,0.001022138391711,-0.00089941096155411,0.00089940441305596,-0.00089942066910075,0.00089939469889059,0.75109426268317,128566,2924,0.0048682996721232,0.0069163386906033,0.003563475080213,29.299206894926,-5.6063448405886e-06,-5.6063448405886e-06,-5.6063448405886e-06,3697592.2890107,0.015467652334874
32619200,0.99786775878693,0.015626687531011,0.0050501944460446,0.0065764045855474,0.0040000884994194,-0.0011712672867179,0.0011712659733333,4.4770640132529e-09,-5.8142721360048e-09,5.4880720803802e-09,-7.0432576059619e-09,-0.0013204140661362,0.0013204203896576,-0.001320417476159,0.0013204168876693,-0.0013204180843903,0.0013204161645711,-0.0013204215066659,0.0013204127587473,-0.0011188647202834,0.0011188692447445,-0.0011188748087693,0.0011188592630162,-4.2822187377452e-09,8.0057538442448e-09,-1.8803427983359e-08,2.2332285447656e-08,-0.0016664573526429,0.0016664608914474,-0.0018054211974384,0.0018054071679198,-0.0018054078681108,0.0018054208305231,-0.0018054172703229,0.0018054112082707,-0.0018054038925063,0.0018054249128227,-0.001458627117398,0.0014585942823779,-0.0014585871947511,0.0014586352390394,-0.0015545211287166,0.0015545262513548,-0.0015545091217704,0.0015545386021099,-6.1898859826219e-09,3.7302560071416e-09,-0.00085557481645527,0.00085557235420858,1.9049450265959e-08,-2.2267622063256e-08,-0.0010222414531195,0.0010222496610247,-0.0010222552155052,0.001022235931064,-0.0010222381634748,0.0010222529262117,-0.0010222518805687,0.0010222392522027,-0.00089937991956186,0.00089937344462998,-0.0008993896961487,0.0008993636610877,0.69653887115492,128566,2924,0.0048682605259524,0.0069171533768948,0.0035631835613281,29.262906083391,-5.8967513328681e-06,-5.8967513328681e-06,-5.8967513328681e-06,3686945.8718675,0.015468146830513
32819200,0.9979638720872,0.015628032586429,0.0050506222981284,0.0065769853338498,0.0040004249544508,-0.0011712184546803,0.0011712171447939,4.512002230157e-09,-5.8457583226627e-09,5.4742081502814e-09,-7.0254954817002e-09,-0.001320390262077,0.0013203966006472,-0.0013203936944286,0.0013203930767446,-0.0013203942699526,0.0013203923861519,-0.0013203977144183,0.001320388958181,-0.0011188480236111,0.0011188526270765,-0.0011188581773466,0.0011188425803104,-4.2679758551496e-09,7.990226783233e-09,-1.8750487731824e-08,2.2277971328209e-08,-0.001666498599726,0.0016665021372586,-0.0018054818842164,0.0018054678983939,-0.001805468589494,0.0018054815252693,-0.0018054779667095,0.0018054719288374,-0.0018054646234731,0.0018054855975966,-0.0014586242090087,0.0014585914679668,-0.0014585843903858,0.0014586323180332,-0.0015545490383788,0.0015545541538849,-0.0015545370604073,0.0015545664748135,-6.2191056827779e-09,3.7692646208969e-09,-0.00085548818173979,0.00085548572945053,1.8999708385568e-08,-2.220671086432e-08,-0.0010221896919701,0.0010221978500555,-0.0010222034176211,0.0010221841568633,-0.0010221863796095,0.00102220113805,-0.0010222000599903,0.001022187500721,-0.00089930098890451,0.0008992946270435,-0.00089931083214954,0.00089928477673121,0.64446136158116,128566,2924,0.0048680582848633,0.0069173223711139,0.0035628262521914,29.204435824378,-6.3645134049788e-06,-6.3645134049788e-06,-6.3645134049788e-06,3685317.4219418,0.01546775027994
33019200,0.99805535314992,0.015629424652313,0.0050510668455486,0.0065775773218551,0.0040007804849088,-0.0011711953691487,0.0011711940626591,4.547645967405e-09,-5.8780047541518e-09,5.4613004495826e-09,-7.0085070516263e-09,-0.0013203105681128,0.0013203169225583,-0.0013203140233272,0.0013203133762299,-0.0013203145662658,0.0013203127180445,-0.0013203180333602,0.001320309267522,-0.001118780505325,0.0011187851883896,-0.0011187907254906,0.0011187750752953,-4.2531425385914e-09,7.9738013180785e-09,-1.8679164295117e-08,2.2205196496489e-08,-0.0016664410155641,0.0016664445516604,-0.0018054939491583,0.0018054800196925,-0.001805480701022,0.0018054935982433,-0.0018054900417536,0.0018054840395789,-0.001805476745079,0.0018054976600715,-0.0014584803434992,0.0014584477321129,-0.0014584406646638,0.0014584884390738,-0.001554499810169,0.0015545049072186,-0.001554487861793,0.0015545171962466,-6.2465563231208e-09,3.8085808996581e-09,-0.00085544442390728,0.00085544198369529,1.893633372468e-08,-2.2129704638428e-08,-0.0010220445998892,0.0010220527007652,-0.0010220582789805,0.0010220390541483,-0.0010220412653508,0.0010220560110481,-0.0010220548990762,0.0010220424203154,-0.00089923749032019,0.00089923125227666,-0.0008992473991865,0.00089922133662588,0.69524135958201,128566,2924,0.0048679618667482,0.0069170872332703,0.0035626408830654,29.145423261509,-6.8366139079273e-06,-6.8366139079273e-06,-6.8366139079273e-06,3692099.2566734,0.015467222731429
33219200,0.99814243815525,0.015630820127292,0.0050515134356364,0.0065781660348518,0.0040011406568033,-0.001171163923011,0.0011711626191135,4.582599358147e-09,-5.9104380882851e-09,5.4494869141489e-09,-6.9941942502843e-09,-0.0013202955583849,0.0013203019293661,-0.0013202990363404,0.0013202983608564,-0.0013202995480454,0.0013202977336113,-0.0013203030376346,0.0013202942607051,-0.0011187658478379,0.0011187706080644,-0.0011187761343446,0.0011187604293529,-4.2406149444184e-09,7.9600517368246e-09,-1.8603344776646e-08,2.2128299724927e-08,-0.0016664732318011,0.0016664767667814,-0.0018055438850699,0.0018055300133857,-0.0018055306862956,0.0018055435407764,-0.0018055399862266,0.001805534024513,-0.0018055267388986,0.0018055475938766,-0.0014584786411371,0.0014584461699671,-0.0014584391098618,0.0014584867245854,-0.0015545191647088,0.0015545242359423,-0.0015545072427542,0.0015545364996566,-6.2739435959842e-09,3.8484643927181e-09,-0.0008553790998377,0.00085537667244794,1.886796757816e-08,-2.2046563989072e-08,-0.0010220052235023,0.0010220132640458,-0.0010220188523516,0.001021999667684,-0.001022001866579,0.0010220165967709,-0.0010220154500135,0.0010220030562938,-0.00089918049173029,0.0008991743820596,-0.00089919046634425,0.00089916440032657,0.72922791279016,128566,2924,0.0048678318665884,0.0069172195440485,0.0035623711595823,29.086390444304,-7.3088764455652e-06,-7.3088764455652e-06,-7.3088764455652e-06,3689898.3941499,0.015466951367806
33419200,0.99822669267188,0.015632197470365,0.0050519545591439,0.0065787454503834,0.0040014974608376,-0.0011716523079836,0.0011716510039443,4.6272933279497e-09,-5.9548747464677e-09,5.4710953448332e-09,-7.0178373062405e-09,-0.0013208581616041,0.0013208645787223,-0.0013208616708321,0.0013208609798602,-0.0013208621673571,0.0013208603671094,-0.0013208656864436,0.0013208568658977,-0.001119325758489,0.0011193305897645,-0.0011193361324402,0.0011193203284884,-4.2123715518818e-09,7.9299149717174e-09,-1.8384496459253e-08,2.1907799099129e-08,-0.0016671235493212,0.0016671270825056,-0.0018061788557337,0.0018061651470463,-0.0018061658004405,0.0018061785269947,-0.001806174977089,0.0018061691377381,-0.0018061618707096,0.0018061825611047,-0.001459112588558,0.0014590805240703,-0.0014590734789926,0.0014591206433715,-0.0015551429239589,0.0015551479022321,-0.0015551310592198,0.0015551601138013,-6.2879506569457e-09,3.8800555190243e-09,-0.00085578373855764,0.00085578132933621,1.8770421060051e-08,-2.1926358911803e-08,-0.0010225398351576,0.0010225478061051,-0.0010225533926374,0.0010225342812315,-0.0010225364637077,0.0010225511523426,-0.0010225499740965,0.0010225376854937,-0.00089963002227029,0.00089962404753214,-0.00089964004614068,0.00089961402032964,0.74278653093993,128566,2924,0.0048698575563732,0.0069199055413966,0.0035640582999355,29.311851138257,-5.5051908939429e-06,-5.5051908939429e-06,-5.5051908939429e-06,3686828.6889382,0.015473451437879
33619200,0.99830850752828,0.015633535397271,0.005052383038026,0.006579308466813,0.0040018438924316,-0.0011722779511448,0.0011722766563733,4.6470927433595e-09,-5.9655815440634e-09,5.4349130688625e-09,-6.9708310923657e-09,-0.0013215800728019,0.0013215864796236,-0.0013215835917468,0.0013215828735602,-0.0013215840501832,0.0013215822979576,-0.0013215875803548,0.0013215787848995,-0.0011200472812071,0.0011200521839173,-0.0011200576897331,0.0011200418886699,-4.2419669825264e-09,7.9619525281685e-09,-1.8328425473124e-08,2.1853981933677e-08,-0.0016679436832163,0.001667947218729,-0.00180697155665,0.0018069578610147,-0.0018069585319799,0.0018069712078437,-0.0018069676554189,0.0018069618746936,-0.0018069545834215,0.0018069752624158,-0.0014599196121108,0.001459887681854,-0.0014598806124213,0.0014599276904323,-0.0015559359305023,0.0015559408183739,-0.0015559240080514,0.0015559530868883,-6.3230381565099e-09,3.9491817623454e-09,-0.00085630313209339,0.00085630075752041,1.857851926596e-08,-2.1695824209141e-08,-0.001023226543883,0.0010232343714653,-0.0010232399594544,0.0010232209888753,-0.0010232231366272,0.0010232377548578,-0.0010232365075972,0.0010232244268381,-0.00090020665204387,0.00090020095064134,-0.00090021677207402,0.00090019082470559,0.74303042705298,128566,2924,0.0048724524065579,0.0069232927186704,0.0035662240114725,29.613608407788,-3.0911327376956e-06,-3.0911327376956e-06,-3.0911327376956e-06,3683346.5407564,0.015481728179826
33819200,0.99838789308194,0.015634837749264,0.0050528001783667,0.0065798563917507,0.004002181179147,-0.0011728962797504,0.0011728949858022,4.6801287813812e-09,-5.9979420300996e-09,5.4336076320754e-09,-6.9682659830221e-09,-0.0013222950152213,0.001322301443326,-0.0013222985557931,0.0013222978152167,-0.0013222989909352,0.0013222972625517,-0.0013223025433513,0.0013222937280818,-0.0011207675871594,0.0011207725543186,-0.0011207780584709,0.0011207621945161,-4.2405616513406e-09,7.9602041558154e-09,-1.8260632002933e-08,2.1785803873587e-08,-0.0016687621942207,0.0016687657293759,-0.0018077633021971,0.0018077496559834,-0.0018077503246658,0.0018077629541164,-0.0018077594030143,0.0018077536676627,-0.0018077463778372,0.0018077670066613,-0.0014607200608274,0.001460688264801,-0.0014606811951565,0.0014607281353279,-0.0015567301605627,0.001556735006867,-0.0015567182410139,0.0015567472698577,-6.3517994383357e-09,3.9897129493297e-09,-0.00085681553912546,0.00085681317651302,1.8515029872723e-08,-2.1619193745446e-08,-0.0010239057333913,0.0010239135034898,-0.0010239191027745,0.0010239001665752,-0.0010239023028605,0.0010239169098141,-0.0010239156280373,0.0010239036277786,-0.00090077635215631,0.0009007707767442,-0.00090078653923413,0.00090076058192826,0.74517769383459,128566,2924,0.004875016759074,0.0069266729488948,0.0035683609901805,29.917272843103,-6.6181725517926e-07,-6.6181725517926e-07,-6.6181725517926e-07,3680371.7204043,0.015489937610608
34019200,0.99846485367145,0.015636061783206,0.0050531917175943,0.0065803740020707,0.0040024960635414,-0.001173505103857,0.0011735038072985,4.722476858456e-09,-6.04294125187e-09,5.4449989596573e-09,-6.9824999072444e-09,-0.0013230007827446,0.0013230072467022,-0.0013230043530279,0.001323003588617,-0.0013230047676728,0.0013230030567248,-0.0013230083484077,0.001322999493468,-0.0011214808640562,0.0011214859032028,-0.0011214914178358,0.0011214754587934,-4.229157639196e-09,7.9475696910837e-09,-1.8202869589594e-08,2.1726921653575e-08,-0.0016695749854776,0.0016695785195238,-0.0018085491570493,0.0018085355578989,-0.0018085362186222,0.0018085488151974,-0.0018085452665067,0.0018085395605175,-0.0018085322792245,0.001808552860074,-0.0014615141497007,0.0014614824575146,-0.0014614753956861,0.0014615222133273,-0.001557519654221,0.0015575244820477,-0.0015575077563145,0.001557536722661,-6.376388534902e-09,4.0123651426154e-09,-0.00085731843395856,0.0008573160695658,1.8513749750301e-08,-2.1619685303208e-08,-0.001024575301291,0.0010245830545651,-0.001024588671334,0.0010245697168815,-0.0010245718556529,0.0010245864757815,-0.0010245851802506,0.0010245731943207,-0.00090133549159888,0.00090132996197633,-0.00090134572704704,0.00090131971911004,0.72426545423469,128566,2924,0.0048775416606732,0.006930029391733,0.0035704585232012,30.221008807857,1.7680704628544e-06,1.7680704628544e-06,1.7680704628544e-06,3677702.0433079,0.01549804273592
34219200,0.99854068400779,0.015637234719319,0.0050535664668053,0.0065808722127243,0.0040027960397897,-0.0011747003879321,0.0011746990882228,4.7723022355271e-09,-6.095418846698e-09,5.461673645803e-09,-7.0045876526554e-09,-0.0013242734295832,0.0013242799401516,-0.0013242770366394,0.0013242762459149,-0.0013242774294727,0.0013242757351314,-0.0013242810433026,0.0013242721408338,-0.0011227617833926,0.0011227669032653,-0.0011227724354641,0.0011227563680687,-4.1911491892104e-09,7.9070210190531e-09,-1.8067980616242e-08,2.1589874859378e-08,-0.001670952367492,0.0016709558991591,-0.0018099207906585,0.0018099073046025,-0.0018099079416465,0.00180992047151,-0.0018099169276092,0.0018099112792468,-0.0018099040245092,0.0018099244921299,-0.0014628344278742,0.0014628029664987,-0.0014627959285506,0.0014628424578909,-0.0015588828025101,0.0015588876092853,-0.0015588709787799,0.00155889978239,-6.3922285224572e-09,4.0290510440444e-09,-0.00085835823278479,0.00085835586940689,1.8510133846793e-08,-2.1612300673008e-08,-0.0010257542195885,0.0010257619600428,-0.0010257675876183,0.0010257486246812,-0.0010257507649138,0.0010257653889807,-0.0010257640833018,0.0010257521144621,-0.00090244234317028,0.00090243685400488,-0.00090245261991049,0.00090242657538074,0.7059434896228,128566,2924,0.0048824973027583,0.0069357224745316,0.0035747854682717,30.832533338174,6.6602667053959e-06,6.6602667053959e-06,6.6602667053959e-06,3683132.1500483,0.015513252525465
34419200,0.99861538914322,0.015638395063023,0.0050539372992257,0.0065813648290064,0.0040030929347908,-0.0011759651376668,0.0011759638393416,4.8155918318648e-09,-6.137662068807e-09,5.4618627629502e-09,-7.0023456040308e-09,-0.0013255938683308,0.0013256004084597,-0.0013255975047585,0.0013255966854782,-0.0013255978694203,0.0013255962038167,-0.0013256015080482,0.0013255925804067,-0.0011240882054138,0.0011240934075724,-0.0011240989344545,0.0011240827888932,-4.1787996293045e-09,7.8921591725429e-09,-1.8036089536433e-08,2.1555579944594e-08,-0.0016723637127708,0.0016723672421875,-0.0018113458703316,0.0018113324089243,-0.0018113330385047,0.0018113455550822,-0.0018113420157121,0.0018113363743145,-0.0018113291289569,0.0018113495692318,-0.0014641688739405,0.00146413746036,-0.0014641304321577,0.0014641768925855,-0.0015602855591113,0.0015602903642027,-0.0015602737541186,0.0015603025122897,-6.419321809967e-09,4.0513242399628e-09,-0.00085946201871526,0.00085945965075951,1.8516307716539e-08,-2.1624621276664e-08,-0.0010269597866249,0.0010269675129579,-0.0010269731615956,0.0010269541710661,-0.0010269563170176,0.001026970958612,-0.0010269696389611,0.0010269576785767,-0.00090360512333806,0.00090359967749363,-0.00090361545160765,0.00090358934661294,0.70867958756587,128566,2924,0.0048877405130267,0.0069415574076606,0.0035793765130343,31.476362581821,1.1810900654566e-05,1.1810900654566e-05,1.1810900654566e-05,3691880.2062635,0.015529166040656
34619200,0.99868883409037,0.015639583874983,0.005054317942295,0.0065818663983435,0.0040033995343442,-0.0011772354903404,0.0011772341921574,4.8616974980375e-09,-6.1838037610986e-09,5.4624896171293e-09,-7.0027474378138e-09,-0.0013269232193405,0.0013269297922829,-0.0013269268879785,0.0013269260370215,-0.0013269272225882,0.0013269255860679,-0.0013269308897701,0.0013269219328884,-0.0011254227103563,0.0011254279980815,-0.001125433525599,0.0011254172938347,-4.1729343080743e-09,7.8857679549079e-09,-1.8046145788045e-08,2.1565158018578e-08,-0.0016737822558027,0.0016737857847105,-0.0018127762025352,0.001812762736954,-0.0018127633637905,0.0018127758902782,-0.001812772352914,0.0018127666973831,-0.0018127594560954,0.0018127799021833,-0.0014655121056486,0.0014654806613458,-0.0014654736384216,0.0014655201209148,-0.0015616941352343,0.001561698953801,-0.0015616823366735,0.0015617110952085,-6.4449519685403e-09,4.0683685108442e-09,-0.00086056586606015,0.00086056348946842,1.8555627142798e-08,-2.1674062336569e-08,-0.0010281725394434,0.0010281802738644,-0.0010281859452833,0.0010281669012487,-0.0010281690572028,0.0010281837322694,-0.0010281824067187,0.0010281704245674,-0.00090477052161696,0.00090476508503682,-0.0009047808959451,0.00090475470717988,0.73613738963522,128566,2924,0.0048930069777878,0.0069474219168349,0.0035839680697822,32.121060174148,1.6968481393186e-05,1.6968481393186e-05,1.6968481393186e-05,3699932.1516978,0.01554513418512
34819200,0.99876201416296,0.015640778887523,0.0050547007424154,0.0065823702152429,0.0040037079298646,-0.0011790394341854,0.0011790381391003,4.8924998488703e-09,-6.2111760491814e-09,5.4523479361731e-09,-6.9897244984792e-09,-0.0013288358700447,0.0013288424571667,-0.001328839557721,0.0013288386834993,-0.0013288398650879,0.0013288382595969,-0.0013288435527993,0.001328834585821,-0.0011273370270624,0.0011273423875807,-0.0011273479045035,0.0011273316235668,-4.1694892537301e-09,7.8819699794628e-09,-1.8041788667976e-08,2.156053923815e-08,-0.001675812749967,0.0016758162785412,-0.0018147922958093,0.0018147788326152,-0.0018147794570216,0.0018147919847767,-0.0018147884469061,0.0018147827913022,-0.0018147755529535,0.0018147959938128,-0.0014674742724161,0.0014674428343412,-0.0014674358143881,0.0014674822850879,-0.0015637045394472,0.0015637093641577,-0.0015636927530391,0.0015637215002311,-6.480856262617e-09,4.1093072643671e-09,-0.00086214057829157,0.00086213820705218,1.8522759083689e-08,-2.163417288387e-08,-0.0010299473508137,0.0010299550398556,-0.00102996073174,0.0010299416922606,-0.0010299438423473,0.0010299585244465,-0.0010299571686327,0.0010299452399213,-0.00090644306026816,0.00090643772363996,-0.00090645350745777,0.00090642727482328,0.74236047577173,128566,2924,0.00490048591215,0.0069558149250319,0.0035905198552097,33.051738786377,2.4413910291014e-05,2.4413910291014e-05,2.4413910291014e-05,3707651.2042157,0.015567909921388
35019200,0.9988350815557,0.015641934952592,0.005055070634813,0.0065828604103829,0.0040040039073961,-0.0011810254574583,0.0011810241717201,4.8967370944621e-09,-6.2060573615509e-09,5.4148533752184e-09,-6.9424853068982e-09,-0.0013309507615572,0.001330957325188,-0.0013309544452825,0.0013309535569199,-0.0013309547248003,0.0013309531595492,-0.0013309584161586,0.001330949484071,-0.001129449592582,0.0011294549995465,-0.0011294604811108,0.0011294442295225,-4.1925432205648e-09,7.9074951345692e-09,-1.8117042042802e-08,2.1638057725484e-08,-0.001678056859382,0.0016780603902613,-0.0018170170884385,0.0018170035572661,-0.0018170041974254,0.0018170167656807,-0.001817013220829,0.0018170075369131,-0.0018170002805127,0.0018170207869873,-0.0014696443319959,0.0014696127740333,-0.0014696057349167,0.0014696523630263,-0.001565926165318,0.0015659310067169,-0.0015659143404728,0.0015659431781779,-6.5412451495831e-09,4.184938131549e-09,-0.00086387236564901,0.00086387000963035,1.8449053438964e-08,-2.1543388786875e-08,-0.0010319109292166,0.001031918528474,-0.0010319242515647,0.0010319052396112,-0.0010319073712663,0.0010319220629445,-0.0010319206464918,0.0010319088298601,-0.00090828508368439,0.00090827994198227,-0.00090829565376838,0.00090826936891783,0.72136488433599,128566,2924,0.0049087195989048,0.0069650903586477,0.003597725891535,34.083789320121,3.2670314560965e-05,3.2670314560965e-05,3.2670314560965e-05,3715877.5758383,0.015593013820161
35219200,0.99890775699156,0.015643051135851,0.0050554273883141,0.0065833362259584,0.0040042875215782,-0.0011830173231606,0.001183016040761,4.9122784528424e-09,-6.218522881841e-09,5.4028362548662e-09,-6.9256851909538e-09,-0.0013330471120616,0.0013330536770037,-0.0013330508030253,0.0013330499002272,-0.001333051063214,0.0013330495222018,-0.0013330547668667,0.0013330458355697,-0.0011315435183787,0.0011315489695233,-0.0011315544390083,0.0011315381648756,-4.2051738874125e-09,7.9211668760245e-09,-1.8191245431821e-08,2.1713135030041e-08,-0.0016802699507096,0.0016802734825035,-0.0018192318410803,0.0018192182564876,-0.0018192189039912,0.0018192315122929,-0.0018192279640457,0.0018192222453419,-0.0018192149816285,0.0018192355396754,-0.0014717591273306,0.0014717274414763,-0.001471720397213,0.0014717671718323,-0.0015681250332571,0.0015681299058526,-0.0015681131888815,0.0015681420946015,-6.5948061241851e-09,4.2381415842389e-09,-0.00086560979590202,0.00086560743919758,1.8451432325996e-08,-2.1547559842408e-08,-0.0010338349647017,0.0010338425292184,-0.0010338482876461,0.0010338292390598,-0.0010338313693476,0.0010338461008283,-0.001033844649797,0.0010338328630352,-0.00091012581251707,0.00091012076589089,-0.00091013647838537,0.00091011009324918,0.70214229428869,128566,2924,0.0049169769443934,0.0069742388142316,0.0036049535868694,35.118353469843,4.0946827758748e-05,4.0946827758748e-05,4.0946827758748e-05,3727319.5778829,0.015618034354669
35419200,0.9989789022371,0.015644108548504,0.0050557649425308,0.0065837896850368,0.0040045539209361,-0.0011845967767212,0.0011845954862313,4.9512989722188e-09,-6.2658851479984e-09,5.4249748222633e-09,-6.9553586650377e-09,-0.0013346935025929,0.0013347001060506,-0.0013346972222008,0.0013346962988124,-0.0013346974709739,0.0013346959329088,-0.0013347012031751,0.0013346922180673,-0.0011331911067047,0.0011331966125485,-0.001133202107408,0.001133185724406,-4.2291063612919e-09,7.9471060492477e-09,-1.8338040796736e-08,2.1861628932419e-08,-0.0016820061875604,0.0016820097212249,-0.0018209899559558,0.0018209762642114,-0.0018209769274732,0.0018209896155233,-0.0018209860642381,0.0018209802684324,-0.0018209729887086,0.0018209936592391,-0.001473389294367,0.0014733573377737,-0.0014733502807261,0.0014733973620351,-0.0015698542542151,0.0015698591758897,-0.0015698423576432,0.0015698714112384,-6.6313033208917e-09,4.249837318843e-09,-0.00086696925044389,0.00086696686816773,1.858624982562e-08,-2.1712661941236e-08,-0.0010353179078915,0.0010353255328546,-0.0010353313313701,0.0010353121418446,-0.0010353142969463,0.0010353291197076,-0.0010353276772751,0.0010353157825195,-0.00091156171821929,0.00091155659710895,-0.00091157243231572,0.00091154587423932,0.68162297649516,128566,2924,0.0049235241599076,0.0069814167291222,0.003610608170714,35.930436851776,4.7443494814206e-05,4.7443494814206e-05,4.7443494814206e-05,3738216.394081,0.015637718304838
35619200,0.99904771220691,0.015645090960371,0.0050560780512348,0.0065842139948609,0.0040047989142755,-0.001185865418663,0.0011858641148761,4.9906114946784e-09,-6.3184081343185e-09,5.4619224750158e-09,-7.0064884594106e-09,-0.0013359907818895,0.0013359974331439,-0.0013359945323391,0.0013359935932668,-0.0013359947801563,0.0013359932292904,-0.0013359985415095,0.0013359894847222,-0.0011344901006841,0.001134495650559,-0.001134501186345,0.0011344846745062,-4.2559579567e-09,7.9764112583466e-09,-1.8501865585177e-08,2.2027605613475e-08,-0.0016833676062359,0.0016833711420927,-0.0018223936171295,0.0018223798025854,-0.0018223804839119,0.0018223932624109,-0.00182238970839,0.001822383824172,-0.0018223765260127,0.0018223973259885,-0.001474636395975,0.0014746041333565,-0.0014745970602714,0.0014746444889085,-0.001571215051429,0.0015712200255511,-0.0015712030968917,0.0015712323199243,-6.6693773832497e-09,4.254717150194e-09,-0.00086805126897753,0.00086804885278589,1.8767763073544e-08,-2.1932954265865e-08,-0.0010364566762005,0.0010364643888261,-0.0010364702341763,0.0010364508632132,-0.0010364530519616,0.001036467988665,-0.0010364665645304,0.0010364545193209,-0.00091269650200228,0.00091269126026195,-0.000912707262032,0.0009126804921112,0.657298993649,128566,2924,0.0049287825484558,0.0069870464019167,0.0036151071054721,36.574741656543,5.2597933252346e-05,5.2597933252346e-05,5.2597933252346e-05,3749560.1288129,0.015653346174863
35819200,0.99911407410233,0.015646100148067,0.0050564007054378,0.0065846451011674,0.0040050543414614,-0.001187143321737,0.0011871420084057,5.0156129234607e-09,-6.3527061986103e-09,5.4870706402547e-09,-7.0422559880312e-09,-0.0013372586742868,0.001337265356104,-0.0013372624441019,0.0013372614960575,-0.0013372626925056,0.0013372611319895,-0.0013372664733949,0.001337257367495,-0.0011357604923905,0.0011357660721938,-0.0011357716363206,0.0011357550372268,-4.2754170721785e-09,7.9978332665072e-09,-1.8617074838378e-08,2.2144600954465e-08,-0.0016846755363857,0.0016846790739663,-0.0018237667420091,0.0018237528383759,-0.001823753533029,0.0018237663766133,-0.0018237628197008,0.0018237568737882,-0.0018237495618259,0.0018237704542407,-0.0014758101099827,0.001475777633726,-0.0014757705479916,0.00147581822076,-0.0015725321737012,0.0015725371856837,-0.0015725201803267,0.0015725495227138,-6.7195809981097e-09,4.2802391438331e-09,-0.00086914752756641,0.00086914508638134,1.889407191919e-08,-2.2087233665915e-08,-0.0010375464513331,0.0010375542073545,-0.0010375601021756,0.0010375405889791,-0.0010375428018279,0.0010375578323232,-0.0010375564070943,0.0010375442702342,-0.0009138342246265,0.00091382893909283,-0.0009138450593289,0.00091381809766755,0.69619235329074,128566,2924,0.0049340789258834,0.0069924570656084,0.0036196622765578,37.214955033178,5.7719640265424e-05,5.7719640265424e-05,5.7719640265424e-05,3764185.6424627,0.015668846385175
36019200,0.99917790250943,0.015647130863827,0.0050567311460545,0.0065850813946007,0.0040053183231715,-0.0011884149266278,0.0011884136081691,5.050455050951e-09,-6.3925279002967e-09,5.4999241776211e-09,-7.060598161808e-09,-0.001338578567325,0.001338585279429,-0.0013385823618739,0.0013385813939691,-0.001338582595848,0.0013385810446586,-0.0013385864012805,0.0013385772553785,-0.0011370764031371,0.001137082040461,-0.0011370876195231,0.0011370709328699,-4.2908773797003e-09,8.0146777669193e-09,-1.8703176385741e-08,2.2231896095129e-08,-0.0016860555178926,0.0016860590566863,-0.0018251713265031,0.0018251573559775,-0.0018251580613152,0.0018251709525042,-0.001825167393794,0.0018251614021424,-0.0018251540792759,0.0018251750412998,-0.0014770973244304,0.0014770646887062,-0.0014770575929963,0.0014771054493261,-0.0015739039648923,0.0015739090032162,-0.0015738919394388,0.0015739213734485,-6.7561553675819e-09,4.3038956143491e-09,-0.00087022364159204,0.00087022118713639,1.8970468350743e-08,-2.2178955062115e-08,-0.0010387180456284,0.0010387258246763,-0.0010387317523276,0.001038712150459,-0.0010387143762173,0.0010387294695577,-0.0010387280368635,0.0010387158519899,-0.00091497443257624,0.00091496913844434,-0.00091498532711877,0.00091495823785291,0.73586310080427,128566,2924,0.0049393500738459,0.0069981624066701,0.0036241380638283,37.855014843754,6.2840118750031e-05,6.2840118750031e-05,6.2840118750031e-05,3771570.4741092,0.015684542195208
36219200,0.99923704911881,0.015648054082975,0.0050570267427137,0.0065854746193034,0.0040055527209576,-0.0011883902269285,0.0011883889017102,5.073779866177e-09,-6.4228194413671e-09,5.5132413589227e-09,-7.0804244881862e-09,-0.0013386379038913,0.001338644637337,-0.0013386417149755,0.0013386407341438,-0.0013386419423986,0.0013386403918659,-0.001338645766151,0.0013386365844137,-0.0011371316773441,0.0011371373501514,-0.0011371429468528,0.0011371261883562,-4.3347619899967e-09,8.062719091878e-09,-1.8939961789521e-08,2.2472431471821e-08,-0.0016861825268532,0.0016861860694433,-0.0018252826760243,0.0018252685209761,-0.001825269256144,0.0018252822786499,-0.001825278713015,0.0018252725987711,-0.0018252652445879,0.0018252863976467,-0.0014772101084912,0.0014771770400754,-0.0014771699174986,0.0014772182754232,-0.0015740022110178,0.0015740073226292,-0.0015739900955075,0.0015740197807272,-6.810181400552e-09,4.3309573367138e-09,-0.00087012011600394,0.00087011763348486,1.9134901357339e-08,-2.2376819854175e-08,-0.0010387554273917,0.0010387632721327,-0.0010387692535937,0.0010387494784299,-0.0010387517303357,0.0010387669448408,-0.001038765511629,0.0010387532067433,-0.00091490799814242,0.00091490263669186,-0.00091491896984465,0.0009148916568718,0.71361055367705,128566,2924,0.0049392484359919,0.0069986826884586,0.0036237154286604,37.827190980646,6.2617527845169e-05,6.2617527845169e-05,6.2617527845169e-05,3762846.711804,0.015684540537181
36419200,0.99929100726228,0.015648884661821,0.0050572925144893,0.0065858290378222,0.00400576310951,-0.0011877977276722,0.0011877964019889,5.1097427635205e-09,-6.4591294133287e-09,5.5191255359409e-09,-7.0871566038188e-09,-0.0013380738375847,0.001338080599281,-0.0013380776721962,0.0013380766709157,-0.0013380778800842,0.0013380763489875,-0.0013380817278885,0.0013380725174182,-0.0011365834566783,0.0011365891949903,-0.0011365947957297,0.0011365779617985,-4.3316052888435e-09,8.0592137209058e-09,-1.90805246016e-08,2.2612573150412e-08,-0.0016856474033497,0.0016856509455614,-0.0018247511968417,0.0018247369537228,-0.0018247376882198,0.0018247508034954,-0.0018247472366546,0.0018247410285449,-0.0018247336792996,0.0018247549199615,-0.0014766533303169,0.0014766199839168,-0.0014766128677064,0.0014766614975143,-0.0015734549234182,0.0015734601337249,-0.0015734428153631,0.0015734725859144,-6.8530095046645e-09,4.3504326630124e-09,-0.00086950553994205,0.00086950303350835,1.9274648838503e-08,-2.2543919453617e-08,-0.001038185466373,0.0010381933699756,-0.001038199394748,0.0010381794738514,-0.0010381817486147,0.0010381970630305,-0.0010381956320502,0.0010381832230061,-0.00091429641780933,0.00091429099227054,-0.00091430745087901,0.00091427995133916,0.70434020230521,128566,2924,0.0049367926398293,0.0069964668438631,0.0036211658654512,37.49630028505,5.9970402280401e-05,5.9970402280401e-05,5.9970402280401e-05,3753446.0833514,0.015677206540687
36619200,0.99934027457573,0.015649598999747,0.0050575204793261,0.0065861367706811,0.0040059417497394,-0.0011871936745673,0.0011871923504082,5.1464786817744e-09,-6.4942488804102e-09,5.5120331937872e-09,-7.0785848860319e-09,-0.0013374743007175,0.0013374810830608,-0.0013374781594659,0.0013374771301729,-0.00133747833839,0.0013374768376172,-0.0013374822096121,0.0013374729821444,-0.0011360023873034,0.001136008202384,-0.0011360137955926,0.0011359968990245,-4.3082056375692e-09,8.0335232386148e-09,-1.9063111419737e-08,2.2593149986365e-08,-0.0016850618704927,0.0016850654106198,-0.0018241781662784,0.0018241639497387,-0.0018241646698744,0.0018241777865931,-0.0018241742221865,0.0018241680077079,-0.001824160676597,0.0018241818870929,-0.001476043008417,0.0014760096788603,-0.001476002580042,0.0014760511564192,-0.0015728629264069,0.0015728681693854,-0.0015728508661158,0.0015728805746679,-6.8856229292971e-09,4.380556938305e-09,-0.00086889086908434,0.00086888836019571,1.9295913754315e-08,-2.2567818564567e-08,-0.0010375770335507,0.0010375849293499,-0.0010375909772328,0.001037571017922,-0.0010375732952735,0.0010375886429031,-0.0010375871932459,0.001037574788168,-0.00091367455421319,0.00091366917285334,-0.00091368565001502,0.00091365807031622,0.6667528113364,128566,2924,0.0049342888142219,0.0069940438676907,0.0036186139245727,37.157918778669,5.7263350229352e-05,5.7263350229352e-05,5.7263350229352e-05,3745977.3486555,0.015669610339693
36819200,0.99938531502679,0.015650233857739,0.0050577228252593,0.0065864113573163,0.004006099675163,-0.0011866023926115,0.0011866010735244,5.1824696982147e-09,-6.5252151698079e-09,5.4914864121905e-09,-7.0524873827044e-09,-0.0013368294244987,0.0013368362185469,-0.0013368333057811,0.001336832243816,-0.0013368334468558,0.0013368319888445,-0.0013368373405183,0.0013368281110286,-0.0011353759950528,0.0011353818966756,-0.0011353874700919,0.0011353705282858,-4.2881366774268e-09,8.0114927557486e-09,-1.8995760908955e-08,2.2524044829715e-08,-0.0016843988958525,0.0016844024342224,-0.0018235643827894,0.0018235502223285,-0.00182355092986,0.0018235640143759,-0.0018235604520359,0.0018235542665693,-0.0018235469500868,0.0018235681008698,-0.0014753255452071,0.0014752923336183,-0.0014752852485586,0.0014753336759068,-0.0015722083510926,0.0015722135887399,-0.0015721963318056,0.0015722259520321,-6.912422336691e-09,4.4213967752307e-09,-0.00086830740688877,0.00086830491227793,1.9226086990975e-08,-2.2481957796467e-08,-0.001036900458677,0.0010369082938844,-0.0010369143505468,0.0010368944344494,-0.0010368966978518,0.0010369120302448,-0.0010369105440247,0.0010368982271393,-0.00091306010501414,0.00091305485527741,-0.0009130712669279,0.00091304368686736,0.6495783398847,128566,2924,0.0049318372342155,0.0069913040917576,0.0036161869627841,36.819255226709,5.4554041813672e-05,5.4554041813672e-05,5.4554041813672e-05,3744885.5360778,0.015661870445251
37019200,0.99942771608077,0.015650872285074,0.0050579269441458,0.0065866841305954,0.0040062612103327,-0.0011870167795717,0.0011870154567515,5.2124787231508e-09,-6.5586393075413e-09,5.503681311869e-09,-7.0694890469035e-09,-0.0013371884001513,0.0013371952214479,-0.0013371923037659,0.0013371912267748,-0.0013371924325256,0.0013371909825934,-0.0013371963476223,0.0013371870838247,-0.0011357423551362,0.0011357483070008,-0.0011357538941639,0.001135736877576,-4.2970259999818e-09,8.0212837326409e-09,-1.86486194583e-08,2.2177780226802e-08,-0.0016847658864231,0.0016847694255794,-0.0018239969774952,0.0018239830396657,-0.0018239837484063,0.0018239965993543,-0.0018239930406313,0.0018239870902231,-0.0018239797626965,0.0018240006922173,-0.0014755998538922,0.0014755673304011,-0.0014755602274192,0.0014756079807007,-0.0015725845320229,0.0015725895224168,-0.0015725724964646,0.0015726019061659,-6.9205065166918e-09,4.4847191385181e-09,-0.00086867038707195,0.00086866794913754,1.8927281590981e-08,-2.2117645527895e-08,-0.0010371751929324,0.0010371828387254,-0.0010371888646844,0.0010371691993766,-0.0010371714082255,0.0010371865987727,-0.0010371850343362,0.0010371730157182,-0.0009134226125014,0.00091341770601913,-0.00091343384477467,0.00091340646874524,0.6896181587269,128566,2924,0.0049335542810632,0.0069928251069471,0.0036176918584303,37.016217360432,5.6129738883454e-05,5.6129738883454e-05,5.6129738883454e-05,3754588.0323706,0.01566668553437
37219200,0.99946787201108,0.015651518906517,0.0050581342584434,0.0065869575510631,0.0040064270970105,-0.0011876637048891,0.0011876623782046,5.2414840456169e-09,-6.5915636428664e-09,5.5176886114592e-09,-7.0875955904669e-09,-0.0013378550385377,0.0013378618873521,-0.0013378589636422,0.0013378578727229,-0.0013378590816674,0.0013378576384596,-0.0013378630176561,0.0013378537183705,-0.0011364024667244,0.0011364084664245,-0.0011364140672809,0.0011363969737767,-4.2932751450384e-09,8.0172327373373e-09,-1.8301935472023e-08,2.1830801037543e-08,-0.0016854742688092,0.0016854778075538,-0.0018247299745362,0.0018247162666088,-0.0018247169686958,0.0018247295935757,-0.0018247260395843,0.0018247203143372,-0.0018247129860259,0.00182473368399,-0.0014762527156377,0.0014762208705224,-0.0014762137624515,0.0014762608312615,-0.0015732800385962,0.0015732848073172,-0.0015732680131454,0.0015732971847718,-6.9330699176348e-09,4.5449208689425e-09,-0.00086923568875407,0.00086923329942793,1.8659489462052e-08,-2.1793981640335e-08,-0.0010377809381146,0.0010377884099945,-0.0010377944133381,0.0010377749670212,-0.001037777129165,0.0010377921941812,-0.001037790559073,0.0010377788070846,-0.00091402122131135,0.00091401662685586,-0.00091403252299556,0.00091400531995007,0.73362543451863,128566,2924,0.0049362361895211,0.0069957541988697,0.0036200426108559,37.342992479582,5.874393983666e-05,5.874393983666e-05,5.874393983666e-05,3758881.8531047,0.015674772625689
37419200,0.99950585743917,0.015652087713395,0.0050583160374749,0.0065872010844743,0.0040065705914459,-0.0011882954158319,0.0011882940958829,5.2844550018911e-09,-6.62791649144e-09,5.4995191518638e-09,-7.0619803665238e-09,-0.0013385736689991,0.0013385805363615,-0.0013385776217613,0.0013385764965316,-0.0013385776983079,0.0013385763021119,-0.0013385816608881,0.0013385723568258,-0.0011371097201744,0.0011371158162289,-0.0011371213985493,0.0011371042503005,-4.3034023815406e-09,8.0282186644894e-09,-1.8122506106349e-08,2.1652081833292e-08,-0.0016862658989831,0.0016862694386152,-0.001825501788165,0.0018254881920695,-0.0018254888987666,0.0018255013997837,-0.0018254978469226,0.0018254922471856,-0.0018254849084538,0.0018255054973505,-0.0014770315166409,0.0014770000307975,-0.0014769929096313,0.0014770396356548,-0.001574040415263,0.0015740450448692,-0.0015740283656607,0.00157405744177,-6.9398391581351e-09,4.593438170321e-09,-0.00086977116718178,0.00086976882029857,1.8421851845836e-08,-2.1508328153183e-08,-0.0010384705021124,0.0010384778230099,-0.0010384838041267,0.0010384645534771,-0.0010384666749125,0.0010384816257751,-0.0010384799310551,0.0010384684126145,-0.00091461321173006,0.00091460888948528,-0.00091462456892456,0.00091459752598031,0.68665559330771,128566,2924,0.0049388559475053,0.00699902376611,0.00362227433461,37.673053850091,6.1384430800731e-05,6.1384430800731e-05,6.1384430800731e-05,3756059.4138165,0.015683023942595
37619200,0.99954174075456,0.015652605914038,0.0050584813757041,0.0065874242660251,0.0040067002723087,-0.001188942651398,0.0011889413333383,5.3161851935996e-09,-6.657862257137e-09,5.4971730770385e-09,-7.0576638304499e-09,-0.00133923868145,0.001339245568987,-0.0013392426551934,0.0013392415093485,-0.001339242708799,0.001339241337292,-0.0013392466920165,0.0013392373713619,-0.0011377750367037,0.0011377811970592,-0.0011377867754185,0.0011377695700404,-4.2878487809866e-09,8.0110474745869e-09,-1.7959655997426e-08,2.148778149826e-08,-0.0016869672467103,0.0016869707848863,-0.0018262278720891,0.0018262143937777,-0.0018262150886032,0.0018262274911294,-0.0018262239415956,0.0018262184377742,-0.0018262111093152,0.001826231577329,-0.0014776713857143,0.0014776402098266,-0.0014776330967844,0.0014776794877754,-0.0015747341188325,0.0015747386712458,-0.0015747221015672,0.0015747510346908,-6.9666032622748e-09,4.6397458123483e-09,-0.00087032774314053,0.00087032541661237,1.8306251309559e-08,-2.1369145465982e-08,-0.0010390612948576,0.0010390685263404,-0.0010390745125119,0.0010390553410563,-0.0010390574430792,0.0010390723535585,-0.0010390706151895,0.0010390592244841,-0.00091520294895106,0.00091519880087238,-0.00091521437728035,0.000915187365945,0.66415286165604,128566,2924,0.0049415390013881,0.0070019238303775,0.0036245886033922,38.003239469716,6.4025915757727e-05,6.4025915757727e-05,6.4025915757727e-05,3761197.829091,0.015691045538308
37819200,0.9995746777814,0.015653062694025,0.0050586268510165,0.0065876223763904,0.0040068134666181,-0.0011886040744774,0.0011886027591885,5.3539384416204e-09,-6.693110225473e-09,5.4869929640303e-09,-7.0436608624662e-09,-0.0013388636581768,0.0013388705646925,-0.0013388676558396,0.0013388664801203,-0.0013388676775617,0.0013388663407106,-0.0013388716847941,0.0013388623504271,-0.0011374064144504,0.001137412655618,-0.001137418223398,0.0011374009570895,-4.2866865159047e-09,8.0096499378101e-09,-1.8171675674782e-08,2.1699548311165e-08,-0.0016865775110462,0.0016865810490443,-0.0018258847722557,0.0018258711546245,-0.0018258718513954,0.0018258843944726,-0.001825880842612,0.0018258751977443,-0.0018258678725719,0.0018258884799177,-0.0014772300381991,0.0014771984441648,-0.0014771913391997,0.0014772381463692,-0.0015743472313629,0.0015743519263182,-0.0015743352142132,0.0015743642856611,-7.013132982844e-09,4.6547953154648e-09,-0.00086998640915002,0.0008699840503546,1.8473713654229e-08,-2.1574134383068e-08,-0.0010386541880586,0.0010386614914703,-0.0010386675294081,0.0010386481825796,-0.0010386503159713,0.0010386653392698,-0.001038663611469,0.0010386520867682,-0.00091484006588081,0.00091483582472663,-0.00091485155442204,0.00091482432839154,0.64016141616667,128566,2924,0.0049401351149316,0.0070003138079887,0.0036231681022728,37.804182605198,6.2433460841581e-05,6.2433460841581e-05,6.2433460841581e-05,3761790.6693973,0.015686539985172
38019200,0.99960486288214,0.015653499847512,0.0050587663768458,0.00658781039168,0.0040069230789865,-0.0011881922603982,0.0011881909464723,5.3849012421435e-09,-6.7225831149899e-09,5.4809585495429e-09,-7.0364024039718e-09,-0.0013383715113998,0.0013383784348518,-0.0013383755282172,0.0013383743293642,-0.0013383755258678,0.0013383742151503,-0.0013383795532177,0.0013383702042425,-0.0011369240997151,0.0011369304073126,-0.001136935968095,0.0011369186479999,-4.2715045140574e-09,7.9929976317619e-09,-1.8397160699722e-08,2.192373862054e-08,-0.0016860452463345,0.001686048782961,-0.0018254197485015,0.0018254059917561,-0.0018254066819302,0.0018254193822964,-0.0018254158289259,0.0018254100242986,-0.001825402713692,0.0018254234569922,-0.0014766321012848,0.0014766000541461,-0.0014765929664134,0.0014766402027174,-0.0015738277794967,0.0015738326537187,-0.0015738157949014,0.0015738449816227,-7.0709310413699e-09,4.6712249263125e-09,-0.00086959066525754,0.00086958826447479,1.8695667369636e-08,-2.1843502865413e-08,-0.0010381205548921,0.0010381279557485,-0.001038134058866,0.0010381144841679,-0.001038116657914,0.0010381318283459,-0.0010381301163746,0.0010381184128344,-0.0009144072122042,0.00091440283881413,-0.00091441877295984,0.0009143912709807,0.66569813899306,128566,2924,0.0049384272378775,0.0069981166225975,0.0036215183701194,37.559898206938,6.0479185655503e-05,6.0479185655503e-05,6.0479185655503e-05,3765183.5022079,0.015680895180852
38219200,0.99963255018409,0.015653904135047,0.0050588954673519,0.0065879839865481,0.004007024681147,-0.0011877713274122,0.0011877700162917,5.4219204780585e-09,-6.7568034673703e-09,5.4698749554755e-09,-7.0222684575777e-09,-0.0013379124083699,0.0013379193500449,-0.0013379164483049,0.0013379152200677,-0.0013379164143536,0.0013379151382831,-0.0013379204652226,0.0013379111037025,-0.0011364689342986,0.0011364753223393,-0.0011364808718194,0.0011364634934614,-4.2635779976776e-09,7.9842053581834e-09,-1.8608773915966e-08,2.2134581637019e-08,-0.0016855582258356,0.0016855617617096,-0.0018249697313068,0.001824955840599,-0.0018249565285352,0.0018249693724776,-0.0018249658173206,0.0018249598674612,-0.0018249525656057,0.0018249734416312,-0.0014761099950269,0.0014760775264664,-0.0014760704504993,0.0014761180957484,-0.0015733405773694,0.0015733456068614,-0.00157332860864,0.0015733579183279,-7.1189130153109e-09,4.6866213896799e-09,-0.00086918185381772,0.00086917941984218,1.8874780118659e-08,-2.2060619116602e-08,-0.0010376467773527,0.001037654256773,-0.0010376604129649,0.0010376406535855,-0.0010376428593647,0.0010376581504686,-0.0010376564492275,0.0010376446035344,-0.00091397808500569,0.00091397361058737,-0.00091398970831172,0.00091396198036619,0.67076171782468,128566,2924,0.0049366821641111,0.0069961041589445,0.0036198175220913,37.314357199819,5.8514857598551e-05,5.8514857598551e-05,5.8514857598551e-05,3763330.4645769,0.015675349999281
38419200,0.99965814025817,0.015654303395973,0.0050590233350952,0.0065881534989035,0.0040071265619743,-0.0011875872409294,0.0011875859296874,5.4563057948827e-09,-6.7911431251358e-09,5.469055681831e-09,-7.0221707027994e-09,-0.0013377043686396,0.0013377113330277,-0.001337708431365,0.0013377071799348,-0.0013377083743534,0.00133770712135,-0.0013377124480239,0.00133770306409,-0.001136262475446,0.0011362689309458,-0.0011362744802553,0.001136257035854,-4.2673601511354e-09,7.9883299908257e-09,-1.8690621987505e-08,2.2216774469496e-08,-0.0016853339779952,0.0016853375141838,-0.0018247746979045,0.0018247607511333,-0.0018247614423728,0.0018247743378276,-0.0018247707816013,0.0018247647806287,-0.0018247574767804,0.0018247784097102,-0.0014758536230814,0.0014758209961399,-0.0014758139181584,0.0014758617277756,-0.0015731128765862,0.0015731179525761,-0.0015731009008993,0.0015731302733772,-7.1574562407757e-09,4.7139530826548e-09,-0.00086899472690472,0.00086899228162682,1.894107971881e-08,-2.2139501469613e-08,-0.001037421420534,0.0010374289153207,-0.0010374351044509,0.0010374152638478,-0.0010374174806208,0.0010374328308806,-0.0010374311185873,0.0010374192358952,-0.00091378440454123,0.00091377993585001,-0.00091379609342349,0.00091376824097967,0.71253732396133,128566,2924,0.0049359190528348,0.0069951778381224,0.0036190387633587,37.196627499293,5.7573019994341e-05,5.7573019994341e-05,5.7573019994341e-05,3762357.4713403,0.015672842470782
38619200,0.999681944885,0.015654676874525,0.0050591429730793,0.0065883119579747,0.0040072219434709,-0.0011876012341298,0.0011875999177002,5.4871095353423e-09,-6.827067835826e-09,5.487989834674e-09,-7.0468398774671e-09,-0.0013377629879451,0.0013377699839685,-0.0013377670726667,0.0013377658081865,-0.0013377670075763,0.0013377657581555,-0.0013377711037751,0.0013377616772836,-0.0011363168168395,0.001136323321001,-0.0011363288879309,0.0011363113561173,-4.2626178440097e-09,7.9832174628335e-09,-1.8636149462897e-08,2.2161972610243e-08,-0.0016854138366886,0.0016854173723731,-0.001824840003467,0.0018248260946345,-0.0018248267818685,0.0018248396441216,-0.0018248360893232,0.0018248301205342,-0.0018248228203813,0.0018248437129315,-0.0014759391399461,0.0014759066169767,-0.0014758995427399,0.0014759472408842,-0.0015731714115695,0.0015731764618445,-0.0015731594501469,0.0015731887757031,-7.1914159604012e-09,4.7478045566883e-09,-0.00086897865365682,0.00086897620841337,1.8941475187553e-08,-2.2139481609234e-08,-0.0010374865647323,0.001037494036842,-0.0010375002482048,0.001037480385522,-0.0010374826021709,0.001037497974811,-0.0010374962403865,0.001037484379234,-0.00091379297563437,0.00091378856957903,-0.00091380472852537,0.00091377681118072,0.71625966158027,128566,2924,0.0049359778951624,0.0069955054835332,0.0036189757681254,37.193722312482,5.7549778499855e-05,5.7549778499855e-05,5.7549778499855e-05,3756117.6190508,0.015673172840132
38819200,0.99970409208742,0.015655025576462,0.0050592546922202,0.0065884598193813,0.0040073110648604,-0.001187615486275,0.0011876141679048,5.5196076547603e-09,-6.8616197390385e-09,5.4958634519786e-09,-7.0564787506532e-09,-0.0013378241644286,0.0013378311861154,-0.0013378282712619,0.0013378269888251,-0.0013378281898731,0.0013378269548495,-0.0013378323083404,0.0013378228519527,-0.0011363766832679,0.0011363832441764,-0.0011363888196624,0.0011363712147614,-4.2614146633543e-09,7.9817672998408e-09,-1.8568007117363e-08,2.2093567896843e-08,-0.0016855013987426,0.0016855049343278,-0.0018249099645054,0.0018248961014604,-0.0018248967875563,0.00182490960604,-0.0018249060514618,0.0018249001271275,-0.0018248928265519,0.0018249136733575,-0.0014760361657352,0.0014760037764751,-0.0014759967009655,0.0014760442630696,-0.0015732392231386,0.0015732442306586,-0.0015732272611726,0.0015732565377739,-7.2211824922912e-09,4.7855221276143e-09,-0.00086896219640075,0.00086895975921264,1.8903591716396e-08,-2.2093027360217e-08,-0.0010375550536805,0.0010375624827767,-0.0010375687091643,0.0010375488596624,-0.0010375510681069,0.0010375664437898,-0.0010375646786528,0.0010375528760377,-0.00091380058551431,0.00091379628275812,-0.00091381240490637,0.00091378445751931,0.71844599767998,128566,2924,0.0049360378195267,0.0069958648461268,0.0036189112779344,37.193612986766,5.7548903894132e-05,5.7548903894132e-05,5.7548903894132e-05,3750161.2820613,0.015673534988486
38880000,0.99971067508053,0.015655129355125,0.0050592879440183,0.0065885038068411,0.0040073376042653,-0.0011876178511775,0.0011876165373897,5.5310679463621e-09,-6.8685215088671e-09,5.4799002655952e-09,-7.0354675213554e-09,-0.0013378419950305,0.0013378490154624,-0.0013378461087716,0.0013378448120553,-0.0013378460087459,0.001337844796096,-0.0013378501332362,0.0013378406879041,-0.0011363971942933,0.0011364037887648,-0.0011364093485316,0.0011363917439911,-4.2762830272536e-09,7.9981646780298e-09,-1.8577055563175e-08,2.2104001846563e-08,-0.0016855291263888,0.0016855326633838,-0.0018249315238965,0.0018249176454175,-0.0018249183408603,0.0018249311567443,-0.0018249276010717,0.0018249216813604,-0.0018249143691295,0.0018249352351194,-0.0014760668513688,0.0014760344533624,-0.0014760273662111,0.0014760749611522,-0.0015732620131558,0.0015732669967872,-0.0015732500190665,0.0015732793360182,-7.2263615492897e-09,4.8028818542649e-09,-0.00086895412939703,0.00086895170443263,1.8843747860732e-08,-2.2019560746994e-08,-0.0010375750636001,0.0010375824531854,-0.0010375886751925,0.0010375688740425,-0.0010375710710541,0.0010375864214188,-0.0010375846368565,0.0010375728985074,-0.00091380304508794,0.00091379882284731,-0.00091381488744338,0.00091378697366454,0.71909630064692,128566,2924,0.0049360479394764,0.0069959785968797,0.0036188790325968,37.193608986516,5.7548871892129e-05,5.7548871892129e-05,5.7548871892129e-05,3748278.0768499,0.015673628607687
