time,ASR_ext,ASR_strain,ASR_strain_xx,ASR_strain_yy,ASR_strain_zz,disp_x_101,disp_x_102,disp_x_103,disp_x_104,disp_x_105,disp_x_106,disp_x_p1_neg,disp_x_p1_pos,disp_x_p2_neg,disp_x_p2_pos,disp_x_p3_neg,disp_x_p3_pos,disp_x_p4_neg,disp_x_p4_pos,disp_x_p5_neg,disp_x_p5_pos,disp_x_p6_neg,disp_x_p6_pos,disp_y_101,disp_y_102,disp_y_103,disp_y_104,disp_y_105,disp_y_106,disp_y_p1_neg,disp_y_p1_pos,disp_y_p2_neg,disp_y_p2_pos,disp_y_p3_neg,disp_y_p3_pos,disp_y_p4_neg,disp_y_p4_pos,disp_y_p5_neg,disp_y_p5_pos,disp_y_p6_neg,disp_y_p6_pos,disp_y_p7_neg,disp_y_p7_pos,disp_y_p8_neg,disp_y_p8_pos,disp_z_101,disp_z_102,disp_z_103,disp_z_104,disp_z_105,disp_z_106,disp_z_p1_neg,disp_z_p1_pos,disp_z_p2_neg,disp_z_p2_pos,disp_z_p3_neg,disp_z_p3_pos,disp_z_p4_neg,disp_z_p4_pos,disp_z_p5_neg,disp_z_p5_pos,disp_z_p6_neg,disp_z_p6_pos,humidity,ndof,nelem,strain_xx,strain_yy,strain_zz,temp,thermal_strain_xx,thermal_strain_yy,thermal_strain_zz,vonmises,vstrain
2419200,0,0,0,0,0,0,0,0,0,0,0,0,0,0,0,0,0,0,0,0,0,0,0,0,0,0,0,0,0,0,0,0,0,0,0,0,0,0,0,0,0,0,0,0,0,0,0,0,0,0,0,0,0,0,0,0,0,0,0,0,0,0,0,0,0,0,0,0,0,0,0,0,0,0,0
2619200,0.019617711086959,0.00040240841180876,0.00013413613726959,0.00013413613726959,0.00013413613726959,-3.3424061796224e-05,3.3421279595519e-05,-1.3895559944759e-09,-1.3667229633513e-09,5.438182144034e-09,-8.4534447251748e-09,-3.3405498767226e-05,3.3407294043156e-05,-3.3405461781629e-05,3.3407274387881e-05,-3.3409885490258e-05,3.3402647010988e-05,-3.3409885044314e-05,3.3402660968638e-05,-3.4761207370154e-05,3.4753827735354e-05,-3.4761185242885e-05,3.4753856005724e-05,-5.4218293607074e-09,8.4269642628602e-09,-7.802006838131e-09,1.0548633661992e-08,-3.3421284438279e-05,3.3424056948277e-05,-3.341010932102e-05,3.3402295195329e-05,-3.3404230137435e-05,3.3408445642816e-05,-3.3405714204948e-05,3.3406907841378e-05,-3.3399842432572e-05,3.3413060592389e-05,-3.4762769381023e-05,3.4752092285532e-05,-3.474500797467e-05,3.4770345515709e-05,-3.4351764286482e-05,3.4347108478511e-05,-3.4338284027613e-05,3.4361008017364e-05,-2.3113040487295e-09,-2.3318217204893e-09,-3.5343676086205e-05,3.533899946307e-05,6.5164564233433e-09,-1.1465837806321e-08,-3.5094696389067e-05,3.5096069188014e-05,-3.5100675399657e-05,3.5090120063068e-05,-3.5094688291785e-05,3.5096048420793e-05,-3.5100665499917e-05,3.5090095676617e-05,-3.581193641811e-05,3.5801284544449e-05,-3.5811958778994e-05,3.5801341175906e-05,0.81992968619726,131329,3014,0.00013925140398853,0.00013925140397848,0.00014724464669921,31.582562927101,1.2660503416805e-05,1.2660503416805e-05,1.2660503416805e-05,630873.51358165,0.00042583834522266
2819200,0.041194905570275,0.00084107224413756,0.00027881499143321,0.00027881499174421,0.00028344226096014,-6.8422679515816e-05,6.8422477711297e-05,-1.3916921452014e-10,-1.950928236511e-11,3.2644755940261e-09,-3.5930621878173e-09,-6.9455953401997e-05,6.9457981456643e-05,-6.9455874977911e-05,6.9457983971341e-05,-6.9458141641541e-05,6.9455677711424e-05,-6.9458093418719e-05,6.9455708461612e-05,-7.110934761086e-05,7.1106798368689e-05,-7.1109190122452e-05,7.1106877545866e-05,-3.2606031645268e-09,3.5925443591862e-09,-6.02858514391e-09,6.1909344611554e-09,-6.8422475904949e-05,6.8422681448169e-05,-6.9459899194422e-05,6.9453829254886e-05,-6.9455975717387e-05,6.9457918165709e-05,-6.94576936732e-05,6.9456115974307e-05,-6.9453775474474e-05,6.9460206398941e-05,-7.1112755655337e-05,7.1103208538156e-05,-7.1100956894121e-05,7.1115373259513e-05,-7.0111825254458e-05,7.0109399431101e-05,-7.0105158228715e-05,7.0116289945419e-05,-2.692926292987e-10,-3.7599519228879e-10,-7.3450994131078e-05,7.3450292610251e-05,5.5299590108606e-09,-6.4308625336944e-09,-7.376561092359e-05,7.3768966536054e-05,-7.3769604150799e-05,7.3764998150445e-05,-7.376563499049e-05,7.3768919057307e-05,-7.3769627405535e-05,7.3764949362641e-05,-7.404510718069e-05,7.4040352081202e-05,-7.4045063031192e-05,7.404051416081e-05,0.82138492401827,131329,3014,0.00028505350744931,0.00028505350771208,0.00030599712584166,32.74298962234,2.1943916978724e-05,2.1943916978724e-05,2.1943916978724e-05,960702.53697327,0.0008764887470756
3019200,0.062588346338605,0.0012713997533342,0.00041833579803753,0.0004183357983735,0.0004347281569232,-9.9629897504142e-05,9.9630361434144e-05,1.4606398082727e-10,3.510657688766e-10,1.8484740782313e-09,-1.4536817606598e-09,-0.00010184843982533,0.00010184992806955,-0.00010184834518388,0.00010184997137141,-0.00010184949824885,0.00010184881649205,-0.0001018494214361,0.00010184887574032,-0.00010432176428387,0.00010432096555131,-0.00010432152929895,0.00010432113423963,-1.8147985136428e-09,1.4048389499405e-09,-3.5289156938384e-09,3.0181306123684e-09,-9.963036838064e-05,9.9629890694368e-05,-0.00010185097878768,0.00010184728755117,-0.0001018488732608,0.00010184947534471,-0.00010184993385466,0.00010184836193848,-0.0001018478333718,0.00010185055113969,-0.00010432423167258,0.00010431837386346,-0.00010431792704046,0.00010432489852979,-0.00010212389864068,0.00010212245626329,-0.00010212076858439,0.00010212569977461,4.7013631386053e-10,2.6542863326392e-10,-0.00010923028373133,0.00010923097434344,3.453065853361e-09,-2.8815415449058e-09,-0.00011053008178278,0.00011053297206731,-0.00011053220103072,0.00011053086555094,-0.00011053014413051,0.00011053289797853,-0.00011053226228547,0.00011053078982713,-0.00010974099771931,0.0001097394022075,-0.00010974083904126,0.00010973964180942,0.82013326631283,131329,3014,0.00041503977269475,0.00041503977297957,0.00045502291997122,32.491531385539,1.993225108431e-05,1.993225108431e-05,1.993225108431e-05,1300361.1831371,0.0012859302397159
3219200,0.083725990927455,0.0016864173108366,0.00055131190496449,0.00055131190528808,0.000583793500584,-0.00012922023038716,0.00012922085692549,1.7881593878846e-10,4.7531606780275e-10,1.4199011336016e-09,-8.3453330470539e-10,-0.00013307423283674,0.00013307550453139,-0.00013307411806538,0.00013307558861519,-0.00013307496472543,0.00013307474770842,-0.00013307485823756,0.00013307483822464,-0.00013604677298192,0.00013604638945705,-0.0001360464564392,0.00013604665558077,-1.3854675516187e-09,7.8649125377251e-10,-1.695522108218e-09,1.0295172549598e-09,-0.00012922086286504,0.0001292202245804,-0.00013307596644797,0.00013307372284773,-0.00013307509522611,0.00013307462733894,-0.00013307525317111,0.00013307444701727,-0.00013307438690435,0.00013307535287025,-0.00013604785221693,0.00013604524189746,-0.00013604524074776,0.00013604795859825,-0.00013233377829642,0.00013233192222642,-0.00013233165839693,0.00013233410138827,9.531990272402e-10,6.5664911770255e-10,-0.0001443470908471,0.00014434866705231,2.0391220527063e-09,-5.185798265805e-10,-0.0001471697113139,0.00014717224678409,-0.00014717057197343,0.00014717138861501,-0.0001471698093696,0.00014717214709268,-0.00014717066897987,0.00014717128732403,-0.00014441719933287,0.00014441764935504,-0.00014441693547764,0.00014441796387828,0.80675915539866,131329,3014,0.00053827518256848,0.00053827518284498,0.0006012661944515,32.20334000376,1.7626720030077e-05,1.7626720030077e-05,1.7626720030077e-05,1577403.1255542,0.0016792277998828
3419200,0.10458774462856,0.002082538956373,0.00067682490394989,0.00067682490425463,0.00072888914816844,-0.00015703819310813,0.00015703877881823,1.1151421225854e-10,4.9993268642901e-10,1.37470697455e-09,-8.1819257667547e-10,-0.00016306796616144,0.0001630691439981,-0.00016306782938625,0.00016306926733493,-0.00016306868588018,0.00016306841169475,-0.00016306854943889,0.00016306853352698,-0.00016593599813024,0.00016593550266799,-0.00016593559707608,0.00016593586416329,-1.3422812894046e-09,7.7323685461132e-10,-4.6205633824184e-10,-1.6002344780375e-10,-0.00015703878411313,0.00015703818793773,-0.00016306923985609,0.00016306785501835,-0.00016306914422647,0.00016306794413428,-0.00016306854148302,0.00016306856020113,-0.00016306845075458,0.00016306865062655,-0.00016593584551957,0.00016593563859158,-0.00016593556307363,0.00016593592744388,-0.00016046167884638,0.00016045910952432,-0.00016045960542313,0.00016046122072247,1.317389908944e-09,9.2942423027922e-10,-0.00017846088524885,0.00017846310755538,1.1982652566057e-09,1.0217724181459e-09,-0.00018346057266405,0.00018346298038443,-0.00018346064282111,0.0001834629064071,-0.00018346070433053,0.00018346285334561,-0.00018346077345779,0.00018346277778417,-0.00017757415644187,0.00017757594867741,-0.00017757379528728,0.00017757634506336,0.78589838509018,131329,3014,0.00065411574183501,0.00065411574209422,0.00074331074662221,31.913842177538,1.5310737420303e-05,1.5310737420303e-05,1.5310737420303e-05,1810648.7232045,0.0020536522453313
3619200,0.12570016655026,0.0024724389685598,0.00079928601606954,0.0007992860163526,0.00087386693613765,-0.00018478684478307,0.00018478724077855,-2.975177466253e-11,4.5232155456347e-10,1.5767409781675e-09,-1.2140564832828e-09,-0.00019342376069945,0.00019342491320529,-0.00019342359718906,0.00019342507242972,-0.00019342467306619,0.00019342398336699,-0.00019342450660683,0.00019342413757603,-0.00019585313662066,0.00019585216278322,-0.00019585264690922,0.00019585261875339,-1.5463213733444e-09,1.174082842979e-09,-1.0016289700907e-10,-3.3006298141178e-10,-0.00018478724464999,0.0001847868410265,-0.00019342493805199,0.00019342372275811,-0.00019342501147444,0.00019342363063258,-0.00019342404641522,0.00019342462978355,-0.00019342412492556,0.00019342453890671,-0.00019585230416974,0.00019585300861788,-0.00019585251518588,0.0001958527525934,-0.0001882903958272,0.00018828724748607,-0.00018828772873693,0.00018828996069606,1.4272197926356e-09,9.494651373815e-10,-0.00021319916648813,0.00021320152313366,1.0246476209685e-09,1.3570224753213e-09,-0.00022107234915048,0.00022107474376276,-0.00022107225156241,0.00022107483478116,-0.00022107251183062,0.00022107458810749,-0.00022107241360239,0.00022107467770036,-0.00021090031559427,0.00021090232121884,-0.00021089986279219,0.00021090280199243,0.77011577072097,131329,3014,0.00076965505442488,0.000769655054664,0.00088793272362977,31.993973733206,1.5951789865645e-05,1.5951789865645e-05,1.5951789865645e-05,2062653.8191182,0.002430196511165
3819200,0.14740819484617,0.0028707396288244,0.00092368458095097,0.00092368458122769,0.0010233704666457,-0.0002134148923379,0.0002134151084329,-1.5424484119804e-10,3.9834754235896e-10,1.7754462140942e-09,-1.600249064666e-09,-0.00022486764896809,0.00022486879086737,-0.00022486746497975,0.00022486897514166,-0.00022486874775614,0.00022486766574667,-0.00022486855843832,0.00022486784575252,-0.00022708612740194,0.00022708470936251,-0.00022708556869944,0.00022708523909015,-1.6691816129679e-09,1.4575172619286e-09,-2.1468341476367e-10,-6.2001835725288e-11,-0.00021341512473089,0.00021341487615034,-0.00022486886914999,0.00022486755065197,-0.00022486881879412,0.00022486758417503,-0.00022486784981047,0.00022486859236437,-0.00022486780297811,0.00022486862865767,-0.00022708512692099,0.00022708573723349,-0.0002270849470849,0.00022708585397289,-0.00021705014496545,0.0002170468798676,-0.00021704707976621,0.0002170500010211,1.3930936504894e-09,8.0230296212905e-10,-0.0002494385899058,0.00024944076608123,1.1236497347168e-09,1.0861309860248e-09,-0.00026073602727581,0.0002607383991381,-0.00026073605504969,0.00026073836454217,-0.00026073622813311,0.00026073820488337,-0.00026073625316878,0.00026073816997247,-0.00024542838394222,0.00024542997809522,-0.00024542782594993,0.00024543057045223,0.77140162620183,131329,3014,0.00088884331797609,0.00088884331820592,0.0010387796941259,32.325822631466,1.8606581051732e-05,1.8606581051732e-05,1.8606581051732e-05,2329957.7001591,0.002820443845295
4019200,0.16970054382043,0.003277615437511,0.001050061327484,0.0010500613277378,0.0011774927822891,-0.00024247384102193,0.00024247396614154,-2.4659272801143e-10,4.0036531588648e-10,1.8288281146594e-09,-1.7492141128125e-09,-0.00025702477360083,0.00025702586262344,-0.00025702456026185,0.00025702607954155,-0.00025702593778899,0.00025702466854061,-0.00025702571920698,0.00025702488092595,-0.00025913445251064,0.00025913278441526,-0.00025913380329649,0.00025913340689531,-1.7422166274556e-09,1.6205072316311e-09,-4.5673836167796e-10,2.6559678556276e-10,-0.00024247398450639,0.00024247382276001,-0.00025702605384995,0.00025702455787555,-0.00025702581595372,0.00025702478268437,-0.00025702496246768,0.00025702567671284,-0.00025702472800421,0.00025702590383913,-0.00025913352756133,0.0002591337400754,-0.00025913278566468,0.00025913441653981,-0.00024628893429413,0.00024628571684215,-0.00024628564249015,0.00024628907349114,1.3014008059222e-09,6.2151265293567e-10,-0.000286733158277,0.00028673506029937,1.2752837963672e-09,6.6235963127234e-10,-0.00030196441264849,0.00030196672939746,-0.00030196463184903,0.0003019665036334,-0.00030196464326137,0.00030196650430809,-0.00030196486028219,0.00030196627838346,-0.00028081535821757,0.00028081640096663,-0.00028081471181631,0.00028081708160785,0.77299486655931,131329,3014,0.0010098129941123,0.0010098129943265,0.0011939926414334,32.663366112314,2.1306928898513e-05,2.1306928898513e-05,2.1306928898513e-05,2583472.2868328,0.003218798273201
4219200,0.19255370499108,0.0036930794541266,0.00117843184759,0.0011784318478291,0.0013362157587076,-0.00027194565052983,0.00027194573231313,-3.145519844322e-10,4.2549238242626e-10,1.8368603360158e-09,-1.803131778856e-09,-0.00028993987977928,0.00028994091555545,-0.00028993963668861,0.0002899411646196,-0.00028994106293513,0.00028993970013925,-0.00028994081484726,0.00028993994484984,-0.00029196448036885,0.00029196265696863,-0.00029196374020585,0.00029196337059723,-1.7534221659685e-09,1.6799268994291e-09,-7.3666463659185e-10,5.9098970519675e-10,-0.00027194574939929,0.00027194563353913,-0.00028994122073785,0.00028993954691426,-0.0002899407833661,0.00028993997554328,-0.00028994010912453,0.00028994068828232,-0.00028993967519291,0.00028994111915762,-0.00029196373981956,0.00029196342562348,-0.00029196240653844,0.00029196469979185,-0.00027597565497376,0.00027597261889986,-0.00027597229730348,0.00027597604634036,1.2111595350252e-09,4.408710990582e-10,-0.00032509432205487,0.00032509595060639,1.44083943069e-09,2.2181127457517e-10,-0.00034474102010102,0.00034474329413594,-0.00034474144066485,0.00034474286692261,-0.00034474128030318,0.0003447430380804,-0.00034474169942846,0.00034474261111257,-0.00031710190572428,0.00031710238738927,-0.00031710117087703,0.00031710315772605,0.77488674540429,131329,3014,0.0011324887751646,0.0011324887753633,0.0013536169414713,33.00110733523,2.4008858681839e-05,2.4008858681839e-05,2.4008858681839e-05,2818367.0361888,0.0036251639809866
4419200,0.2163399458241,0.0041236947305332,0.0013107732499464,0.0013107732501713,0.0015021482304155,-0.00030275908329046,0.00030275914800449,-3.8264231424584e-10,4.7676808807688e-10,1.7926037002463e-09,-1.7774588488081e-09,-0.00032468010549955,0.00032468106052107,-0.00032467982247206,0.00032468135129043,-0.00032468126374629,0.00032467986910814,-0.00032468097808662,0.00032468015360577,-0.00032652853765504,0.00032652660681076,-0.00032652768293236,0.00032652743373278,-1.7816429514631e-09,1.7408153850313e-09,-1.0746704297893e-09,9.5907352104035e-10,-0.00030275915849007,0.00030275907289454,-0.00032468152316926,0.00032467961324855,-0.00032468084964433,0.00032468028098996,-0.00032468038338876,0.00032468078467289,-0.00032467971551931,0.00032468145259153,-0.00032652805572659,0.00032652711155782,-0.00032652603809023,0.00032652907979303,-0.00030702240686172,0.00030701955359232,-0.00030701896648444,0.00030702306800246,1.1190724434874e-09,2.8457679963882e-10,-0.00036564654121356,0.00036564791850651,1.6886528879531e-09,-2.8150667077474e-10,-0.00039025164058082,0.0003902539337387,-0.00039025231025337,0.00039025325791505,-0.00039025192073675,0.00039025365677041,-0.00039025259155583,0.00039025297942434,-0.00035542319601754,0.00035542311332239,-0.00035542239525084,0.0003554239498317,0.77612069428579,131329,3014,0.0012607356914388,0.0012607356916253,0.0015223279203393,33.595664780532,2.8765318244254e-05,2.8765318244254e-05,2.8765318244254e-05,3043275.4286594,0.0040520064975278
4619200,0.2411988303687,0.004571662712128,0.0014476705684147,0.0014476705686261,0.0016763215750872,-0.0003347780617157,0.00033477812177608,-4.3606876650145e-10,5.2567356238645e-10,1.7474586063979e-09,-1.7376262806511e-09,-0.00036117875501826,0.00036117964039737,-0.00036117843754554,0.00036117996659338,-0.00036117988209585,0.00036117847885286,-0.00036117956322173,0.00036117879886153,-0.00036268479041392,0.00036268278269653,-0.00036268383440343,0.00036268370792972,-1.7521847862162e-09,1.7267800735357e-09,-1.4193823830447e-09,1.3174904923063e-09,-0.00033477812775137,0.00033477805582378,-0.00036118024031442,0.00036117812294018,-0.00036117933475809,0.00036117902757446,-0.00036117911463159,0.00036117928088192,-0.00036117821530548,0.00036118018512014,-0.00036268461095148,0.00036268297742729,-0.00036268191184413,0.00036268563898983,-0.00033927288675474,0.00033927032601285,-0.00033926948995751,0.00033927379899694,1.0570247527958e-09,1.4104011523306e-10,-0.00040830130080259,0.00040830246984644,1.9413447585076e-09,-7.4768396423871e-10,-0.0004384848461274,0.0004384871975799,-0.0004384857555127,0.00043848628169326,-0.00043848515117978,0.00043848689387317,-0.00043848606389037,0.00043848597680605,-0.0003956954679221,0.00039569486070719,-0.00039569458660849,0.00039569577690873,0.77693647847872,131329,3014,0.0013939862494773,0.0013939862496508,0.0016997517549379,34.293720745075,3.4349765960602e-05,3.4349765960602e-05,3.4349765960602e-05,3257969.6131161,0.0044978365931165
4819200,0.26710193090766,0.005036447351139,0.0015889910869195,0.001588991087123,0.0018584651770965,-0.00036779152386522,0.00036779158820472,-4.790453676252e-10,5.7274246093449e-10,1.6910154055666e-09,-1.6772000022794e-09,-0.000399199342107,0.00039920016131091,-0.00039919899455656,0.00039920051788429,-0.00039920042854665,0.00039919903974808,-0.00039920008035869,0.00039919939141664,-0.0004002098109493,0.00040020775799179,-0.00040020876508545,0.00040020877062752,-1.6895638721761e-09,1.6621379680098e-09,-1.7504012320961e-09,1.6460552809761e-09,-0.00036779159336829,0.00036779151878467,-0.00039920088376867,0.00039919858552309,-0.00039919976165059,0.00039919971194094,-0.00039919979937834,0.0003991997017212,-0.00039919868303237,0.00039920082780172,-0.00040020995091409,0.00040020762687697,-0.00040020661054822,0.00040021093901638,-0.00037252675803613,0.00037252453902073,-0.00037252348501013,0.00037252788800848,1.0285937593726e-09,1.8767384301645e-11,-0.00045274474562685,0.00045274576178068,2.1881656909446e-09,-1.1523168061008e-09,-0.00048916624494526,0.00048916869277121,-0.00048916737269014,0.00048916755890241,-0.00048916658031111,0.00048916835801475,-0.00048916771141505,0.00048916722339833,-0.00043760992514628,0.00043760885962513,-0.00043760895388957,0.00043760986751502,0.77792180604492,131329,3014,0.0015313613990508,0.0015313613992236,0.0018845770609133,34.994150339593,3.9953202716747e-05,3.9953202716747e-05,3.9953202716747e-05,3465078.1646473,0.0049595951640902
5019200,0.29400355049414,0.0055157746471996,0.0017341600076194,0.0017341600078147,0.0020474546317655,-0.00040168017339943,0.000401680267288,-5.0982454496011e-10,6.3256381833015e-10,1.6620829137432e-09,-1.6176855669634e-09,-0.00043862596996217,0.00043862675972668,-0.00043862559235479,0.00043862714675188,-0.00043862702912731,0.00043862566778591,-0.00043862665158441,0.00043862605076143,-0.0004388784479353,0.00043887636537275,-0.00043887731292066,0.00043887746604746,-1.6595647577451e-09,1.6001231894498e-09,-2.0906256710334e-09,1.9557380550726e-09,-0.00040168027319035,0.00040168016757852,-0.00043862760778626,0.00043862509009823,-0.00043862626929496,0.00043862643480498,-0.00043862655072396,0.0004386261761828,-0.00043862521767984,0.00043862752037974,-0.00043887891921817,0.00043887589920815,-0.00043887494501312,0.00043887984939703,-0.00040664006375682,0.00040663811977142,-0.00040663687924858,0.00040664137579342,1.0584832169172e-09,-4.4586792124694e-11,-0.00049867974890137,0.00049868073020529,2.4903475365187e-09,-1.4931019864504e-09,-0.00054205700721231,0.00054205966704659,-0.00054205835100236,0.00054205831758875,-0.00054205737352603,0.00054205930146079,-0.00054205872030015,0.00054205795116053,-0.0004808223490604,0.00048082094404148,-0.00048082128771178,0.00048082204360255,0.77677327185707,131329,3014,0.0016723644990855,0.0016723644992549,0.0020755623502922,35.694662741522,4.5557301932174e-05,4.5557301932174e-05,4.5557301932174e-05,3664691.777009,0.0054350575751545
5219200,0.32120918385637,0.0059990914427175,0.0018802436179547,0.0018802436181478,0.0022386042066151,-0.00043499197162242,0.00043499208685082,-5.7550717288621e-10,7.1969323807148e-10,1.6113915133454e-09,-1.5441601599082e-09,-0.000477837172653,0.00047783788956074,-0.00047783674129616,0.00047783832858664,-0.00047783818975244,0.00047783684092588,-0.00047783776348646,0.00047783727310419,-0.00047720509525949,0.00047720293270617,-0.00047720381610895,0.00047720417674752,-1.6272608338118e-09,1.5469364463731e-09,-2.2906465488111e-09,2.1363605668984e-09,-0.00043499209218809,0.00043499196638783,-0.00047783883430315,0.00047783619554565,-0.00047783737018698,0.00047783767006773,-0.00047783780091454,0.00047783725556882,-0.00047783634602879,0.00047783872555654,-0.0004772057307696,0.00047720229695649,-0.00047720139278294,0.00047720661660346,-0.00044021953338727,0.00044021778521228,-0.00044021643888984,0.00044022095010038,1.0453782620146e-09,-8.8706093383855e-11,-0.00054461048044666,0.00054461140337114,2.7669038351709e-09,-1.8292890016237e-09,-0.00059544457088462,0.00059544738460333,-0.00059544611614335,0.0005954458333954,-0.00059544494528554,0.0005954470104705,-0.00059544649771193,0.00059544545474726,-0.00052389354687546,0.00052389184487217,-0.00052389244792189,0.00052389297886823,0.77855553687027,131329,3014,0.0018109555134877,0.0018109555137012,0.0022664840572003,36.023525341694,4.8188202733553e-05,4.8188202733553e-05,4.8188202733553e-05,3854675.3311428,0.0059058314920005
5419200,0.34851949658107,0.0064763644867754,0.0020238433716811,0.0020238433718984,0.0024286777431959,-0.00046750738806885,0.0004675075108259,-6.2154771649685e-10,7.7331056054026e-10,1.572962656747e-09,-1.4969364387664e-09,-0.00051657542162605,0.00051657608268254,-0.00051657495491912,0.00051657655496077,-0.0005165764100041,0.00051657506264808,-0.00051657594973554,0.00051657552983491,-0.00051474072641042,0.00051473850018212,-0.00051473934300486,0.00051473984056039,-1.588871658599e-09,1.5009356885847e-09,-2.4891750767219e-09,2.3284224972392e-09,-0.00046750751586265,0.00046750738313907,-0.00051657710687285,0.000516574362487,-0.00051657551955431,0.00051657596566323,-0.00051657610060287,0.00051657539480442,-0.00051657452210488,0.00051657699342606,-0.00051474153159852,0.00051473768603962,-0.00051473682057438,0.0005147423877154,-0.00047290816377062,0.00047290662249998,-0.00047290515209153,0.00047290970628675,1.0472250322882e-09,-1.7171384478932e-10,-0.00059054314748633,0.00059054398840176,2.9303167950834e-09,-2.0768281569283e-09,-0.00064932832334131,0.00064933122275241,-0.00064933000952651,0.00064932953031994,-0.00064932872289263,0.00064933082315876,-0.00064933041754574,0.00064932912631847,-0.00056659504025312,0.00056659304330571,-0.00056659386182198,0.00056659425851512,0.76958004624275,131329,3014,0.0019462238103776,0.0019462238106002,0.0024573659699307,36.276227387568,5.0209819100541e-05,5.0209819100541e-05,5.0209819100541e-05,4027708.7842856,0.006370101111095
5619200,0.37585787209169,0.006930763577978,0.0021592756662634,0.0021592756664777,0.0026122122452369,-0.00049822426533228,0.00049822439279511,-6.6358928090592e-10,8.1984285828991e-10,1.5451875617571e-09,-1.4635700802034e-09,-0.00055411712095226,0.00055411773590322,-0.00055411662271381,0.00055411823643616,-0.00055411808764859,0.00055411673529564,-0.00055411759833546,0.00055411723385381,-0.0005496905444052,0.00054968825605342,-0.00054968907290174,0.00054968968314876,-1.5595021829001e-09,1.4663141940197e-09,-2.6648884521532e-09,2.4998957551623e-09,-0.00049822439764624,0.00049822426058512,-0.0005541188297116,0.0005541159884189,-0.00055411713173442,0.00055411770766065,-0.00055411784451409,0.00055411700026651,-0.0005541161538732,0.00055411871410451,-0.0005496914994823,0.00054968728868044,-0.00054968645086053,0.00054969233259001,-0.00050325505632129,0.00050325368654125,-0.00050325210637434,0.00050325670722446,1.0556210060323e-09,-2.5909160304702e-10,-0.00063535976898662,0.00063536053038001,3.0546182917286e-09,-2.283331462747e-09,-0.00070272799209156,0.00070273095527304,-0.00070272978983868,0.00070272915164855,-0.0007027284232859,0.00070273052459504,-0.00070273022864184,0.00070272871665815,-0.00060737806386427,0.00060737578527832,-0.00060737679323143,0.00060737709334518,0.73637049894264,131329,3014,0.0020740042735636,0.0020740042737799,0.0026435614553293,36.527128264271,5.2217026114171e-05,5.2217026114171e-05,5.2217026114171e-05,4172294.6638334,0.0068147906287033
5819200,0.40314394339768,0.0073669783693801,0.0022882782720367,0.0022882782722535,0.0027904218250899,-0.0005275091442517,0.00052750927551489,-7.0678162839464e-10,8.6669069195899e-10,1.5282595025889e-09,-1.442038718457e-09,-0.00059103137274931,0.00059103194793755,-0.00059103084255776,0.00059103247732882,-0.00059103232541803,0.00059103095914997,-0.00059103180664546,0.00059103148925649,-0.00058253508339753,0.00058253272357863,-0.00058253352283084,0.00058253423794298,-1.5416457701593e-09,1.444230016962e-09,-2.8076780204881e-09,2.6393047619059e-09,-0.00052750928018777,0.00052750913968138,-0.00059103310069628,0.00059103017737007,-0.00059103131393186,0.00059103199098746,-0.00059103212862374,0.00059103117662955,-0.00059103034805104,0.00059103298390092,-0.00058253614788821,0.00058253164398052,-0.00058253082453778,0.0005825369660093,-0.00053168070774743,0.00053167946630565,-0.00053167779614775,0.00053168244679655,1.0648380353995e-09,-3.4407779921824e-10,-0.00067953903454866,0.00067953971975158,3.1517301261463e-09,-2.4592303318485e-09,-0.00075597539507721,0.00075597840504826,-0.0007559772842147,0.00075597651020998,-0.00075597585781136,0.00075597794348348,-0.00075597775385849,0.00075597604419755,-0.00064686305580149,0.00064686051857455,-0.00064686169310982,0.00064686191855934,0.71317585042519,131329,3014,0.0021958236913683,0.0021958236915816,0.0028270631271237,36.777965905359,5.4223727242871e-05,5.4223727242871e-05,5.4223727242871e-05,4306555.251955,0.0072449584760242
6019200,0.4298939216183,0.007785948591951,0.0024112153502771,0.0024112153504933,0.0029635178911806,-0.00055498935027486,0.00055498948539742,-7.4925158699597e-10,9.1295347789793e-10,1.5005750784614e-09,-1.4095829030628e-09,-0.0006266611997576,0.00062666172988728,-0.00062666063945199,0.00062666228699117,-0.00062666213290965,0.00062666075936887,-0.00062666158367869,0.00062666132105426,-0.00061321824520098,0.00061321581929312,-0.00061321659448016,0.00061321742343428,-1.5166176203245e-09,1.4149045615946e-09,-2.8840610316836e-09,2.7126307903327e-09,-0.00055498948981875,0.00055498934594907,-0.00062666291956615,0.000626659964518,-0.00062666108883685,0.00062666182665532,-0.00062666196652794,0.00062666094481881,-0.00062666013932582,0.0006266628021602,-0.00061321936135394,0.00061321468605951,-0.00061321388898284,0.00061322015986936,-0.0005580738173994,0.00055807267131827,-0.00055807095547881,0.00055807560054157,1.0792142746271e-09,-4.2515156629384e-10,-0.00072254719187469,0.00072254781015783,3.175449208927e-09,-2.5520857720903e-09,-0.00080842905197826,0.00080843206707308,-0.00080843098104444,0.0008084301323571,-0.00080842954796673,0.00080843157294433,-0.00080843148115775,0.00080842963577722,-0.00068481337513224,0.00068481064262591,-0.00068481192241239,0.00068481213225866,0.70261524372194,131329,3014,0.0023101336248122,0.0023101336250107,0.0030056594020937,36.775510641925,5.4204085135403e-05,5.4204085135403e-05,5.4204085135403e-05,4408139.9047238,0.0076552380453705
6219200,0.4560390102218,0.0081974999472453,0.0025313133843901,0.0025313133846079,0.0031348731782473,-0.00058167334657906,0.00058167348508111,-7.9326177227973e-10,9.6021386994892e-10,1.487683396264e-09,-1.392522720975e-09,-0.00066143040929764,0.0006614309022374,-0.00066142981718901,0.00066143148876445,-0.00066143133182479,0.00066142994128284,-0.00066143075269305,0.00066143053362406,-0.0006433696175787,0.00064336711643411,-0.00064336787856487,0.00064336880910028,-1.5028408312418e-09,1.3973411794674e-09,-2.918113453675e-09,2.7437885466931e-09,-0.0005816734893387,0.00058167334241489,-0.00066143211606296,0.00066142914756702,-0.00066143026648183,0.00066143103192669,-0.0006614311729575,0.000661430117775,-0.00066142932687449,0.00066143199664391,-0.00064337073420192,0.00064336598191364,-0.00064336519900755,0.00064337152011141,-0.00058373534775544,0.00058373425081343,-0.00058373251692254,0.00058373714749855,1.097025871995e-09,-5.0006531581845e-10,-0.00076526364395562,0.00076526420478495,3.1769164775882e-09,-2.6128107830858e-09,-0.00086090070402098,0.00086090371262501,-0.00086090265271018,0.00086090175832094,-0.00086090123139357,0.00086090318767842,-0.00086090318380572,0.00086090123070083,-0.00072237557756555,0.00072237267621515,-0.00072237403353533,0.00072237425664294,0.70745492915805,131329,3014,0.0024211287816182,0.0024211287818123,0.0031830052069214,36.758737242066,5.4069897936531e-05,5.4069897936531e-05,5.4069897936531e-05,4485496.6082154,0.0080577466577067
6419200,0.4815380096205,0.0085953751667403,0.0026466854550898,0.0026466854553152,0.0033020042563353,-0.00060721333645404,0.00060721347773288,-8.3759549015037e-10,1.0072157820139e-09,1.4849754681952e-09,-1.3864101722386e-09,-0.00069496276856421,0.00069496323092236,-0.00069496214524227,0.00069496384712971,-0.00069496368799584,0.00069496227259162,-0.0006949630786055,0.00069496289546737,-0.00067230683818449,0.0006723042533746,-0.00067230500963616,0.00067230603506235,-1.4996038094219e-09,1.3910237919041e-09,-2.9284597389703e-09,2.7517182473857e-09,-0.00060721348185351,0.00060721333242734,-0.00069496446146227,0.00069496148854392,-0.00069496260815187,0.00069496337913464,-0.00069496352127069,0.00069496245565912,-0.00069496167125586,0.00069496434046235,-0.00067230792410713,0.00067230314853798,-0.0006723023717917,0.00067230870507801,-0.00060819328937716,0.00060819220488206,-0.00060819046781359,0.00060819509139338,1.1191386676701e-09,-5.7067786400651e-10,-0.00080702671777061,0.0008070272296306,3.1597041131347e-09,-2.6458760997867e-09,-0.00091260810571296,0.00091261110130847,-0.0009126100592086,0.00091260914232264,-0.00091260866412521,0.00091261054574288,-0.00091261062118777,0.0009126085837073,-0.00075886298080121,0.00075885993475124,-0.0007588613458299,0.00075886160606103,0.70210893866411,131329,3014,0.0025273640627012,0.0025273640628963,0.0033563539822916,36.741574086573,5.3932592692586e-05,5.3932592692586e-05,5.3932592692586e-05,4557571.6260515,0.0084467891846135
6619200,0.50676721869665,0.0090123984353599,0.0027679937335426,0.0027679937337697,0.0034764109680476,-0.00063391280683614,0.00063391294853721,-8.8325414898616e-10,1.0532194263989e-09,1.5249755343383e-09,-1.425774375748e-09,-0.00072913323905274,0.00072913369761884,-0.0007291325843624,0.00072913434388382,-0.000729134184478,0.00072913271254926,-0.00072913354488709,0.00072913336589522,-0.00070337137932812,0.00070336867936573,-0.00070336946125104,0.00070337054966058,-1.5389095343389e-09,1.4300199736471e-09,-2.9343861271035e-09,2.7572018266402e-09,-0.0006339129525718,0.00063391280290326,-0.00072913494400991,0.00072913194161815,-0.00072913308855811,0.00072913383631371,-0.00072913397747477,0.00072913293518683,-0.00072913212542356,0.00072913482345274,-0.00070337240003097,0.00070336763924798,-0.00070336683730384,0.00070337320662088,-0.00063433244121444,0.00063433128356353,-0.00063432954326249,0.0006343342458316,1.1443276692517e-09,-6.3778780404979e-10,-0.0008502491607729,0.00085024963021739,3.1443253300048e-09,-2.6737989143227e-09,-0.00096560260080788,0.00096560558856492,-0.00096560455772769,0.00096560362623027,-0.00096560318990245,0.00096560500251375,-0.0009656051506716,0.00096560303660746,-0.00079737569290103,0.00079737251002362,-0.0007973739670601,0.00079737427240157,0.74070667176778,131329,3014,0.0026384146966414,0.0026384146968528,0.0035357215636899,37.009397002367,5.6075176018934e-05,5.6075176018934e-05,5.6075176018934e-05,4616466.5660808,0.0088517738449209
6819200,0.53282469211304,0.0094757048992736,0.0029034037549006,0.0029034037551372,0.0036688973892358,-0.00066441609124044,0.00066441622840022,-9.3291030808341e-10,1.0978541313393e-09,1.6587781822887e-09,-1.5647935881888e-09,-0.00076664242640785,0.00076664293642027,-0.00076664173614008,0.00076664361730279,-0.00076664345812031,0.00076664186334623,-0.00076664279098061,0.00076664254447365,-0.00073972737454839,0.00073972449711929,-0.00073972537012215,0.00073972644325754,-1.6574106609045e-09,1.5524409345208e-09,-2.9750065054452e-09,2.7985139041756e-09,-0.00066441623326515,0.00066441608662139,-0.00076664420942067,0.00076664110007067,-0.00076664232427611,0.00076664302612829,-0.00076664315902336,0.00076664217788622,-0.00076664128446808,0.00076664408984802,-0.00073972830233904,0.00073972355033471,-0.00073972266786518,0.00073972918315334,-0.0006649183836947,0.00066491703085702,-0.00066491526023843,0.00066492021860111,1.1686764471191e-09,-7.0341898679751e-10,-0.00089822993865097,0.00089823036507678,3.2132224010407e-09,-2.7862929817355e-09,-0.0010232931793677,0.0010232962092938,-0.0010232951925018,0.0010232941910886,-0.0010232937948747,0.0010232955970267,-0.001023295819162,0.0010232935676289,-0.00084129528385139,0.00084129190244479,-0.00084129345754208,0.0008412937632749,0.79221451618526,131329,3014,0.0027652708152089,0.002765270815722,0.0037347889233627,38.075790999519,6.460632799615e-05,6.460632799615e-05,6.460632799615e-05,4716712.0753357,0.0093087126392567
7019200,0.55960998195929,0.0099140128005538,0.0030297051790024,0.0030297051792995,0.0038546024422519,-0.0006939044426241,0.00069390457435115,-9.8128703535465e-10,1.1409601967727e-09,1.7758910471887e-09,-1.688378039504e-09,-0.00080395943010242,0.00080395998483447,-0.00080395871010557,0.00080396069719359,-0.00080396054313675,0.00080395883181491,-0.00080395984419266,0.00080395954219489,-0.00077403740740299,0.00077403435331235,-0.00077403530951424,0.00077403638966622,-1.7765642510987e-09,1.6778048153892e-09,-3.0179749214975e-09,2.8464687414975e-09,-0.00069390457940373,0.00069390443784999,-0.0008039612870095,0.00080395807395861,-0.00080395937508298,0.00080396002864296,-0.00080396015592326,0.0008039592329678,-0.00080395825459533,0.00080396117342355,-0.00077403824632994,0.00077403349300447,-0.00077403252323954,0.00077403921574685,-0.00069372271754911,0.00069372115945955,-0.00069371935294304,0.00069372458964676,1.1945647271911e-09,-7.7043909361454e-10,-0.0009458877936207,0.00094588817844386,3.2355550456614e-09,-2.8514645951992e-09,-0.0010814959835922,0.0010814990339675,-0.0010814980281394,0.0010814969851922,-0.0010814966294697,0.001081498391836,-0.0010814986857415,0.0010814963296143,-0.00088375250413656,0.00088374896188882,-0.00088375058809052,0.00088375091528277,0.73335807860733,131329,3014,0.00288790734975,0.00288790735033,0.0039324606453874,39.160085339503,7.3280682716027e-05,7.3280682716027e-05,7.3280682716027e-05,4790559.5372095,0.0097559334759782
7219200,0.5869716265339,0.010343963575233,0.0031526684704722,0.0031526684707335,0.0040386266340269,-0.00072306121692891,0.00072306134259883,-1.0300060412578e-09,1.1838546010546e-09,1.8795051102326e-09,-1.7992947563097e-09,-0.00084129431455863,0.00084129490444602,-0.00084129356378855,0.00084129564664952,-0.00084129549862248,0.00084129367935953,-0.00084129476893691,0.00084129442047136,-0.0008076431252795,0.00080763990350325,-0.00080764093726581,0.00080764203076796,-1.88078455319e-09,1.7896341523095e-09,-3.0430795851045e-09,2.8780706734193e-09,-0.0007230613474376,0.00072306121229231,-0.00084129622976,0.00084129293335112,-0.00084129430123008,0.00084129490636707,-0.00084129502745404,0.00084129416451205,-0.0008412931088329,0.00084129612347081,-0.0008076438684413,0.00080763913806121,-0.00080763808990463,0.00080764491846133,-0.00072172981329758,0.00072172806768806,-0.00072172623631626,0.00072173171172364,1.2215732824218e-09,-8.361760467781e-10,-0.00099355130231439,0.00099355164820142,3.2384596441779e-09,-2.8944427213793e-09,-0.0011402899634289,0.0011402930219931,-0.0011402920239695,0.0011402909575936,-0.0011402906403534,0.0011402923485212,-0.0011402927120007,0.0011402902711593,-0.00092551807224227,0.00092551438582984,-0.00092551606721172,0.00092551642944888,0.70718848826492,131329,3014,0.0030091623373167,0.0030091623377373,0.0041301064225531,40.245002741001,8.1960021928007e-05,8.1960021928007e-05,8.1960021928007e-05,4855624.7726947,0.010200539450009
7419200,0.61391011244131,0.010752256039772,0.0032687460810812,0.0032687460813103,0.0042147638773806,-0.00074985913900211,0.00074985926077729,-1.0775162215014e-09,1.2278376580494e-09,1.8948045969908e-09,-1.8192825443435e-09,-0.00087655061385986,0.00087655118270274,-0.00087654983376111,0.00087655195308243,-0.00087655181037509,0.00087654994362173,-0.00087655104931315,0.0008765507174299,-0.00083827397556324,0.00083827064471965,-0.00083827169597057,0.00083827286864504,-1.8995108520766e-09,1.8139761691298e-09,-2.9802274848185e-09,2.821165840807e-09,-0.00074985926504586,0.00074985913484517,-0.0008765525015685,0.00087654923737628,-0.00087655061572488,0.00087655116909833,-0.00087655128732787,0.00087655048172777,-0.00087654940770216,0.00087655240227995,-0.00083827459652247,0.0008382700005307,-0.00083826893228313,0.00083827567104256,-0.00074702811171277,0.00074702628445303,-0.00074702448849702,0.0007470299761994,1.2530041069376e-09,-8.9757170788868e-10,-0.0010386323787788,0.0010386326952183,3.1465803313955e-09,-2.832633611517e-09,-0.0011965649728287,0.0011965679839096,-0.0011965669837493,0.0011965659693592,-0.0011965656822263,0.001196567277856,-0.0011965677010152,0.0011965652534342,-0.0009644111699367,0.00096440741782533,-0.00096440907979969,0.00096440954833253,0.68501444388778,131329,3014,0.0031206099951354,0.0031206099953662,0.0043169998762898,40.771963420727,8.6175707365816e-05,8.6175707365816e-05,8.6175707365816e-05,4909953.6885597,0.010614655695334
7619200,0.63968278709363,0.011134378288606,0.0033769608991428,0.0033769608993532,0.0043804564901103,-0.00077409267992841,0.00077409280082553,-1.1238545670144e-09,1.2734953667084e-09,1.8476143406501e-09,-1.772974121387e-09,-0.00090933383594718,0.00090933434129002,-0.00090933302386575,0.00090933514193966,-0.00090933499976475,0.00090933313344968,-0.00090933420927129,0.00090933393795527,-0.00086583176030605,0.00086582837277192,-0.00086582939440117,0.00086583068471347,-1.8505515569737e-09,1.7663435616611e-09,-2.8379174075271e-09,2.6807507184176e-09,-0.00077409280478574,0.00077409267604504,-0.0009093356280753,0.00090933249041829,-0.00090933383568978,0.00090933432923765,-0.00090933444563623,0.00090933370348806,-0.00090933266017151,0.00090933552973237,-0.00086583222838379,0.00086582788151548,-0.00086582684324337,0.00086583327336142,-0.00076973775860972,0.00076973593588241,-0.00076973423267824,0.00076973953076683,1.2915139504883e-09,-9.5155647810277e-10,-0.0010806115465865,0.0010806118475951,3.0013445106031e-09,-2.7022523386489e-09,-0.001249507355335,0.0012495102888649,-0.0012495092730031,0.0012495083676025,-0.001249508095263,0.001249509552025,-0.0012495100212471,0.0012495076205543,-0.0010002189132964,0.0010002151456483,-0.0010002167317314,0.0010002173680964,0.67223241553947,131329,3014,0.0032213959811888,0.0032213959813469,0.0044909977338144,40.851945884665,8.6815567077316e-05,8.6815567077316e-05,8.6815567077316e-05,4948968.6114504,0.010994349927158
7819200,0.66425512815351,0.011495016396939,0.0034788606859011,0.003478860686125,0.0045372950249126,-0.0007968365221619,0.00079683664334682,-1.1697170565939e-09,1.3196052932288e-09,1.7937838736046e-09,-1.7185837923272e-09,-0.00094027375352947,0.00094027419157096,-0.00094027291009619,0.000940275024147,-0.00094027488182304,0.00094027302024354,-0.00094027405908545,0.00094027385547394,-0.00089170883533968,0.00089170539392973,-0.00089170637905905,0.00089170779590277,-1.7967675056466e-09,1.7121601705442e-09,-2.6891912438434e-09,2.5318310739783e-09,-0.00079683664722065,0.00079683651836954,-0.00094027544431296,0.00094027244329556,-0.00094027375155703,0.00094027418056009,-0.00094027429769209,0.00094027362003769,-0.00094027261245831,0.00094027534503145,-0.00089170914935932,0.00089170505705797,-0.00089170405492842,0.00089171015769439,-0.00079111511225383,0.00079111329616109,-0.0007911116921865,0.00079111678542727,1.3353380528097e-09,-1.0001585716363e-09,-0.0011205644057697,0.0011205647019464,2.8497572516662e-09,-2.5546947442556e-09,-0.00130006380933,0.0013000666690407,-0.001300065627181,0.001300064847717,-0.0013000645802077,0.0013000659013335,-0.0013000664061268,0.0013000640698516,-0.0010340402559044,0.0010340364933276,-0.0010340379841674,0.0010340388059077,0.66655084048246,131329,3014,0.0033159849333091,0.003315984933477,0.0046565664204748,40.921764170073,8.7374113360583e-05,8.7374113360583e-05,8.7374113360583e-05,4976909.4165118,0.011353129079486
8019200,0.68761796228344,0.011834629852948,0.0035745704675937,0.0035745704678274,0.0046854889175265,-0.00081816820745103,0.00081816832980483,-1.2151269094717e-09,1.3661290000203e-09,1.7406435887979e-09,-1.6637983626903e-09,-0.00096934374773637,0.00096934411994255,-0.00096934287328175,0.00096934498351007,-0.00096934484013111,0.0009693429845594,-0.00096934398636118,0.0009693438507577,-0.00091598461142121,0.00091598111701362,-0.00091598206443185,0.00091598360828952,-1.7435882002198e-09,1.657471003485e-09,-2.5383098400266e-09,2.3797600660894e-09,-0.00081816833362169,0.00081816820373291,-0.00096934533752716,0.00096934247301848,-0.00096934374590819,0.0009693441085267,-0.00096934422676668,0.00096934361376391,-0.00096934264270183,0.00096934523703359,-0.00091598476960843,0.00091598093645424,-0.0009159799708626,0.00091598573922689,-0.00081100604318781,0.00081100423119992,-0.00081100272913581,0.00081100761466978,1.3835630559807e-09,-1.0443133254153e-09,-0.0011584188621298,0.0011584191623246,2.7006196530116e-09,-2.40029155677e-09,-0.0013481105383042,0.0013481133312912,-0.0013481122547834,0.0013481116113131,-0.0013481113401874,0.0013481125326748,-0.0013481130644477,0.0013481108027717,-0.0010659741413656,0.00106597039443,-0.001065971779038,0.0010659727970654,0.66097249676443,131329,3014,0.0034046992994029,0.0034046992996068,0.0048134098240232,40.991226999666,8.7929815997329e-05,8.7929815997329e-05,8.7929815997329e-05,5001012.4329849,0.011691322260675
8219200,0.70991466646788,0.012155736153464,0.0036648623403327,0.0036648623405693,0.0048260114725619,-0.00083848872912419,0.00083848885249617,-1.2606151209263e-09,1.4125787919228e-09,1.7055347176145e-09,-1.6272214984414e-09,-0.00099710121238478,0.00099710153095046,-0.00099710030745091,0.00099710242552616,-0.0009971022812998,0.00099710041938609,-0.00099710139643637,0.00099710131666253,-0.00093910275734963,0.00093909919715092,-0.00093910011956231,0.00093910177878263,-1.7084452260374e-09,1.6210917082666e-09,-2.4029897299851e-09,2.2433812858926e-09,-0.00083848885622923,0.00083848872549903,-0.00099710271863478,0.00099709996817209,-0.00099710121770067,0.00099710151244711,-0.00099710163167118,0.00099710108489401,-0.00099710013806573,0.00099710261740171,-0.00093910276276667,0.00093909916984674,-0.00093909822914998,0.00093910370645228,-0.0008298539760527,0.00082985214257424,-0.00082985073180119,0.00082985545624718,1.43404381224e-09,-1.0861605690108e-09,-0.0011946268063427,0.0011946271153001,2.568432575442e-09,-2.2582669092019e-09,-0.001394111614281,0.0013941143552101,-0.0013941132393761,0.0013941127265484,-0.0013941124473664,0.0013941135255552,-0.0013941140796581,0.0013941118875604,-0.0010964364130749,0.0010964326771031,-0.0010964339606135,0.0010964351691186,0.65549140042,131329,3014,0.0034892061404455,0.0034892061406686,0.004963404065277,41.181853113008,8.9454824904066e-05,8.9454824904066e-05,8.9454824904066e-05,5025898.0812383,0.012014181195282
8419200,0.73119552012065,0.012461302948849,0.0037506866620595,0.0037506866622977,0.0049599296244917,-0.00085784566169022,0.00085784578580696,-1.3062491879545e-09,1.4589605413452e-09,1.6839069788271e-09,-1.604438798849e-09,-0.0010235276447104,0.0010235279183472,-0.0010235267091488,0.001023528844001,-0.0010235286990851,0.0010235268218447,-0.0010235277834841,0.0010235277496641,-0.00096122480087965,0.00096122116661042,-0.00096122207371237,0.0009612238381149,-1.6866357080869e-09,1.5983388359946e-09,-2.2798024176663e-09,2.119636043308e-09,-0.00085784578945902,0.00085784565814716,-0.0010235290807579,0.001023526426554,-0.0010235276615373,0.0010235278884216,-0.0010235280082228,0.0010235275285001,-0.001023526596678,0.0010235289785319,-0.000961224656183,0.00096122128999845,-0.00096122036435227,0.0009612255840639,-0.00084776692512917,0.00084776505323763,-0.00084776372488484,0.00084776832259145,1.4863968838896e-09,-1.1260479265382e-09,-0.0012292174503985,0.0012292177720169,2.4524165325642e-09,-2.1283669609974e-09,-0.0014381161294464,0.0014381188314696,-0.001438117672248,0.0014381172849877,-0.0014381169934218,0.0014381179710862,-0.0014381185433705,0.0014381164152831,-0.0011255045386343,0.001125500806966,-0.0011255019955737,0.0011255033893831,0.6538093549099,131329,3014,0.0035697038731289,0.0035697038733541,0.0051066733036346,41.431287975773,9.1450303806185e-05,9.1450303806185e-05,9.1450303806185e-05,5050484.4176943,0.012322218001854
8619200,0.75144373727274,0.01275143310611,0.0038320968030373,0.0038320968032739,0.0050872394997985,-0.0008761470986271,0.00087614722349428,-1.3518351271883e-09,1.5052758182688e-09,1.6687846138932e-09,-1.5882046472029e-09,-0.001048432512899,0.0010484327464394,-0.0010484315469754,0.0010484337028023,-0.0010484335574287,0.001048431660486,-0.0010484326111329,0.0010484326187917,-0.00098224226341623,0.00098223855024579,-0.00098223944634587,0.00098224131201781,-1.6713989932965e-09,1.5821704394758e-09,-2.1656560078794e-09,2.0049496885469e-09,-0.00087614722705545,0.00087614709517517,-0.001048433886592,0.0010484313180361,-0.0010484325428506,0.0010484327035727,-0.0010484328240897,0.001048432409457,-0.0010484314880259,0.0010484337832776,-0.00098224197293704,0.00098223882005241,-0.00098223790490668,0.00098224288929417,-0.00086477686122827,0.00086477494359108,-0.00086477369175751,0.00086477818193901,1.5402246801345e-09,-1.1644980762655e-09,-0.00126205098309,0.0012620513203082,2.3462379433061e-09,-2.0053751068729e-09,-0.0014799850841973,0.0014799877559196,-0.0014799865505187,0.0014799862857928,-0.001479985979108,0.0014799868647652,-0.0014799874523882,0.0014799853854762,-0.0011530722142463,0.0011530684841506,-0.0011530695807534,0.0011530711567241,0.65260875768162,131329,3014,0.0036458110683727,0.0036458110685982,0.0052426417672376,41.682073970839,9.3456591766713e-05,9.3456591766713e-05,9.3456591766713e-05,5072682.2094925,0.012614063010261
8819200,0.77064936586667,0.013015930052956,0.0039058199205699,0.0039058199208051,0.0052042902115812,-0.00089294772493228,0.00089294785038695,-1.3975132855167e-09,1.551536993551e-09,1.6601919988917e-09,-1.5786984575517e-09,-0.0010716157660708,0.0010716159635486,-0.0010716147696396,0.001071616950829,-0.0010716168050753,0.001071614883767,-0.0010716158279519,0.0010716158726763,-0.0010013500055282,0.0010013462088883,-0.0010013470985612,0.0010013490608804,-1.6626839198627e-09,1.5727362694387e-09,-2.0620525452493e-09,1.9009566917297e-09,-0.00089294785385645,0.00089294772156997,-0.0010716170850153,0.0010716145909392,-0.0010716158097323,0.0010716159070239,-0.0010716160281566,0.001071615676279,-0.0010716147606344,0.0010716169807459,-0.001001349575021,0.0010013466193213,-0.0010013457101065,0.0010013504844636,-0.00088020453584391,0.00088020256678202,-0.00088020138401607,0.00088020578707812,1.5947851547023e-09,-1.2021164912252e-09,-0.001292625571943,0.0012926259263203,2.2515964894199e-09,-1.8924114988042e-09,-0.0015193330334353,0.0015193356835716,-0.0015193344304439,0.0015193342826298,-0.001519333959237,0.0015193347616795,-0.0015193353630626,0.0015193333517018,-0.0011783597238389,0.0011783559896639,-0.0011783569998932,0.0011783587524097,0.62941993038869,131329,3014,0.0037156790929655,0.0037156790931866,0.0053692352686696,41.932907330227,9.5463258641817e-05,9.5463258641817e-05,9.5463258641817e-05,5102030.6427616,0.012883857773417
9019200,0.78840787322661,0.01326060394318,0.003974039120391,0.0039740391206255,0.0053125257021632,-0.00090761369744297,0.00090761382504423,-1.4422669729693e-09,1.5986968025571e-09,1.620968520142e-09,-1.5366811532985e-09,-0.0010921091009593,0.0010921092424801,-0.0010921080738343,0.0010921102608221,-0.0010921101133701,0.0010921081902393,-0.0010921091055787,0.0010921092097,-0.0010182478795189,0.0010182440229304,-0.0010182448849779,0.0010182469662228,-1.6231502254784e-09,1.5312190083784e-09,-1.9362925495651e-09,1.7747235897615e-09,-0.00090761382810094,0.00090761369447068,-0.0010921103382046,0.0010921079529164,-0.0010921091459517,0.0010921091848424,-0.0010921093077335,0.0010921090114239,-0.0010921081236422,0.0010921102316046,-0.0010182473092032,0.0010182445741509,-0.0010182436918089,0.0010182481928027,-0.00089363210197004,0.00089363012731747,-0.00089362902974742,0.00089363326755225,1.6508053325597e-09,-1.2381132371375e-09,-0.001319991737263,0.0013199921122164,2.1372342316966e-09,-1.756156446979e-09,-0.0015549063777713,0.0015549089953154,-0.0015549076908206,0.0015549076779776,-0.0015549073342446,0.001554908042881,-0.0015549086543992,0.001554906716498,-0.001200843456423,0.0012008397347887,-0.0012008406423568,0.0012008425882227,0.62977530467206,131329,3014,0.0037766719981795,0.0037766719983517,0.0054825292292426,41.749740306404,9.3997922451235e-05,9.3997922451235e-05,9.3997922451235e-05,5117527.8938191,0.013122262027146
9219200,0.80471219480724,0.013482611683604,0.0040358481320919,0.0040358481323429,0.0054109154191693,-0.00092063287538681,0.00092063300492454,-1.4872710765072e-09,1.6455055314355e-09,1.5879094269864e-09,-1.5010955875896e-09,-0.0011104817970063,0.0011104818873092,-0.0011104807395334,0.0011104829363097,-0.0011104827872973,0.0011104808579578,-0.0011104817485264,0.0011104819079655,-0.0010333131043301,0.0010333091821729,-0.0010333100185386,0.0010333122149141,-1.5899006086201e-09,1.4953164930634e-09,-1.8251959297024e-09,1.661160461965e-09,-0.00092063300805648,0.00092063287235483,-0.0011104829612642,0.0011104806719109,-0.0011104818433069,0.0011104818284563,-0.0011104819534513,0.0011104817070746,-0.001110480843478,0.0011104828522198,-0.0010333124045206,0.0010333098632493,-0.0010333090054801,0.0010333132606643,-0.0009055439130704,0.00090554192931441,-0.00090554090806912,0.00090554500133002,1.7076457076546e-09,-1.2733103259495e-09,-0.0013446469320802,0.0013446473287228,2.0362544275309e-09,-1.6319648504176e-09,-0.0015872175434833,0.0015872201379444,-0.0015872187815899,0.0015872188954826,-0.0015872185308891,0.0015872191546741,-0.0015872197757195,0.0015872179034946,-0.0012209687734433,0.0012209650594073,-0.0012209658693591,0.0012209680023113,0.6230058066247,131329,3014,0.0038308185789161,0.0038308185791216,0.0055845864703573,41.451650664268,9.1613205314144e-05,9.1613205314144e-05,9.1613205314144e-05,5128392.4143086,0.013335457136101
9419200,0.81967120774449,0.013683904738083,0.0040918244233043,0.0040918244235586,0.0055002558912199,-0.00093233459741425,0.000932334728712,-1.5323197069789e-09,1.6923027607829e-09,1.5658421668025e-09,-1.4767693555334e-09,-0.0011270953109023,0.0011270953568333,-0.0011270942228698,0.0011270964367268,-0.001127096286275,0.0011270943431547,-0.0011270952167217,0.0011270954236998,-0.0010468802954901,0.0010468763008126,-0.0010468771206625,0.0010468794240574,-1.5677299233627e-09,1.4710771144881e-09,-1.7286895920794e-09,1.5631638311743e-09,-0.00093233473175341,0.00093233459446694,-0.0011270964143745,0.0011270942033696,-0.0011270953604811,0.0011270952948012,-0.0011270954215312,0.0011270952230407,-0.0011270943757597,0.0011270963030851,-0.0010468794728528,0.0010468771055012,-0.001046876264346,0.001046880312153,-0.00091623352552713,0.00091623152116166,-0.00091623056590906,0.00091623454717444,1.7640919909653e-09,-1.3088036430648e-09,-0.0013669897164918,0.0013669901344603,1.9505908941989e-09,-1.5237983304776e-09,-0.0016166672602651,0.0016166698419008,-0.0016166684336488,0.0016166686640441,-0.0016166682784156,0.0016166688280201,-0.0016166694584904,0.0016166676414787,-0.0012391123586514,0.0012391086399313,-0.0012391093645225,0.0012391116728904,0.61620824505135,131329,3014,0.0038794864648396,0.0038794864650326,0.0056770612573568,41.150863938639,8.9206911509114e-05,8.9206911509114e-05,8.9206911509114e-05,5138994.6573326,0.01352787557531
9619200,0.83339076031756,0.013866314605453,0.0041424906966697,0.0041424906969233,0.0055813332118597,-0.00094284803820465,0.00094284817100641,-1.57750988595e-09,1.7389367338823e-09,1.5529430081277e-09,-1.4619724357456e-09,-0.0011421125518132,0.0011421125594155,-0.0011421114333153,0.001142113670187,-0.0011421135184383,0.0011421115551177,-0.001142112418108,0.0011421126662265,-0.0010591012255518,0.0010590971516322,-0.0010590979604512,0.0010591003643111,-1.5547895365966e-09,1.4562390363713e-09,-1.6454374554316e-09,1.4783133678636e-09,-0.0009428481740444,0.00094284803526656,-0.0011421136048329,0.0011421114574119,-0.0011421126063155,0.0011421124925577,-0.0011421126208114,0.0011421124677849,-0.0011421116304943,0.0011421134916253,-0.0010591002868206,0.0010590980731026,-0.0010590972419045,0.0010591011140041,-0.00092580966827224,0.00092580763380562,-0.00092580673567571,0.00092581063226041,1.8204476571619e-09,-1.3443541821967e-09,-0.0013872374785251,0.0013872379174023,1.87787128838e-09,-1.4288671142375e-09,-0.001643507667994,0.0016435102448321,-0.0016435087854067,0.0016435091228334,-0.0016435087168941,0.0016435092003126,-0.0016435098409418,0.0016435080697208,-0.001255467260344,0.0012554635287314,-0.0012554641760355,0.0012554666514661,0.60938041063934,131329,3014,0.0039232129958814,0.0039232129960866,0.0057608562214998,40.849982302494,8.6799858419955e-05,8.6799858419955e-05,8.6799858419955e-05,5148483.1350355,0.013701509967256
9819200,0.84573388551346,0.014031288091731,0.0041883881506235,0.0041883881508769,0.0056545117902308,-0.00095156031098122,0.00095156044627089,-1.6214489095841e-09,1.7856668527504e-09,1.5351961160478e-09,-1.4410651283907e-09,-0.0011548043057162,0.0011548042749203,-0.0011548031595401,0.0011548054132885,-0.0011548052624789,0.0011548032815196,-0.0011548041290366,0.0011548044254034,-0.0010694057459814,0.0010694015910908,-0.0010694023861266,0.001069404902186,-1.5248271594713e-09,1.4250554486482e-09,-1.5668769692677e-09,1.3999834716197e-09,-0.00095156044852078,0.00095156030880104,-0.0011548053032955,0.0011548032293989,-0.0011548043591412,0.0011548042090841,-0.0011548043417502,0.0011548042172363,-0.0011548034005469,0.0011548051909938,-0.0010694047032702,0.0010694026163506,-0.0010694018047085,0.0010694055122449,-0.00093370298191845,0.00093370094663087,-0.00093370010232614,0.00093370389247136,1.8765037540984e-09,-1.3812647829561e-09,-0.0014046391890126,0.001404639647809,1.7998602442403e-09,-1.3301121611042e-09,-0.0016668523120208,0.0016668548835446,-0.001666853373223,0.0016668538175171,-0.0016668533945735,0.0016668538054467,-0.0016668544574079,0.0016668527365265,-0.0012694049763227,0.0012694012387064,-0.0012694018087473,0.0012694044442427,0.6121371172566,131329,3014,0.0039594527409563,0.0039594527410972,0.0058328646649875,40.183059770781,8.1464478166251e-05,8.1464478166251e-05,8.1464478166251e-05,5146784.1640314,0.013848036990041
10019200,0.85683025822355,0.014180623228092,0.0042300217838787,0.0042300217841552,0.0057205796600578,-0.00095920202890246,0.00095920216527336,-1.6671551468488e-09,1.8324030782849e-09,1.5222713617137e-09,-1.4267135419395e-09,-0.0011659813421451,0.0011659812713899,-0.0011659801636152,0.0011659824420938,-0.0011659822890289,0.0011659802880306,-0.001165981126375,0.0011659814612287,-0.0010785351970753,0.0010785309678847,-0.0010785317520338,0.0010785343634166,-1.5195743195613e-09,1.4177361955019e-09,-1.5038072245258e-09,1.3347756758082e-09,-0.00095920216783549,0.0009592020264337,-0.0011659822981496,0.0011659802681469,-0.0011659813944592,0.0011659812066943,-0.0011659813393,0.0011659812526861,-0.0011659804417248,0.0011659821822893,-0.001078534055428,0.0010785320933182,-0.0010785312875891,0.0010785348568363,-0.00094065920881298,0.00094065714659243,-0.00094065634563569,0.00094066007424793,1.9311370198543e-09,-1.4177447853406e-09,-0.0014200492022764,0.0014200496791854,1.7515201189097e-09,-1.2626631899475e-09,-0.0016875557322474,0.0016875583117453,-0.0016875567531879,0.0016875572859922,-0.001687556843791,0.0016875572047225,-0.0016875578690812,0.0016875561730361,-0.0012817497782198,0.0012817460050538,-0.0012817465182194,0.0012817493043286,0.61574677695727,131329,3014,0.0039912408606023,0.0039912408607933,0.00589662486349,39.478795784909,7.5830366279274e-05,7.5830366279274e-05,7.5830366279274e-05,5140747.9345139,0.013977189185597
10219200,0.86681941947421,0.014316162532777,0.0042678942135582,0.0042678942138374,0.005780374105381,-0.00096596524909375,0.00096596538612055,-1.7127336566036e-09,1.8785856259398e-09,1.5252788176026e-09,-1.4289102337144e-09,-0.0011759009835722,0.0011759008846294,-0.0011758997745463,0.0011759020862492,-0.0011759019325066,0.0011758998996725,-0.0011759007392688,0.0011759011033967,-0.0010866660701181,0.0010866617500073,-0.0010866625352222,0.0010866652351213,-1.5229720236628e-09,1.4202145470951e-09,-1.4617089427248e-09,1.2917992167957e-09,-0.00096596538868643,0.00096596524662238,-0.001175901913051,0.0011758999085697,-0.0011759010372345,0.0011759008187953,-0.0011759009519283,0.001175900895094,-0.001175900082406,0.0011759017962599,-0.0010866648411096,0.0010866629632244,-0.0010866621561533,0.0010866656428955,-0.00094686406185985,0.00094686196498305,-0.00094686119291574,0.00094686489805001,1.9845681094536e-09,-1.4560756876519e-09,-0.0014337686075517,0.0014337690995632,1.7173561333313e-09,-1.2125694893933e-09,-0.001705995651627,0.0017059982485144,-0.0017059966444115,0.0017059972509167,-0.0017059967938071,0.0017059971109187,-0.0017059977909236,0.0017059961074378,-0.0012927717626842,0.001292767942535,-0.00129276841205,0.0012927713320118,0.62007023703756,131329,3014,0.0040193758987514,0.0040193758989448,0.005953384451434,38.773593778837,7.0188750230697e-05,7.0188750230697e-05,7.0188750230697e-05,5132292.1651424,0.014091845388961
10419200,0.87583963306857,0.014439701365243,0.0043024958234757,0.004302495823755,0.0058347097180125,-0.0009720308003529,0.00097203093726791,-1.7587319279468e-09,1.9243869761812e-09,1.5440318947678e-09,-1.4478001919921e-09,-0.0011847933528231,0.0011847932356002,-0.0011847921131375,0.001184794468171,-0.0011847943143591,0.0011847922382712,-0.001184793090611,0.0011847934724437,-0.0010940005168478,0.0010939960946204,-0.0010939968919738,0.0010939996683957,-1.5428954148287e-09,1.4401346775929e-09,-1.4446051698317e-09,1.2744334264792e-09,-0.00097203093987633,0.00097203079785417,-0.0011847942742842,0.0011847922679387,-0.0011847934096218,0.0011847931667323,-0.0011847932995176,0.0011847932678706,-0.0011847924415201,0.0011847941573266,-0.0010939992133648,0.0010939973826463,-0.0010939965621801,0.0010940000270609,-0.00095247964823397,0.0009524775013266,-0.00095247674065277,0.00095248047299272,2.0363477082106e-09,-1.495976542767e-09,-0.0014460846618303,0.0014460851656287,1.706891293525e-09,-1.1897096203348e-09,-0.0017225431525857,0.0017225457802388,-0.0017225441340711,0.0017225447938808,-0.0017225443251411,0.0017225446122432,-0.0017225453113537,0.0017225436197046,-0.0013027248997366,0.0013027210127088,-0.0013027214584859,0.0013027244923239,0.62506143654514,131329,3014,0.0040446096231568,0.0040446096233821,0.0060043332540393,38.098597295409,6.4788778363269e-05,6.4788778363269e-05,6.4788778363269e-05,5121772.3583379,0.014194732812633
10619200,0.88426278810841,0.014552887954908,0.0043341369573421,0.004334136957619,0.0058846140399466,-0.00097860015529587,0.00097860029026997,-1.8057950995228e-09,1.9696332755554e-09,1.6081937686666e-09,-1.5143382517412e-09,-0.0011940664030625,0.0011940662950722,-0.0011940651310427,0.0011940675601632,-0.0011940674065517,0.0011940652555886,-0.0011940661536518,0.001194066519119,-0.0011017469601702,0.0011017424064929,-0.0011017432496863,0.0011017460655933,-1.618190234943e-09,1.5184293525715e-09,-1.4832973319299e-09,1.3152901170511e-09,-0.00097860029259053,0.00097860015307457,-0.0011940673673876,0.0011940652843082,-0.0011940664745834,0.0011940662112554,-0.0011940663400131,0.00119406633711,-0.0011940654571644,0.0011940672516679,-0.0011017456014304,0.0011017437506677,-0.0011017428771383,0.0011017464681176,-0.00095862639366487,0.00095862412931067,-0.0009586233401034,0.00095862724809332,2.0848337413485e-09,-1.5387304698404e-09,-0.0014585464290104,0.0014585469383701,1.7541929457273e-09,-1.2314938198268e-09,-0.0017389793445703,0.0017389820359771,-0.0017389803540115,0.0017389810214142,-0.0017389805458259,0.0017389808391499,-0.0017389815635431,0.0017389798155782,-0.0013129444976586,0.0013129404922973,-0.0013129409615694,0.0013129440656229,0.61395113413342,131329,3014,0.0040719325693934,0.004071932569597,0.0060558827562322,38.029312582637,6.4234500661099e-05,6.4234500661099e-05,6.4234500661099e-05,5122972.7629476,0.014302478370054
10819200,0.89213013749543,0.014656757474044,0.0043631110782249,0.0043631110785079,0.0059305353173115,-0.00098465525328,0.00098465538524649,-1.8529707368983e-09,2.0138674644078e-09,1.6823766272842e-09,-1.5921251624927e-09,-0.00120265118453,0.0012026510947521,-0.0012026498832924,0.0012026523891631,-0.0012026522396911,0.001202650003743,-0.00120265095487,0.0012026512987309,-0.0011088534214452,0.0011088487207568,-0.0011088496173974,0.0011088524737382,-1.6830671382919e-09,1.5867222075198e-09,-1.5430445523078e-09,1.3779702129921e-09,-0.00098465538768796,0.00098465525093991,-0.0012026521986991,0.0012026500342431,-0.0012026512665505,0.001202651000483,-0.0012026511278481,0.0012026511304458,-0.0012026502032457,0.0012026520867231,-0.0011088520269149,0.0011088500999197,-0.0011088491789507,0.0011088529415805,-0.00096424802454456,0.0009642456691441,-0.00096424483599256,0.00096424892239073,2.1315428263592e-09,-1.5841177611721e-09,-0.0014700852493405,0.0014700857601412,1.8115398465835e-09,-1.2877754302269e-09,-0.001754248214296,0.0017542509773309,-0.0017542492631154,0.0017542499234955,-0.0017542494474143,0.0017542497484531,-0.0017542505019774,0.0017542486879841,-0.0013223432716547,0.0013223391428469,-0.0013223396489627,0.0013223428031682,0.60386754813745,131329,3014,0.004097116723531,0.0040971167237385,0.0061036115451618,37.973568569867,6.3788548558938e-05,6.3788548558938e-05,6.3788548558938e-05,5126682.4627852,0.014402018132362
11019200,0.89947491979497,0.014751895819578,0.0043895884199623,0.0043895884202427,0.0059727189793729,-0.00099020447471744,0.00099020460390181,-1.9001995742368e-09,2.0583852843307e-09,1.7463220555011e-09,-1.659460285745e-09,-0.0012105590711458,0.0012105589917365,-0.0012105577393198,0.0012105603167793,-0.0012105601698743,0.0012105578569076,-0.0012105588544383,0.0012105591825598,-0.0011153406759258,0.0011153358391209,-0.0011153367823246,0.0011153396818651,-1.7468323644147e-09,1.65400613795e-09,-1.6095230200028e-09,1.4473170425547e-09,-0.00099020460628574,0.00099020447243562,-0.0012105601333271,0.0012105578828917,-0.0012105591561914,0.0012105588943178,-0.0012105590189007,0.0012105590228713,-0.0012105580493093,0.0012105600243976,-0.0011153392563574,0.0011153372431786,-0.0011153362759128,0.0011153402180136,-0.00096935623262984,0.00096935379671395,-0.0009693529155371,0.00096935717901126,2.176819671418e-09,-1.6305786325303e-09,-0.0014807300677608,0.0014807305774079,1.8780048962689e-09,-1.3559122576642e-09,-0.0017684017611669,0.0017684045986313,-0.0017684028549324,0.0017684034998365,-0.0017684030247067,0.0017684033391732,-0.0017684041244222,0.0017684022336737,-0.001330943819407,0.0013309395548021,-0.0013309401072162,0.0013309433049395,0.59320720749339,131329,3014,0.0041201967681818,0.0041201967683909,0.0061476405508256,37.918295646843,6.3346365174742e-05,6.3346365174742e-05,6.3346365174742e-05,5132037.5186687,0.014493542760646
11219200,0.90631956763759,0.014840495425982,0.0044142620745371,0.0044142620748166,0.0060119712766285,-0.00099530396303621,0.00099530408983071,-1.9472313364487e-09,2.1031292719326e-09,1.7959831961815e-09,-1.7119955110358e-09,-0.0012178201385988,0.0012178200601626,-0.001217818776075,0.0012178214159362,-0.0012178212712119,0.0012178188912911,-0.0012178199251432,0.0012178202475363,-0.0011213278239508,0.0011213228611359,-0.0011213238410449,0.0011213267938682,-1.7965683188692e-09,1.7068486508773e-09,-1.6818692977699e-09,1.5222888615279e-09,-0.00099530409211848,0.00099530396084323,-0.0012178212413786,0.0012178189103763,-0.001217820215525,0.0012178199708357,-0.0012178200928707,0.0012178200846257,-0.0012178190747094,0.0012178211351335,-0.0011213263947393,0.0011213242745208,-0.0011213232709032,0.0011213273940356,-0.00097404116848018,0.00097403868369695,-0.00097403775089451,0.00097404216683346,2.2208549977572e-09,-1.6782217227725e-09,-0.0014905568155667,0.001490557321674,1.9489970408312e-09,-1.4311379650411e-09,-0.0017814797692908,0.0017814826828287,-0.0017814809118918,0.0017814815352635,-0.001781481063265,0.0017814813928223,-0.0017814822119328,0.0017814802384839,-0.0013388703903123,0.0013388659832695,-0.0013388665883597,0.0013388698233915,0.59263237286969,131329,3014,0.0041414056516038,0.0041414056517975,0.006188284765466,37.837456664268,6.2699653314145e-05,6.2699653314145e-05,6.2699653314145e-05,5137104.5791723,0.014577841654536
11419200,0.91265383921338,0.014923066998409,0.0044372962980815,0.0044372962983606,0.0060484744019666,-0.00099979699128822,0.00099979711671634,-1.994008040776e-09,2.1485436542309e-09,1.8180655461397e-09,-1.7357268294133e-09,-0.0012242822081688,0.0012242821124666,-0.0012242808142991,0.0012242834995879,-0.001224283355498,0.0012242809287693,-0.0012242819792604,0.0012242823151772,-0.001126670359833,0.0011266652920086,-0.0011266662885505,0.0011266693132545,-1.8238745762596e-09,1.7359446288314e-09,-1.7516854329247e-09,1.5935624764984e-09,-0.00099979711893614,0.00099979698916516,-0.0012242833344971,0.0012242809388622,-0.0012242822613784,0.0012242820469336,-0.0012242821667782,0.0012242821323822,-0.001224281102553,0.0012242832293434,-0.0011266689357433,0.0011266666998014,-0.0011266656762819,0.0011266699558599,-0.00097817192305518,0.00097816943322671,-0.00097816845198881,0.00097817297005735,2.2640255093395e-09,-1.7262838280964e-09,-0.0014993922074487,0.00149939270866,2.0171610595554e-09,-1.5048796949289e-09,-0.0017933002545545,0.0017933032405362,-0.0017933014440043,0.001793302046171,-0.0017933015782902,0.0017933019206722,-0.0017933027749754,0.0017933007183658,-0.0013459742045322,0.0013459696540511,-0.0013459703114124,0.0013459735853849,0.59626239157103,131329,3014,0.0041600937826125,0.0041600937828102,0.0062248264617799,37.630199142663,6.1041593141301e-05,6.1041593141301e-05,6.1041593141301e-05,5137949.0674478,0.014652867019785
11619200,0.91851606443924,0.014999860425346,0.0044587490672073,0.0044587490674853,0.0060823622906532,-0.001003928280944,0.0010039284054519,-2.0400528245807e-09,2.1937512051124e-09,1.8344539316622e-09,-1.7532143966507e-09,-0.0012302273289335,0.0012302272135188,-0.0012302259051675,0.0012302286304871,-0.0012302284879251,0.0012302260181238,-0.0012302270805785,0.0012302274356006,-0.0011316148039534,0.0011316096325506,-0.0011316106416449,0.0011316137454844,-1.8353246525866e-09,1.7485272663816e-09,-1.8221343123747e-09,1.6649764403724e-09,-0.0010039284076415,0.0010039282788461,-0.0012302284721507,0.0012302260228052,-0.0012302273527286,0.0012302271774677,-0.001230227296875,0.0012302272239081,-0.0012302261851624,0.001230228368716,-0.0011316133939781,0.001131611026057,-0.0011316099942495,0.0011316144237602,-0.00098199401155373,0.00098199154434879,-0.00098199051514094,0.00098199510698895,2.3069891366537e-09,-1.7754568422475e-09,-0.0015075285678711,0.0015075290628835,2.0830579147753e-09,-1.5777156009596e-09,-0.0018041877051361,0.001804190762704,-0.001804188941537,0.0018041895214207,-0.0018041890600981,0.0018041894114939,-0.001804190302603,0.0018041881635452,-0.001352533456479,0.0013525287647883,-0.0013525294748397,0.0013525327845675,0.59873360135773,131329,3014,0.0041772778786218,0.0041772778788089,0.0062584750573733,37.420110790741,5.9360886325931e-05,5.9360886325931e-05,5.9360886325931e-05,5136720.4229319,0.014721908243039
11819200,0.92394274362321,0.015071424074088,0.0044787743415838,0.0044787743418616,0.0061138753906426,-0.0010077370839018,0.0010077372080844,-2.0861195267157e-09,2.2394874534897e-09,1.8375749582582e-09,-1.7567336704922e-09,-0.0012357067396692,0.0012357065954168,-0.0012357052851508,0.0012357080431173,-0.0012357079007042,0.001235705397882,-0.0012357064628449,0.0012357068459217,-0.0011361974659173,0.0011361922024337,-0.0011361932136849,0.001136196404425,-1.8387172235323e-09,1.7522721809127e-09,-1.8894064652654e-09,1.732392231281e-09,-0.0010077372102984,0.0010077370817848,-0.0012357078917604,0.0012357053955732,-0.001235706727776,0.0012357065952305,-0.0012357067139915,0.0012357065991331,-0.0012357055579425,0.0012357077887534,-0.0011361960742936,0.001136193577218,-0.0011361925431242,0.0011361971064526,-0.00098554178740555,0.00098553935856809,-0.00098553828429715,0.00098554292792431,2.349474080062e-09,-1.8245301347391e-09,-0.0015150335783269,0.0015150340665825,2.1461768578584e-09,-1.6482076472407e-09,-0.0018142268513855,0.0018142299771862,-0.001814228132299,0.0018142286914275,-0.0018142282367099,0.0018142285955573,-0.0018142295239709,0.001814227302904,-0.0013586083603251,0.0013586035277976,-0.0013586042887321,0.0013586076374908,0.6021809329284,131329,3014,0.0041931210500577,0.0041931210502561,0.0062895107735853,37.209923930924,5.7679391447393e-05,5.7679391447393e-05,5.7679391447393e-05,5133937.6327094,0.014785579502398
12019200,0.92897509883746,0.015139870528206,0.0044980278089662,0.0044980278092435,0.0061438149099958,-0.0010113782329223,0.001011378357336,-2.1318963997637e-09,2.285482625604e-09,1.8299175422458e-09,-1.7488123972758e-09,-0.0012408680188529,0.0012408678390076,-0.001240866533654,0.0012408693173595,-0.0012408691746724,0.0012408666466935,-0.0012408677062204,0.0012408681253307,-0.0011406308101295,0.0011406254623107,-0.0011406264679319,0.0011406297537712,-1.8315619254166e-09,1.744809122768e-09,-1.9512252024384e-09,1.7938447247216e-09,-0.0010113783595538,0.0010113782308056,-0.0012408691711802,0.0012408666387574,-0.0012408679664604,0.0012408678795236,-0.0012408679982124,0.0012408678374267,-0.0012408668015262,0.0012408690681145,-0.0011406294391293,0.0011406268160956,-0.0011406257876167,0.0011406304661262,-0.0009890072626418,0.00098900488895759,-0.00098900377406174,0.00098900844388444,2.3918036244528e-09,-1.8737803166505e-09,-0.0015221052926151,0.001522105773805,2.20347906508e-09,-1.7131859470512e-09,-0.0018236135772139,0.0018236167672836,-0.0018236148989368,0.001823615440757,-0.0018236149930061,0.0018236153551408,-0.0018236163211435,0.0018236140216809,-0.0013644240365371,0.001364419066604,-0.0013644198750269,0.00136442326603,0.61929851333489,131329,3014,0.0042082662546185,0.0042082662548254,0.0063187531279873,37.02761047137,5.622088377096e-05,5.622088377096e-05,5.622088377096e-05,5128876.4934767,0.014846016116931
12219200,0.93365986556078,0.015205691297786,0.0045166350625811,0.0045166350628576,0.0061724211723469,-0.0010149559737363,0.0010149560988317,-2.1775351036797e-09,2.3318029231096e-09,1.8146682972468e-09,-1.7327575500345e-09,-0.0012458676822136,0.0012458674617885,-0.0012458661661196,0.0012458689710107,-0.0012458688274807,0.001245866280082,-0.0012458673285469,0.0012458677892167,-0.0011450287154217,0.0011450232893115,-0.0011450242837569,0.0011450276700977,-1.8194165164296e-09,1.7319640423105e-09,-2.0063113987303e-09,1.8483025059543e-09,-0.0010149561009951,0.0010149559716738,-0.0012458688285483,0.0012458662674177,-0.0012458675875038,0.0012458675448873,-0.0012458676636721,0.0012458674578638,-0.0012458664310709,0.0012458687248804,-0.00114502736289,0.0011450246242155,-0.0011450236051117,0.001145028381224,-0.00099250119841254,0.00099249888557087,-0.00099249773486307,0.00099250241530147,2.4340493521102e-09,-1.9229436730378e-09,-0.0015289014269489,0.0015289019011429,2.2543157500836e-09,-1.771644451684e-09,-0.0018325446460419,0.0018325478959652,-0.0018325460040634,0.0018325465331591,-0.0018325460920745,0.0018325464535355,-0.001832547456913,0.0018325450834183,-0.0013701306714504,0.0013701255680088,-0.0013701264197171,0.0013701298575135,0.63789982058034,131329,3014,0.0042231480397862,0.0042231480399926,0.0063468530851759,36.914073368906,5.5312586951245e-05,5.5312586951245e-05,5.5312586951245e-05,5120627.9759603,0.014904761962233
12419200,0.93802147348712,0.015264951401277,0.0045333105119347,0.0045333105122102,0.0061983303771318,-0.0010181799093944,0.0010181800354227,-2.2228319081287e-09,2.3780450487679e-09,1.7967713712797e-09,-1.713740369114e-09,-0.0012504920805805,0.0012504918183177,-0.0012504905340844,0.0012504933578997,-0.0012504932137156,0.0012504906488485,-0.0012504916840467,0.001250492188728,-0.0011489573512379,0.0011489518482174,-0.0011489528295443,0.0011489563192759,-1.7985456799026e-09,1.7100261370444e-09,-2.0528683827883e-09,1.8940131453536e-09,-0.0010181800375756,0.0010181799073397,-0.001250493214561,0.0012504906362638,-0.0012504919432831,0.0012504919442663,-0.0012504920639428,0.0012504918123012,-0.0012504908007753,0.0012504931102387,-0.0011489560130509,0.0011489531683753,-0.0011489521647582,0.0011489570167754,-0.00099562183917521,0.00099561959754165,-0.00099561841702344,0.00099562308564154,2.4767513284176e-09,-1.9720370235638e-09,-0.0015351240430618,0.0015351245108326,2.2961739539619e-09,-1.8204802736655e-09,-0.0018407995363836,0.0018408028410229,-0.0018408009248405,0.0018408014477527,-0.001840801013165,0.0018408013678007,-0.0018408024081098,0.0018407999676161,-0.0013753091517418,0.0013753039221896,-0.00137530481061,0.0013753083011158,0.61826607427654,131329,3014,0.0042365615801776,0.0042365615803783,0.0063725777380672,36.802079140218,5.4416633121744e-05,5.4416633121744e-05,5.4416633121744e-05,5111335.2181238,0.014958121365112
12619200,0.94208237622875,0.015317156560932,0.0045478916588707,0.0045478916591455,0.0062213732429159,-0.0010210399314437,0.0010210400586915,-2.2680817039549e-09,2.4245137658275e-09,1.7737267432773e-09,-1.6892377326233e-09,-0.0012546667403924,0.0012546664329001,-0.0012546651632855,0.001254668003064,-0.0012546678577923,0.0012546652793119,-0.0012546662975016,0.0012546668498258,-0.0011523695931094,0.0011523640173626,-0.0011523649817266,0.0011523685783346,-1.7752027512003e-09,1.6852793614992e-09,-2.0876721333196e-09,1.9276687819328e-09,-0.0010210400608226,0.0010210399294083,-0.0012546678556798,0.0012546652695577,-0.0012546665618991,0.001254666600335,-0.0012546667209648,0.0012546664295071,-0.0012546654352793,0.0012546677502692,-0.0011523682604894,0.0011523653316163,-0.0011523643455293,0.0011523692474783,-0.00099830229279103,0.00099830011980103,-0.00099829891767557,0.00099830356056951,2.5197184550367e-09,-2.0206621111595e-09,-0.0015407375506184,0.0015407380127111,2.3269248611604e-09,-1.8573769878197e-09,-0.0018483295448993,0.0018483328970824,-0.0018483309559477,0.0018483314812214,-0.0018483310522062,0.0018483313933158,-0.0018483324697263,0.0018483299705771,-0.0013798631545757,0.0013798578071286,-0.001379858723835,0.0013798622757075,0.58731203140783,131329,3014,0.0042484610312015,0.0042484610313973,0.006395784312636,36.690138589323,5.3521108714584e-05,5.3521108714584e-05,5.3521108714584e-05,5107621.0719991,0.015005851851553
12819200,0.94582923265338,0.015365711768983,0.0045614854589286,0.0045614854592029,0.0062427408508511,-0.0010233805311433,0.0010233806598734,-2.3127207612624e-09,2.4706108367113e-09,1.7457479313049e-09,-1.6594632627129e-09,-0.0012581319376116,0.0012581315826633,-0.0012581303308986,0.0012581331823175,-0.0012581330365231,0.0012581304478301,-0.0012581314451146,0.001258132049271,-0.0011552059376032,0.001155200291656,-0.0011552012352039,0.0011552049437294,-1.7375696654134e-09,1.6456010838088e-09,-2.1023007815545e-09,1.9406726009589e-09,-0.0010233806621349,0.0010233805289769,-0.0012581330215474,0.0012581304508951,-0.0012581317194659,0.0012581317900324,-0.0012581319129398,0.0012581315843807,-0.001258130617461,0.0012581329149641,-0.0011552045978365,0.0011552016124907,-0.0011552006539103,0.0011552055578085,-0.0010004561662537,0.0010004540745221,-0.0010004528646957,0.0010004574409832,2.5638305762064e-09,-2.0690771002325e-09,-0.0015455527896043,0.0015455532474421,2.3377040530988e-09,-1.8727183491811e-09,-0.0018548678494729,0.0018548712378373,-0.0018548692700482,0.0018548698125528,-0.0018548693883458,0.0018548697024754,-0.0018548708138078,0.0018548682716843,-0.0013836962516065,0.0013836908027491,-0.0013836917327425,0.0013836953599367,0.59134554489877,131329,3014,0.0042581988920614,0.0042581988922558,0.0064156924048748,36.406394515355,5.125115612284e-05,5.125115612284e-05,5.125115612284e-05,5105265.0269774,0.01504584304585
13019200,0.94924299111192,0.015410104905009,0.0045739301259541,0.004573930126227,0.0062622446528275,-0.001025029678141,0.0010250298090503,-2.3574854482613e-09,2.5176050531879e-09,1.7046514264808e-09,-1.6157301561999e-09,-0.0012607811953536,0.001260780783579,-0.0012607795580285,0.001260782413979,-0.0012607822661744,0.0012607796770772,-0.0012607806442678,0.001260781309218,-0.001157290512294,0.0011572848071384,-0.0011572857207414,0.0011572895491808,-1.6966648954865e-09,1.6022751322674e-09,-2.0951251391882e-09,1.9315815735377e-09,-0.0010250298112437,0.0010250296760372,-0.0012607822352837,0.001260779696038,-0.0012607809386814,0.0012607810298364,-0.0012607811545968,0.0012607808014004,-0.001260779864719,0.0012607821266069,-0.0011572891500742,0.0011572861507677,-0.001157285222481,0.0011572900804824,-0.0010019330183949,0.0010019310019239,-0.0010019297994593,0.0010019342853295,2.6087134418303e-09,-2.1157221501994e-09,-0.0015493980846687,0.0015493985407858,2.3286336176649e-09,-1.8654439221157e-09,-0.0018602655970173,0.0018602690086932,-0.0018602670120432,0.0018602675888747,-0.0018602671663397,0.0018602674429409,-0.001860268586378,0.0018602660175426,-0.0013866677614157,0.0013866622264899,-0.0013866631531897,0.0013866668734258,0.59302697602249,131329,3014,0.004265064407569,0.0042650644077515,0.0064315886926446,35.873248444463,4.69859875557e-05,4.69859875557e-05,4.69859875557e-05,5097185.3276808,0.015075930552518
13219200,0.95235690527939,0.015450772894155,0.0045853495650568,0.0045853495653299,0.006280073763768,-0.0010264490037925,0.0010264491367107,-2.402696510565e-09,2.5647488295661e-09,1.6674325641974e-09,-1.5761418935941e-09,-0.0012631016414968,0.0012631011751555,-0.0012630999729047,0.0012631028368747,-0.0012631026866143,0.0012631000945754,-0.0012631010344304,0.0012631017569995,-0.0011591108510245,0.0011591050846855,-0.0011591059705371,0.0011591099152939,-1.6664289817028e-09,1.56973975864e-09,-2.0792780394694e-09,1.9137858905008e-09,-0.0010264491388281,0.0010264490017678,-0.0012631026391634,0.0012631001300519,-0.0012631013533336,0.0012631014531311,-0.0012631015789725,0.0012631012147328,-0.0012631003008821,0.0012631025282099,-0.0011591094521811,0.0011591064646288,-0.0011591055592531,0.0011591103595926,-0.0010032035896792,0.0010032016231917,-0.0010032004340191,0.0010032048431236,2.6538857530237e-09,-2.1614660831066e-09,-0.0015527985088835,0.0015527989643738,2.3117396194121e-09,-1.8491018762364e-09,-0.001865069526448,0.0018650729562113,-0.0018650709298919,0.0018650715479858,-0.0018650711256528,0.0018650713606838,-0.0018650725350717,0.0018650699458894,-0.0013892890962355,0.0013892834813515,-0.0013892843971101,0.0013892882186748,0.59512404545779,131329,3014,0.0042709741292975,0.0042709741294867,0.0064456454009229,35.33449064567,4.2675925165362e-05,4.2675925165362e-05,4.2675925165362e-05,5088194.0622488,0.015102209909363
13419200,0.95520147877557,0.015487326852874,0.0045955991234813,0.004595599123754,0.0062961286056387,-0.0010276386259271,0.0010276387605126,-2.4477308872075e-09,2.6114311874521e-09,1.6397137743697e-09,-1.5464270132457e-09,-0.0012651217218734,0.0012651212075193,-0.0012651200227402,0.001265122899815,-0.0012651227480755,0.0012651201460993,-0.0012651210652604,0.0012651218391312,-0.0011606449536202,0.0011606391182022,-0.0011606399834154,0.0011606440388037,-1.6385920764385e-09,1.5398515795398e-09,-2.0592687548827e-09,1.8920886382846e-09,-0.0010276387626444,0.0010276386238846,-0.0012651226799027,0.0012651202023134,-0.00126512140801,0.0012651215114143,-0.0012651216388128,0.0012651212676384,-0.0012651203746111,0.0012651225672118,-0.0011606435102744,0.0011606405425752,-0.0011606396582273,0.0011606443969416,-0.0010042478401468,0.0010042459145743,-0.0010042447410225,0.0010042490776513,2.6997277324651e-09,-2.2071631542689e-09,-0.0015557729071075,0.0015557733628066,2.2909970895821e-09,-1.8281024433723e-09,-0.001869329450277,0.0018693328969482,-0.0018693308398382,0.0018693315026074,-0.001869331080049,0.0018693312708405,-0.0018693324754889,0.0018693298700386,-0.0013915477770807,0.0013915420865531,-0.0013915429881981,0.0013915469135088,0.5860828848338,131329,3014,0.0042759290019056,0.0042759290020877,0.0064579402143858,34.795537700262,3.8364301602095e-05,3.8364301602095e-05,3.8364301602095e-05,5078928.8164192,0.015124762169285
13619200,0.957817705893,0.01552051494266,0.004604897713447,0.0046048977137192,0.006310719515494,-0.0010288154218037,0.001028815556703,-2.4946556552174e-09,2.6581866462226e-09,1.6205559757156e-09,-1.5270046448798e-09,-0.001267049416206,0.0012670488580694,-0.0012670476849309,0.0012670505820578,-0.0012670504292875,0.0012670478098987,-0.0012670487156104,0.0012670495327782,-0.0011621268161877,0.001162120904827,-0.001162121755242,0.0011621259135301,-1.6353247725063e-09,1.53507478678e-09,-2.0371025687958e-09,1.8681719250416e-09,-0.001028815559289,0.0010288154193429,-0.0012670503442324,0.0012670478834503,-0.0012670490866973,0.0012670491775788,-0.0012670493049059,0.001267048946002,-0.0012670480564019,0.0012670502288284,-0.0011621253130529,0.0011621223883617,-0.0011621215077643,0.001162126194,-0.0010052811291984,0.0010052791970949,-0.0010052780398078,0.0010052823493428,2.7445615902332e-09,-2.2518740240296e-09,-0.0015585834825655,0.0015585839383057,2.267993989664e-09,-1.8048342384353e-09,-0.0018733152039428,0.0018733186644633,-0.0018733165775223,0.0018733172864491,-0.0018733168626368,0.0018733170087943,-0.0018733182431737,0.0018733156222554,-0.0013936887291493,0.0013936829650992,-0.0013936838503121,0.001393687882557,0.57889844052866,131329,3014,0.0042808283683192,0.004280828368578,0.0064695589643128,34.355012387851,3.4840099102808e-05,3.4840099102808e-05,3.4840099102808e-05,5073144.8538367,0.015146514437497
13819200,0.96023832298826,0.015551207554088,0.0046135051644566,0.0046135051647223,0.0063241972249091,-0.0010300071283961,0.0010300072639254,-2.538799207721e-09,2.7032745592296e-09,1.6358036980552e-09,-1.541564148744e-09,-0.0012689201359833,0.0012689195588521,-0.0012689183762056,0.0012689213119148,-0.0012689211594742,0.0012689185002446,-0.0012689194152648,0.00126892025456,-0.0011636048953259,0.0011635988835994,-0.0011635997445999,0.0011636039837942,-1.6308802462279e-09,1.5305094546099e-09,-2.0121286554808e-09,1.8433062944325e-09,-0.0010300072662894,0.0010300071261302,-0.0012689210445439,0.0012689186034161,-0.0012689198048975,0.0012689198801297,-0.0012689200089957,0.0012689196628067,-0.0012689187763713,0.0012689209306034,-0.0011636033212008,0.0011636004387894,-0.0011635995616417,0.0011636041998137,-0.0010063404528718,0.0010063385095872,-0.0010063373694436,0.0010063416567611,2.7924146133562e-09,-2.2980952316505e-09,-0.001561283845777,0.0015612843031916,2.2442059926651e-09,-1.7792266962575e-09,-0.0018770916063833,0.0018770950842983,-0.001877092964424,0.0018770937216016,-0.0018770932976149,0.001877093396518,-0.0018770946607542,0.0018770920278554,-0.0013957675970437,0.0013957617614078,-0.0013957626290078,0.0013957667673992,0.57842148661898,131329,3014,0.0042857877333911,0.0042857877335919,0.0064807231692738,34.00293170786,3.2023453662884e-05,3.2023453662884e-05,3.2023453662884e-05,5070051.0453808,0.015167926253708
14019200,0.96248023759731,0.015579633518257,0.0046214829206905,0.0046214829209553,0.0063366676766115,-0.0010310723791268,0.0010310725145019,-2.5850979762078e-09,2.749487314344e-09,1.6460436599961e-09,-1.5519649576535e-09,-0.0012706076140956,0.0012706070124206,-0.0012706058229933,0.001270608796875,-0.0012706086441503,0.0012706059473283,-0.0012706068695585,0.001270607732078,-0.0011649358249478,0.0011649297172203,-0.0011649305853925,0.0011649349065539,-1.6467811972093e-09,1.5470985261321e-09,-1.9845028015038e-09,1.8162794626807e-09,-0.0010310725166729,0.0010310723770489,-0.0012706085066575,0.0012706060730134,-0.0012706072847154,0.0012706073319639,-0.0012706074599736,0.0012706071436904,-0.001270606246022,0.0012706083927883,-0.0011649341695278,0.0011649313537564,-0.0011649304651191,0.0011649350597739,-0.0010072852605366,0.0010072832691059,-0.0010072821465161,0.0010072864468993,2.8387021495979e-09,-2.3425506703321e-09,-0.0015637322142059,0.0015637326734548,2.2178761587881e-09,-1.7508317377334e-09,-0.0018805312876787,0.0018805347788337,-0.001880532626895,0.0018805334348808,-0.0018805330086367,0.0018805330614077,-0.0018805343540729,0.0018805317105791,-0.001397644967836,0.0013976390620671,-0.0013976399095589,0.0013976441580934,0.57820997688382,131329,3014,0.0042902211060823,0.0042902211062724,0.006490845496158,33.652847886848,2.9222783094787e-05,2.9222783094787e-05,2.9222783094787e-05,5066650.0048479,0.015187212157873
14219200,0.96455852573949,0.015605020964536,0.0046285729774582,0.0046285729777229,0.0063478750093544,-0.0010319753253125,0.0010319754602738,-2.6311253536912e-09,2.7951243732808e-09,1.6622866486075e-09,-1.568732286129e-09,-0.0012720966906131,0.0012720960690357,-0.0012720948690096,0.0012720978840481,-0.0012720977317458,0.0012720949928747,-0.0012720959265256,0.0012720968082431,-0.0011660554944751,0.0011660492854472,-0.0011660501650001,0.0011660545645827,-1.6627160841634e-09,1.5636355295998e-09,-1.9562523686528e-09,1.7884717032788e-09,-0.0010319754624233,0.0010319753232562,-0.0012720975690934,0.0012720951437855,-0.0012720963658164,0.0012720963839538,-0.0012720965116506,0.0012720962252245,-0.0012720953162891,0.0012720974556479,-0.0011660537554856,0.0011660510056607,-0.0011660501056554,0.0011660546568176,-0.0010080557750291,0.0010080537334943,-0.0010080526290231,0.0010080569433095,2.8855204089204e-09,-2.3873099526726e-09,-0.0015658990655705,0.0015658995268609,2.191079431998e-09,-1.7217256229346e-09,-0.0018836271610368,0.0018836306661322,-0.0018836284816714,0.0018836293407677,-0.0018836289125855,0.0018836289181125,-0.001883630239305,0.0018836275860012,-0.0013992620139827,0.0013992560393443,-0.0013992568660634,0.0013992612249629,0.55856306709108,131329,3014,0.0042939799142886,0.0042939799144789,0.006499803721158,33.302833473576,2.6422667788608e-05,2.6422667788608e-05,2.6422667788608e-05,5063503.5324319,0.015203946760739
14419200,0.96645476767914,0.015628435228406,0.00463512943326,0.0046351294335248,0.0063581763616208,-0.0010322254241332,0.0010322255591982,-2.6759790045606e-09,2.8403133970225e-09,1.6738710539177e-09,-1.5801716586052e-09,-0.001272804537699,0.0012728038941378,-0.0012728026866757,0.0012728057385065,-0.0012728055870086,0.0012728028099703,-0.0012728037510028,0.0012728046560656,-0.0011664758986901,0.0011664695921359,-0.0011664704799548,0.0011664749622778,-1.6626749136378e-09,1.5639325930872e-09,-1.9178375086375e-09,1.7507498355296e-09,-0.0010322255612085,0.0010322254222039,-0.0012728053924874,0.0012728029927509,-0.00127280421508,0.0012728042067705,-0.0012728043353838,0.0012728040739157,-0.001272803164559,0.0012728052796035,-0.0011664740739832,0.0011664713980381,-0.0011664704971481,0.0011664749772419,-0.0010081583945967,0.0010081563258902,-0.0010081552462451,0.0010081595377685,2.9335457488381e-09,-2.4325463677312e-09,-0.0015672074686312,0.0015672079329611,2.1552590887554e-09,-1.6826921157344e-09,-0.0018857486200908,0.0018857521350553,-0.0018857499163952,0.0018857508339828,-0.0018857504033613,0.001885750355318,-0.0018857517044571,0.0018857490489356,-0.0014000696359484,0.0014000635991489,-0.0014000643991074,0.0014000688743594,0.56383119115566,131329,3014,0.0042950254896613,0.0042950254898253,0.0065052136879904,32.646707728388,2.1173661827106e-05,2.1173661827106e-05,2.1173661827106e-05,5056698.659427,0.015211566773996
14619200,0.96817174277557,0.015649753092035,0.0046411099923818,0.0046411099926475,0.0063675331070059,-0.0010320591417158,0.0010320592768625,-2.720498846863e-09,2.8851276638597e-09,1.6842851564211e-09,-1.5904365194619e-09,-0.0012730337579146,0.00127303309191,-0.0012730318779974,0.0012730349655574,-0.0012730348146811,0.001273032000329,-0.0012730329482236,0.0012730338773946,-0.0011664526428017,0.0011664462393152,-0.00116644713519,0.0011664517004042,-1.6561877369348e-09,1.557245223799e-09,-1.8766166129498e-09,1.7096387543506e-09,-0.0010320592789453,0.0010320591396852,-0.0012730345855367,0.0012730322176417,-0.0012730334363801,0.0012730334035794,-0.0012730335335398,0.0012730332940744,-0.0012730323894684,0.0012730344734244,-0.0011664507327961,0.0011664481308633,-0.0011664472344221,0.0011664516329477,-0.001007854370981,0.0010078522851504,-0.0010078512328771,0.001007855486599,2.9824327319037e-09,-2.4776409967683e-09,-0.0015679360488399,0.0015679365171435,2.1172282084845e-09,-1.6404820453408e-09,-0.0018872007056124,0.0018872042299565,-0.0018872019758938,0.0018872029548109,-0.0018872025211274,0.0018872024184309,-0.0018872037946136,0.0018872011397389,-0.0014003631947076,0.001400357098386,-0.0014003578689393,0.0014003624634642,0.56645234515836,131329,3014,0.0042943420906538,0.0042943420907567,0.0065082252839176,31.822053367925,1.4576426943403e-05,1.4576426943403e-05,1.4576426943403e-05,5044804.4415504,0.015213240867423
14819200,0.96972918284439,0.015669217677808,0.0046465828015249,0.0046465828017936,0.0063760520744896,-0.0010317794543685,0.0010317795894617,-2.7685092964708e-09,2.9327406624329e-09,1.6757446607979e-09,-1.5820657169195e-09,-0.0012731031705036,0.0012731024663142,-0.0012731012570475,0.0012731043732957,-0.0012731042207886,0.0012731013812464,-0.0012731023239388,0.001273103288124,-0.0011663021086329,0.0011662956221588,-0.0011662965109089,0.0011663011703629,-1.6754582238183e-09,1.5764779604691e-09,-1.8406270661594e-09,1.6730089682249e-09,-0.0010317795915439,0.0010317794523789,-0.0012731039737108,0.0012731016167532,-0.0012731028468685,0.0012731027799279,-0.0012731029077735,0.001273102706667,-0.0012731017892054,0.0012731038597751,-0.0011663001133357,0.0011662975991302,-0.0011662966900708,0.0011663010234146,-0.0010074536603682,0.0010074515175452,-0.0010074504897007,0.0010074547517505,3.0280963334415e-09,-2.5195786158969e-09,-0.0015684386150594,0.0015684390868449,2.0817682859373e-09,-1.6009681227287e-09,-0.001888346627774,0.0018883501580293,-0.0018883478715999,0.001888348909616,-0.0018883484708542,0.0018883483186382,-0.0018883497208957,0.0018883470631528,-0.0014004843727341,0.0014004782154557,-0.0014004789555062,0.0014004836707917,0.56961686198252,131329,3014,0.0042931873809787,0.0042931873811676,0.0065103020901421,30.993566840348,7.948534722787e-06,7.948534722787e-06,7.948534722787e-06,5031823.9586039,0.015213008638852
15019200,0.97112291850377,0.015686571739809,0.0046514653240113,0.0046514653242799,0.0063836410915183,-0.0010308942413017,0.0010308943749579,-2.8212737829049e-09,2.9828741730651e-09,1.6309739302777e-09,-1.5390288870475e-09,-0.0012725067105264,0.0012725059418698,-0.0012725047606505,0.0012725078840361,-0.0012725077314405,0.0012725048864406,-0.0012725058013431,0.0012725068232047,-0.0011654983110233,0.0011654917600684,-0.0011654926195309,0.0011654974038445,-1.7114188537299e-09,1.6130917115378e-09,-1.8033804996373e-09,1.6363797991307e-09,-0.001030894377581,0.001030894238789,-0.00127250748236,0.0012725051259486,-0.0012725063774945,0.0012725062654046,-0.0012725063900394,0.0012725062385384,-0.0012725052968254,0.0012725073628699,-0.0011654962299944,0.0011654938215495,-0.001165492887075,0.0011654971676256,-0.00100644463082,0.0010064423987291,-0.0010064413922947,0.0010064456952177,3.0672187829834e-09,-2.5604743314432e-09,-0.0015681788815093,0.0015681793532488,2.03952548372e-09,-1.5596935229041e-09,-0.0018886412816705,0.0018886448115396,-0.0018886424961135,0.0018886435930359,-0.0018886431484316,0.0018886429450265,-0.0018886443718904,0.0018886417135649,-0.0013998931766436,0.0013998869615543,-0.0013998876768612,0.0013998925049208,0.56737760874617,131329,3014,0.004289518481694,0.0042895184819238,0.0065092256695481,29.89013585124,-8.7891319008224e-07,-8.7891319008224e-07,-8.7891319008224e-07,5012625.9119562,0.015204469450714
15219200,0.97235166796746,0.01570119574009,0.0046555584020329,0.0046555584022903,0.0063900789357672,-0.0010293256091129,0.0010293257458621,-2.85679591114e-09,3.0232338046354e-09,1.6769179543958e-09,-1.5811663552767e-09,-0.0012711566726601,0.0012711559102845,-0.0012711547006764,0.001271157875636,-0.0012711577230093,0.0012711548252217,-0.0012711557654188,0.0012711567931469,-0.0011639431019522,0.0011639364383115,-0.0011639373280551,0.0011639421664274,-1.6428913620811e-09,1.5438610732124e-09,-1.7633898266057e-09,1.5963699583076e-09,-0.0010293257472878,0.0010293256077157,-0.0012711574108445,0.0012711551258006,-0.0012711563359849,0.0012711562362954,-0.0012711563667781,0.0012711561942619,-0.0012711552979921,0.0012711572974279,-0.0011639409545931,0.0011639385671062,-0.0011639376801587,0.0011639418453366,-0.0010047277932411,0.0010047256608158,-0.00100472468403,0.0010047288344899,3.124835756942e-09,-2.6103267337219e-09,-0.0015670845731665,0.0015670850511659,2.0106388840975e-09,-1.5230660260254e-09,-0.0018880111431243,0.0018880146931804,-0.0018880123380801,0.0018880134931717,-0.0018880130496107,0.0018880127900247,-0.0018880142492833,0.0018880115859454,-0.0013984962594064,0.0013984899749956,-0.0013984906609484,0.0013984956102424,0.54391181500316,131329,3014,0.0042830114527388,0.0042830114527932,0.0065046977254281,28.483930101923,-1.2128559184616e-05,-1.2128559184616e-05,-1.2128559184616e-05,4988573.4831295,0.015186662493136
15419200,0.97343728926188,0.015715964111409,0.0046597782731695,0.0046597782734311,0.0063964075648081,-0.0010277394608713,0.0010277395969461,-2.9053602334157e-09,3.0704426889658e-09,1.6547413010244e-09,-1.5598378658474e-09,-0.0012696585352821,0.0012696577261206,-0.001269656530733,0.0012696597241095,-0.0012696595714447,0.0012696566555564,-0.0012696575823545,0.0012696586542699,-0.0011624064810618,0.0011623997401319,-0.0011624006139456,0.001162405559003,-1.6509688720434e-09,1.5504487975134e-09,-1.7362609592941e-09,1.5674543583317e-09,-0.0010277395992126,0.0010277394586869,-0.0012696592437235,0.0012696569720121,-0.0012696581867989,0.0012696580644984,-0.0012696581944154,0.0012696580448677,-0.0012696571447521,0.0012696591282441,-0.0011624042654402,0.0011624019377498,-0.0011624010465185,0.0011624051579996,-0.0010030266785234,0.0010030245124495,-0.0010030235551383,0.0010030276983441,3.1694235232869e-09,-2.6530839896347e-09,-0.0015658648812856,0.0015658653612006,1.9819094537913e-09,-1.4921516913783e-09,-0.0018871324522602,0.0018871360132244,-0.0018871336269045,0.0018871348339773,-0.0018871343872794,0.0018871340815909,-0.0018871355671961,0.0018871328961039,-0.0013970474564784,0.00139704110839,-0.0013970417713632,0.0013970468318231,0.61487581516717,131329,3014,0.0042764282520067,0.0042764282521736,0.0064996541124499,27.070931333146,-2.3432549334832e-05,-2.3432549334832e-05,-2.3432549334832e-05,4966959.6655111,0.015168173900521
15619200,0.97441594252656,0.015729563079001,0.0046636764745176,0.0046636764747788,0.0064022101297049,-0.0010266055820386,0.0010266057134172,-2.935568797153e-09,3.0960738078939e-09,1.7959013417703e-09,-1.7072680713382e-09,-0.0012687558949684,0.0012687551611198,-0.0012687538794388,0.0012687571771808,-0.0012687570290397,0.001268753991648,-0.001268755020338,0.0012687560189558,-0.0011613636624569,0.0011613567476544,-0.0011613577286691,0.0011613626361407,-1.532995444167e-09,1.424961727061e-09,-1.7140682500538e-09,1.5381741108172e-09,-0.0010266057210187,0.0010266055744948,-0.0012687565919786,0.0012687544149692,-0.0012687555601516,0.0012687554895504,-0.0012687556288872,0.0012687554071785,-0.0012687545960546,0.0012687564833602,-0.001161361390913,0.0011613590065871,-0.0011613582055724,0.0011613621936312,-0.0010018740505615,0.0010018720841022,-0.001001871151953,0.0010018750473488,3.2374442705351e-09,-2.7126069915419e-09,-0.001565126623489,0.0015651271108272,1.9808702234803e-09,-1.4828753187063e-09,-0.0018867597407245,0.0018867633510206,-0.0018867609163842,0.0018867621708555,-0.0018867617258686,0.0018867613774202,-0.0018867628970339,0.0018867602004423,-0.0013961758599553,0.0013961694133577,-0.0013961700690417,0.0013961752514327,0.62694798406049,131329,3014,0.0042717294014757,0.0042717294015816,0.0064965943764469,25.962493815569,-3.2300049475445e-05,-3.2300049475445e-05,-3.2300049475445e-05,4938865.0176031,0.01515553304485
15819200,0.97533652987925,0.015743290618002,0.0046676488076045,0.0046676488078732,0.0064079930025246,-0.0010266930442174,0.0010266931819466,-3.0044048613173e-09,3.1719549661884e-09,1.6138126517195e-09,-1.517062143087e-09,-0.0012691260644223,0.0012691251656235,-0.0012691239953716,0.0012691272286371,-0.001269127077033,0.0012691241181137,-0.0012691250190319,0.00126912618605,-0.0011616091365257,0.0011616022217093,-0.0011616030606224,0.0011616082401273,-1.7965634783805e-09,1.7022347517497e-09,-1.7284648381229e-09,1.5645446202959e-09,-0.0010266931805918,0.0010266930457241,-0.001269126770717,0.0012691244138436,-0.001269125719675,0.0012691255008289,-0.0012691256264322,0.0012691255807107,-0.0012691245782727,0.0012691266628339,-0.0011616067834834,0.0011616045606547,-0.0011616035634681,0.0011616077729002,-0.001002014430752,0.001002011965881,-0.0010020110085367,0.0010020154526868,3.2532465345515e-09,-2.735147802818e-09,-0.0015656756915775,0.0015656761727205,1.9648603755996e-09,-1.4732172809586e-09,-0.0018876762652509,0.0018876798727329,-0.0018876774300318,0.0018876787031185,-0.001887678257066,0.0018876778829893,-0.0018876794227771,0.0018876767117633,-0.0013966371847778,0.0013966306964073,-0.0013966313425605,0.0013966365715187,0.66919701335878,131329,3014,0.00427210123969,0.0042721012400038,0.0064988586340272,25.547391791637,-3.5620865666901e-05,-3.5620865666901e-05,-3.5620865666901e-05,4922383.0757901,0.015158593852792
16019200,0.97620395407844,0.015756190904824,0.0046713812002474,0.0046713812005145,0.0064134285040626,-0.0010267411067792,0.0010267412398632,-3.0453083830958e-09,3.2076233176036e-09,1.7345280762108e-09,-1.643427604503e-09,-0.0012695363816267,0.0012695355330675,-0.001269534285614,0.0012695376231589,-0.001269537473186,0.0012695344066311,-0.0012695353920692,0.00126953649818,-0.001161803005629,0.0011617959346094,-0.0011617968657753,0.0011618020246778,-1.7512506593414e-09,1.6553086569549e-09,-1.7340074449669e-09,1.5686768108524e-09,-0.0010267412417018,0.0010267411050347,-0.0012695371013534,0.0012695347670693,-0.0012695360456105,0.0012695358589854,-0.0012695359853883,0.0012695359072993,-0.0012695349363674,0.001269536990848,-0.0011618005898543,0.001161798333154,-0.0011617973702572,0.0011618015526379,-0.0010021500424667,0.0010021476779084,-0.0010021467181442,0.0010021510664118,3.3062228964541e-09,-2.7887816062245e-09,-0.0015661934068518,0.0015661938875443,1.9805064268587e-09,-1.4897047436015e-09,-0.001888579619479,0.0018885832712975,-0.0018885807933223,0.0018885820926164,-0.0018885816459776,0.0018885812483306,-0.0018885828246614,0.0018885800645557,-0.0013971081229797,0.0013971015118897,-0.0013971021722182,0.0013971075009295,0.66742794160564,131329,3014,0.0042723130192666,0.0042723130194581,0.0065009890400761,25.147702305473,-3.8818381556213e-05,-3.8818381556213e-05,-3.8818381556213e-05,4901337.0950102,0.015161197262414
16219200,0.97702190868979,0.015768298635777,0.0046748848296898,0.0046748848299567,0.0064185289761305,-0.0010267382668083,0.001026738396806,-3.0888534051782e-09,3.2480405232974e-09,1.8052374295592e-09,-1.7178464862631e-09,-0.0012698766913056,0.0012698758581829,-0.0012698745661887,0.0012698779773091,-0.0012698778292847,0.0012698746849628,-0.0012698757208022,0.0012698768038072,-0.0011619223223714,0.0011619151204439,-0.001161916102887,0.0011619212896209,-1.7464875716722e-09,1.6500386172543e-09,-1.7456600153648e-09,1.5797573408211e-09,-0.0010267384004474,0.0010267382632631,-0.0012698774219597,0.001269875081091,-0.0012698763576495,0.0012698761815804,-0.001269876307603,0.0012698762196293,-0.001269875251736,0.0012698773099962,-0.0011619198528238,0.0011619175727097,-0.001161916613618,0.0011619208114858,-0.0010022307066688,0.0010022283617586,-0.0010022273945238,0.0010022317375884,3.3554047799225e-09,-2.8389126611669e-09,-0.0015666265671628,0.0015666270468575,1.9966509275083e-09,-1.5069715590827e-09,-0.0018893764106796,0.0018893801045732,-0.0018893775948223,0.0018893789158802,-0.0018893784693039,0.0018893780496554,-0.0018893796597217,0.0018893768537063,-0.0013974987624133,0.0013974920391074,-0.0013974927123328,0.0013974981292116,0.66425606633774,131329,3014,0.0042723126057566,0.0042723126059527,0.0065027700818868,24.74854376847,-4.2011649852239e-05,-4.2011649852239e-05,-4.2011649852239e-05,4882300.1208483,0.01516301399448
16419200,0.97779659383913,0.015778576418698,0.0046778208877815,0.0046778208880482,0.0064229346428678,-0.0010267539053828,0.0010267540374144,-3.1410676145405e-09,3.3021473089605e-09,1.7583150869752e-09,-1.6685490015322e-09,-0.001270232903851,0.0012702320107774,-0.0012702307476124,0.0012702341609963,-0.0012702340151329,0.0012702308646,-0.0012702318666331,0.0012702330229678,-0.0011620089660223,0.0011620016818116,-0.0011620026289679,0.0011620079675913,-1.8467088853282e-09,1.7547399377027e-09,-1.76859958179e-09,1.6061724796318e-09,-0.0010267540381736,0.0010267539047486,-0.0012702336422519,0.0012702312259175,-0.0012702325660305,0.0012702323384006,-0.0012702324649737,0.0012702324276475,-0.0012702313882643,0.0012702335384085,-0.0011620064494164,0.0011620041801604,-0.0011620031486298,0.0011620074801012,-0.0010022976872191,0.0010022951464553,-0.0010022941591753,0.0010022987378292,3.3940420155815e-09,-2.8772345911641e-09,-0.0015670483841195,0.0015670488639975,2.0100604880613e-09,-1.5202355749644e-09,-0.0018901563626218,0.0018901600956465,-0.0018901575602097,0.0018901588937645,-0.0018901584512103,0.0018901580105869,-0.0018901596462255,0.0018901568100303,-0.0013978515668295,0.0013978447734069,-0.0013978454528925,0.001397850925206,0.59981699637578,131329,3014,0.0042723880945364,0.0042723880947932,0.0065045048339773,24.411186160446,-4.4710510716435e-05,-4.4710510716435e-05,-4.4710510716435e-05,4867078.1041015,0.01516493733036
16619200,0.9785343888952,0.015790180384036,0.0046812082240458,0.0046812082243114,0.0064277639356785,-0.0010269938393072,0.0010269939690136,-3.1831763654412e-09,3.3420646076909e-09,1.8245049884485e-09,-1.7376628614747e-09,-0.0012706505694307,0.0012706496875298,-0.001270648382306,0.0012706518687758,-0.0012706517214719,0.0012706485000481,-0.0012706495494297,0.0012706506826726,-0.0011623542025077,0.0011623468010184,-0.0011623477963391,0.001162353156362,-1.818474251432e-09,1.7251566936729e-09,-1.7888049899055e-09,1.6252962164175e-09,-0.0010269939715099,0.0010269938369168,-0.0012706513128189,0.001270648897322,-0.0012706502200339,0.0012706500265937,-0.0012706501508256,0.0012706500838079,-0.0012706490649036,0.0012706512046073,-0.0011623516518327,0.001162349334224,-0.0011623483237473,0.0011623526619736,-0.0010025750159461,0.0010025725562341,-0.0010025715576217,0.0010025760795527,3.4439094238135e-09,-2.9286355990163e-09,-0.0015676361161874,0.0015676365945866,2.0360844967221e-09,-1.5480686125665e-09,-0.0018910082041355,0.0018910119838307,-0.001891009415931,0.0018910107674267,-0.0018910103228111,0.0018910098685933,-0.0018910115397049,0.0018910086465768,-0.0013983726825729,0.0013983657594368,-0.001398366459377,0.001398372020371,0.70235633764841,131329,3014,0.0042733881534422,0.0042733881536584,0.0065069324056521,24.1574963685,-4.6740029052e-05,-4.6740029052e-05,-4.6740029052e-05,4862204.1413006,0.015169434018227
16819200,0.97923744204766,0.015801290133052,0.0046844508689579,0.0046844508692234,0.0064323883948711,-0.0010271745619152,0.001027174691788,-3.2298909448134e-09,3.3889863685574e-09,1.8269236525306e-09,-1.7398938814362e-09,-0.0012711891930157,0.0012711882820366,-0.0012711869752192,0.0012711904939019,-0.0012711903470634,0.0012711870925859,-0.0012711881431616,0.0012711893070336,-0.0011626551779023,0.0011626476816052,-0.0011626486784126,0.0011626541308345,-1.8360650476669e-09,1.7436005229564e-09,-1.8134043794409e-09,1.6505790726374e-09,-0.0010271746939011,0.0010271745599004,-0.0012711899356724,0.0012711874925231,-0.0012711888269416,0.0012711886378053,-0.0012711887621467,0.0012711886906026,-0.0012711876590661,0.0012711898285932,-0.0011626525985993,0.0011626502431873,-0.0011626492201059,0.0011626536221265,-0.0010028740790805,0.0010028715992347,-0.0010028705830607,0.0010028751600477,3.4876073556952e-09,-2.9745782270888e-09,-0.001568220410609,0.0015682208867997,2.0583800415791e-09,-1.5728361143481e-09,-0.0018919183446635,0.0018919221683821,-0.0018919195727132,0.0018919209356231,-0.0018919204937092,0.0018919200225979,-0.0018919217256949,0.0018919187856493,-0.0013989800457013,0.0013989730182434,-0.001398973736406,0.0013989793655629,0.70571573554274,131329,3014,0.0042741511836945,0.0042741511838946,0.0065093363869993,23.90567073887,-4.8754634089039e-05,-4.8754634089039e-05,-4.8754634089039e-05,4843707.5499269,0.015173434645749
17019200,0.97990768756996,0.015811671831422,0.0046874759898074,0.0046874759900728,0.0064367198515422,-0.0010272988032686,0.0010272989329618,-3.2753236889919e-09,3.4342516146764e-09,1.8356670986596e-09,-1.7488805091362e-09,-0.0012716766164903,0.0012716756805896,-0.0012716743679772,0.0012716779231212,-0.0012716777760278,0.0012716744856333,-0.0012716755422724,0.0012716767299083,-0.0011628802617072,0.0011628726718654,-0.0011628736748282,0.0011628792086206,-1.8358328411741e-09,1.7431675517018e-09,-1.8373410961212e-09,1.6743317984396e-09,-0.001027298935275,0.0010272988010498,-0.0012716773548164,0.0012716748953623,-0.0012716762298438,0.001271676056957,-0.001271676181096,0.001271676093617,-0.0012716750626211,0.0012716772470653,-0.0011628776584444,0.0011628752572597,-0.0011628742347362,0.0011628786817759,-0.0010031154558747,0.0010031129937359,-0.0010031119618194,0.0010031165524578,3.5328175512606e-09,-3.0219622827149e-09,-0.0015687350704859,0.0015687355445116,2.0816493217186e-09,-1.5985289855368e-09,-0.0018927513020624,0.0018927551704035,-0.0018927525460638,0.0018927539218277,-0.0018927534815698,0.0018927529942776,-0.0018927547302462,0.0018927517405106,-0.0013995203117967,0.0013995131737512,-0.0013995139104923,0.0013995196131301,0.69245977765218,131329,3014,0.0042746799538062,0.0042746799539985,0.0065114514715528,23.653909297699,-5.0768725618409e-05,-5.0768725618409e-05,-5.0768725618409e-05,4826387.5596823,0.015176665839936
17219200,0.98053151415561,0.015821073258992,0.0046902089834771,0.0046902089837423,0.0064406552917722,-0.0010266472526181,0.0010266473813805,-3.3167170293361e-09,3.4749144698071e-09,1.86522895183e-09,-1.7793983364846e-09,-0.0012713171441819,0.0012713161987279,-0.001271314867424,0.0012713184691322,-0.0012713183227132,0.0012713149846781,-0.0012713160620533,0.001271317255694,-0.0011622666493616,0.0011622589595713,-0.0011622599846002,0.0011622655756321,-1.7642088947105e-09,1.6683779015349e-09,-1.8546166275986e-09,1.6891540384759e-09,-0.0010266473856067,0.001026647248455,-0.0012713178609233,0.0012713154352988,-0.0012713167244374,0.0012713166080795,-0.0012713167347173,0.0012713165855344,-0.0012713156060533,0.0012713177490377,-0.0011622640363841,0.00116226155434,-0.0011622605837826,0.0011622650091486,-0.0010025341752904,0.0010025318674559,-0.0010025308265954,0.0010025352796607,3.5826982372634e-09,-3.0733424153812e-09,-0.0015683723859024,0.0015683728586376,2.1013561762465e-09,-1.6198759554603e-09,-0.0018926602725184,0.0018926641864244,-0.0018926615295735,0.0018926629248635,-0.001892662485034,0.0018926619771699,-0.001892663747892,0.0018926607091023,-0.0013991734983556,0.0013991662432006,-0.001399166997156,0.0013991727843111,0.67475989002049,131329,3014,0.0042719862843598,0.0042719862844861,0.006509939097248,22.993418904967,-5.6052648760261e-05,-5.6052648760261e-05,-5.6052648760261e-05,4804425.3052846,0.015169668841199
17419200,0.9811008273173,0.015829285179405,0.0046925863257123,0.0046925863259778,0.0064441125277151,-0.001025334643867,0.0010253347791597,-3.3737160671723e-09,3.5377825722297e-09,1.6934450412694e-09,-1.5998137269064e-09,-0.0012702104030985,0.0012702093102995,-0.001270208087462,0.0012702116188132,-0.0012702114676211,0.0012702082114981,-0.0012702091651489,0.0012702105224133,-0.0011609350965224,0.00116092741235,-0.0011609283118107,0.0011609341494938,-1.8593875623669e-09,1.7683043285864e-09,-1.8713548688703e-09,1.7098064087913e-09,-0.0010253347781584,0.0010253346449412,-0.001270211081997,0.0012702085855632,-0.0012702099342095,0.001270209769057,-0.0012702098929018,0.0012702097982505,-0.0012702087499281,0.001270210974179,-0.0011609324694663,0.0011609300186456,-0.001160928978164,0.001160933514122,-0.0010012428618468,0.0010012403746059,-0.0010012393163244,0.0010012439813814,3.6128459583889e-09,-3.1065116696715e-09,-0.0015672495328735,0.0015672500030965,2.1058611814747e-09,-1.6273750433977e-09,-0.00189175089109,0.0018917548297895,-0.0018917521536971,0.0018917535630267,-0.0018917531257081,0.0018917525974778,-0.001891754391379,0.0018917513262143,-0.0013980497753248,0.0013980424560474,-0.0013980432136105,0.0013980490553218,0.64747799937824,131329,3014,0.0042665457217734,0.0042665457219229,0.0065052849957561,21.989665262149,-6.4082677902811e-05,-6.4082677902811e-05,-6.4082677902811e-05,4779445.2514077,0.015153902211792
17619200,0.98162082736445,0.015836496833201,0.0046946667294617,0.0046946667297252,0.0064471633740137,-0.0010239730106078,0.0010239731477384,-3.4175969222306e-09,3.5837646864488e-09,1.6711993846824e-09,-1.5754511400491e-09,-0.0012689780801083,0.0012689769436099,-0.0012689757350168,0.0012689792825281,-0.0012689791294167,0.0012689758598195,-0.0012689767976915,0.0012689782018547,-0.0011595282606866,0.0011595205038064,-0.0011595213874345,0.0011595273290209,-1.8077541838267e-09,1.7136730900278e-09,-1.8831746530244e-09,1.7191815218096e-09,-0.0010239731469659,0.0010239730114606,-0.0012689787236423,0.0012689762536741,-0.0012689775693074,0.0012689774446546,-0.0012689775707089,0.0012689774309283,-0.0012689764214725,0.0012689786151342,-0.0011595256287509,0.0011595231171263,-0.0011595221155303,0.0011595266336552,-0.00099986690386927,0.00099986452542579,-0.00099986346422358,0.00099986802908089,3.660254769494e-09,-3.1525154042301e-09,-0.0015660188719221,0.0015660193432026,2.1176597125376e-09,-1.6379993091867e-09,-0.0018906859087199,0.0018906898869279,-0.0018906871785498,0.0018906886121866,-0.0018906881749685,0.0018906876236656,-0.0018906894486286,0.001890686345609,-0.0013967954183736,0.0013967880008585,-0.0013967887637797,0.0013967946887113,0.62390235563765,131329,3014,0.0042608981971979,0.0042608981973611,0.0065001886629914,20.978230425261,-7.2174156597908e-05,-7.2174156597908e-05,-7.2174156597908e-05,4758603.238892,0.015137263693491
17819200,0.98209700239744,0.015842870901041,0.0046964994656647,0.0046964994659283,0.0064498719694482,-0.0010226234450407,0.0010226235832328,-3.4587299699383e-09,3.6264076657351e-09,1.677741281332e-09,-1.580720179113e-09,-0.0012676958712735,0.0012676947099889,-0.0012676934980695,0.0012676970776399,-0.0012676969230523,0.0012676936235203,-0.0012676945641042,0.0012676959941141,-0.0011581151308073,0.001158107289121,-0.0011581081751968,0.0011581141940781,-1.7368498832194e-09,1.6392809277473e-09,-1.8925029937356e-09,1.7255271400799e-09,-0.0010226235833188,0.0010226234450625,-0.0012676964825467,0.0012676940517055,-0.0012676953229561,0.0012676952486786,-0.0012676953769802,0.0012676951823489,-0.0012676942233598,0.0012676963723504,-0.0011581124904795,0.0011581099115709,-0.0011581089617584,0.0011581134412319,-0.00099847346202068,0.00099847122919456,-0.00099847016737228,0.00099847459052883,3.7107959842593e-09,-3.2014097495415e-09,-0.0015647541695281,0.0015647546416183,2.1295949262486e-09,-1.6485240948381e-09,-0.0018895484935988,0.001889552511609,-0.0018895497702021,0.0018895512294746,-0.0018895507927821,0.0018895502160704,-0.0018895520746,0.0018895489309234,-0.0013954859644484,0.0013954784430943,-0.001395479210549,0.0013954852276457,0.60341630399509,131329,3014,0.0042552978981618,0.0042552978983812,0.0064949547170019,19.988566281668,-8.0091469746653e-05,-8.0091469746653e-05,-8.0091469746653e-05,4741789.7624571,0.015120579313634
18019200,0.98253402877295,0.015848716334173,0.0046981818543684,0.0046981818546331,0.0064523526251714,-0.0010212926775454,0.0010212928156201,-3.5019836704498e-09,3.6694264141301e-09,1.6734307993672e-09,-1.576427098499e-09,-0.0012663767382041,0.0012663755442016,-0.0012663743352213,0.0012663779405971,-0.0012663777862174,0.0012663744616439,-0.0012663753981976,0.0012663768599538,-0.0011567157081808,0.001156707786588,-0.0011567086693133,0.0011567147745856,-1.6896415281428e-09,1.5895162317029e-09,-1.9002264877367e-09,1.7312713718471e-09,-0.0010212928168087,0.0010212926764713,-0.0012663773210121,0.0012663749149512,-0.0012663761560033,0.0012663761163104,-0.0012663762462497,0.001266376013845,-0.0012663750878838,0.0012663772071879,-0.0011567130500688,0.0011567104257623,-0.0011567095097826,0.00115671396707,-0.00099707974745776,0.00099707761364343,-0.00099707654891521,0.00099708087759753,3.7584042699765e-09,-3.2506729428788e-09,-0.0015634680574068,0.0015634685279584,2.1377490170879e-09,-1.6583986374718e-09,-0.0018883542072495,0.0018883582617788,-0.001888355489593,0.0018883569741919,-0.0018883565380244,0.0018883559340488,-0.0018883578260504,0.0018883546421967,-0.0013941408775538,0.001394133252322,-0.0013941340281795,0.0013941401342005,0.60265705430802,131329,3014,0.0042497733168483,0.0042497733170829,0.0064896347728149,19.017208071855,-8.786233542516e-05,-8.786233542516e-05,-8.786233542516e-05,4728161.0281611,0.015103959713531
18219200,0.98293554670216,0.015854192490206,0.0046997630517688,0.0046997630520338,0.0064546663864032,-0.0010199479181794,0.0010199480564045,-3.547611830482e-09,3.7149780696171e-09,1.6526330754881e-09,-1.5554235163793e-09,-0.0012650262632232,0.001265025025348,-0.0012650238299909,0.001265027452342,-0.0012650272975449,0.001265023956562,-0.0012650248792262,0.0012650263852505,-0.0011553081854901,0.0011553001888191,-0.0011553010578179,0.0011553072663756,-1.6707613659999e-09,1.5691736517963e-09,-1.9070081279828e-09,1.7367802536072e-09,-0.0010199480581447,0.0010199479165391,-0.0012650268202917,0.0012650244221221,-0.0012650256513918,0.0012650256277349,-0.0012650257585057,0.0012650255075715,-0.0012650245962583,0.001265026704997,-0.0011553055030136,0.0011553028525235,-0.0011553019507325,0.0011553064064371,-0.00099567336894425,0.00099567127619104,-0.00099567020754494,0.00099567450087653,3.8039752009923e-09,-3.2971119791982e-09,-0.0015621432320723,0.0015621437020039,2.1436924166976e-09,-1.6652315537309e-09,-0.0018871024360211,0.0018871065253874,-0.001887103722728,0.0018871052336278,-0.0018871047974876,0.0018871041670212,-0.0018871060895247,0.0018871028704217,-0.0013927617597248,0.0013927540391575,-0.001392754821327,0.0013927610125693,0.61338753299878,131329,3014,0.0042441903543644,0.0042441903545684,0.0064841550387841,18.046258555166,-9.5629931558672e-05,-9.5629931558672e-05,-9.5629931558672e-05,4714494.1166357,0.015087059608623
18419200,0.98331416176433,0.015859394429976,0.0047012674145261,0.0047012674147912,0.0064568596006587,-0.0010192952149174,0.001019295353574,-3.5954826507084e-09,3.7632799426163e-09,1.6431666278286e-09,-1.5455212579747e-09,-0.0012644113887347,0.001264410112728,-0.0012644089230998,0.0012644125723332,-0.0012644124164599,0.0012644090504824,-0.0012644099667326,0.0012644115108926,-0.0011546313908324,0.0011546233080997,-0.0011546241703001,0.0011546304783087,-1.6908310369187e-09,1.5898871937104e-09,-1.9161606221239e-09,1.7465067591074e-09,-0.0010192953547503,0.0010192952138502,-0.0012644119362065,0.0012644095188911,-0.0012644107607205,0.0012644107313686,-0.0012644108608467,0.001264410618156,-0.0012644096930116,0.0012644118215564,-0.0011546286671171,0.0011546260134372,-0.0011546250975785,0.001154629584479,-0.00099499186607844,0.00099498974104553,-0.0009949886663155,0.000994993005087,3.8474578732147e-09,-3.3406677855393e-09,-0.0015615549680935,0.0015615554378631,2.1506867354377e-09,-1.6724144077408e-09,-0.0018866044343605,0.0018866085568457,-0.0018866057252647,0.0018866072607241,-0.00188660682442,0.0018866061699611,-0.0018866081217834,0.0018866048682326,-0.0013921304596746,0.0013921226476761,-0.001392123434177,0.0013921297072982,0.6173840522382,131329,3014,0.0042414813441815,0.004241481344405,0.0064817212690033,17.474391081878,-0.00010020487134497,-0.00010020487134497,-0.00010020487134497,4706676.4704563,0.015079088351082
18619200,0.98367884818048,0.015864357310095,0.0047027016510459,0.0047027016513111,0.0064589540077378,-0.0010192115387236,0.0010192116763163,-3.6358354105475e-09,3.8030935523378e-09,1.7056768424198e-09,-1.6092831147702e-09,-0.001264399821443,0.0012643985595669,-0.0012643973298809,0.0012644010443849,-0.0012644008915176,0.0012643974549208,-0.0012643984134077,0.0012643999434374,-0.0011545484685768,0.0011545402605151,-0.0011545411652741,0.0011545475124908,-1.6762189638961e-09,1.5756935895542e-09,-1.9219460357139e-09,1.752875925942e-09,-0.0010192116778489,0.0010192115372952,-0.0012644003728067,0.00126439796155,-0.001264399194148,0.0012643991765384,-0.0012643993076306,0.001264399051127,-0.0012643981340645,0.0012644002598534,-0.0011545456942049,0.0011545430156766,-0.0011545421093062,0.001154546601448,-0.00099489815405458,0.00099489605913487,-0.0009948949813309,0.00099489929898453,3.8988522711512e-09,-3.3922928143125e-09,-0.0015615743648828,0.0015615748340766,2.1623305696089e-09,-1.6844583181311e-09,-0.0018867319474026,0.0018867361118048,-0.0018867332474727,0.0018867348066933,-0.0018867343730402,0.0018867336895158,-0.0018867356773269,0.0018867323818397,-0.0013921077577845,0.001392099840296,-0.0013921006339272,0.0013921069956025,0.61178642215795,131329,3014,0.0042411350456912,0.0042411350459043,0.0064818008007541,17.230173896737,-0.00010215860882611,-0.00010215860882611,-0.00010215860882611,4704478.3616203,0.015078466410167
18819200,0.98403038605465,0.015869457576712,0.0047041872005351,0.004704187200801,0.0064610831753762,-0.0010191469763547,0.0010191471127121,-3.6868963840816e-09,3.8525050814966e-09,1.7025638197263e-09,-1.6076585610757e-09,-0.001264392578377,0.0012643912802529,-0.0012643900524513,0.0012643937999045,-0.0012643936464746,0.0012643901774678,-0.0012643911362352,0.0012643926981405,-0.0011544929210711,0.0011544846185723,-0.001154485523529,0.0011544919659455,-1.7295758612522e-09,1.6311192297856e-09,-1.9295032211205e-09,1.76183396277e-09,-0.001019147114087,0.0010191469750835,-0.0012643931319187,0.001264390680189,-0.0012643919469139,0.0012643919019965,-0.0012643920300084,0.0012643918061352,-0.0012643908524332,0.0012643930190879,-0.0011544900870554,0.0011544874338061,-0.0011544864894337,0.0011544910332831,-0.00099482559315868,0.0009948234014282,-0.00099482231470757,0.00099482674416237,3.9396954344206e-09,-3.4341202166905e-09,-0.0015616058270899,0.0015616062956789,2.1656321064551e-09,-1.6887163244637e-09,-0.0018868616521963,0.0018868658459374,-0.0018868629537492,0.0018868645393947,-0.0018868641042557,0.0018868633970378,-0.0018868654119347,0.0018868620850032,-0.0013921008752369,0.0013920928699611,-0.0013920936683381,0.0013921001113355,0.64922939030688,131329,3014,0.004240867614155,0.0042408676143671,0.0064819307978197,16.993271099125,-0.000104053831207,-0.000104053831207,-0.000104053831207,4702918.192872,0.015078055328582
19019200,0.98436935209551,0.015874683442077,0.0047057192202149,0.0047057192204809,0.006463245001381,-0.0010190710679382,0.0010190712028225,-3.731996865234e-09,3.8961169496545e-09,1.7357028254113e-09,-1.6425829126019e-09,-0.0012644367780552,0.001264435471977,-0.001264434223011,0.0012644380207252,-0.0012644378691296,0.0012644343460721,-0.0012644353288266,0.0012644368967598,-0.0011544455394024,0.0011544371245776,-0.0011544380536833,0.0011544445599652,-1.7453591874306e-09,1.6477445185985e-09,-1.9327399919981e-09,1.7657010071025e-09,-0.0010190712046054,0.0010190710662519,-0.0012644373336654,0.0012644348698009,-0.0012644361467838,0.0012644360934895,-0.0012644362213563,0.001264436006113,-0.0012644350409435,0.0012644372218559,-0.0011544426476776,0.0011544399974801,-0.0011544390417,0.001154443605175,-0.00099478081008996,0.00099477858848346,-0.00099477749858822,0.00099478196417001,3.9867903705849e-09,-3.4814970044798e-09,-0.0015616496272892,0.0015616500955852,2.1704951104231e-09,-1.6939063949988e-09,-0.0018870247776256,0.0018870290064018,-0.0018870260830393,0.0018870276960841,-0.001887027261612,0.001887026525504,-0.0018870285721563,0.0018870252105177,-0.0013921463774039,0.0013921382772211,-0.0013921390794966,0.0013921456102082,0.68719103131844,131329,3014,0.0042405564214315,0.0042405564216289,0.0064821082838264,16.756619500314,-0.00010594704399748,-0.00010594704399748,-0.00010594704399748,4695896.2920972,0.015077606939943
19219200,0.98470682083582,0.015880044764611,0.0047072956567326,0.0047072956569986,0.0064654534508799,-0.0010198711115152,0.0010198712455552,-3.7808324381643e-09,3.9439191072726e-09,1.7518103297499e-09,-1.6599657945668e-09,-0.0012654637462023,0.0012654624188536,-0.0012654611592923,0.0012654649998707,-0.001265464848669,0.0012654612814098,-0.0012654622761944,0.0012654638646233,-0.0011553250745586,0.0011553165526346,-0.0011553174936239,0.0011553240827883,-1.8044264054466e-09,1.7089132501343e-09,-1.9399840758439e-09,1.7745698193071e-09,-0.0010198712467847,0.0010198711104134,-0.0012654643123554,0.0012654618056916,-0.001265463120501,0.0012654630348048,-0.0012654631606589,0.0012654629819682,-0.0012654619750022,0.0012654642034063,-0.001155322116909,0.0011553194920872,-0.0011553184942421,0.0011553231160126,-0.00099567466889039,0.00099567233492214,-0.00099567123883958,0.00099567583032795,4.0300329453187e-09,-3.5246266304288e-09,-0.0015626648067538,0.001562665275066,2.17600880266e-09,-1.6994179390955e-09,-0.0018882106400666,0.0018882149014712,-0.0018882119493167,0.0018882135872843,-0.0018882131531128,0.0018882123918211,-0.0018882144672424,0.0018882110732895,-0.0013931984228195,0.0013931902352524,-0.0013931910408482,0.001393197652674,0.70677989989897,131329,3014,0.0042438849358331,0.0042438849360952,0.0064863004371958,17.022893932479,-0.00010381684854016,-0.00010381684854016,-0.00010381684854016,4693572.3836423,0.015088627342395
19419200,0.98504798443992,0.01588534892102,0.0047088515969944,0.0047088515972605,0.0064676457267653,-0.0010210932272011,0.0010210933559735,-3.8206809726424e-09,3.9788272951455e-09,1.8678734997467e-09,-1.7823078526009e-09,-0.0012669767440055,0.0012669754631915,-0.0012669741308203,0.0012669780713169,-0.0012669779231786,0.0012669742478517,-0.0012669753279901,0.0012669768552154,-0.0011566400631357,0.0011566313854593,-0.0011566324118308,0.0011566389834572,-1.7625937568501e-09,1.6641180728058e-09,-1.9443262694364e-09,1.7761714474738e-09,-0.0010210933611196,0.0010210932221894,-0.0012669773222537,0.0012669748375526,-0.0012669761270374,0.0012669760707408,-0.0012669761971265,0.0012669759867536,-0.0012669750117855,0.0012669772094233,-0.0011566370462995,0.0011566343866183,-0.0011566334204191,0.0011566380108806,-0.00099701547651316,0.00099701323160504,-0.00099701213563758,0.00099701663747074,4.08476795179e-09,-3.5782582547254e-09,-0.0015641570140796,0.0015641574832491,2.1858538674001e-09,-1.7083242983947e-09,-0.0018899100532942,0.0018899143560515,-0.0018899113668283,0.0018899130371256,-0.0018899126005983,0.0018899118121091,-0.0018899139222911,0.00188991048562,-0.0013947394870406,0.0013947311825145,-0.0013947319971457,0.0013947387116778,0.69264760113231,131329,3014,0.0042489672728689,0.0042489672731434,0.0064924638512377,17.539957961814,-9.9680336305487e-05,-9.9680336305487e-05,-9.9680336305487e-05,4694455.3342707,0.015105211546484
19619200,0.9853927036279,0.015890573769277,0.0047103802399985,0.0047103802402653,0.0064698132890134,-0.0010223139337968,0.0010223140626124,-3.8672078230438e-09,4.0253703667572e-09,1.8827341541463e-09,-1.7971287618323e-09,-0.0012684714250558,0.0012684701233367,-0.0012684687804985,0.0012684727617087,-0.0012684726141956,0.0012684688985505,-0.0012684699869699,0.0012684715362901,-0.00115794342053,0.0011579346432896,-0.0011579356791267,0.0011579423335954,-1.8016136336611e-09,1.7060443869342e-09,-1.9463870263383e-09,1.7808108415497e-09,-0.0010223140666065,0.0010223139299162,-0.0012684720065589,0.0012684694947352,-0.0012684708088777,0.0012684707293916,-0.0012684708543277,0.0012684706711337,-0.0012684696656845,0.0012684718952454,-0.00115794034048,0.0011579377049232,-0.0011579367096128,0.0011579413368931,-0.00099834168418906,0.00099833936458342,-0.00099833826374511,0.00099834284980233,4.1288578928138e-09,-3.624158626677e-09,-0.0015656440943178,0.0015656445618842,2.1882032415107e-09,-1.712435439361e-09,-0.0018916037293103,0.0018916080627671,-0.0018916050456067,0.0018916067418457,-0.0018916063067448,0.0018916054885387,-0.001891607630322,0.0018916041600437,-0.0013962601297141,0.0013962517341604,-0.0013962525508665,0.0013962593513976,0.67638955908805,131329,3014,0.0042540425989382,0.0042540425991704,0.0064986069574376,18.062673754414,-9.5498609964688e-05,-9.5498609964688e-05,-9.5498609964688e-05,4697952.4048348,0.015121759593009
19819200,0.98574070326814,0.015895693308296,0.0047118732938757,0.0047118732941425,0.0064719467202778,-0.0010235298218193,0.0010235299516251,-3.9164954068714e-09,4.0756107191843e-09,1.8686333000354e-09,-1.7819204665823e-09,-0.0012699339622971,0.0012699326197162,-0.0012699312853735,0.0012699352905018,-0.0012699351428189,0.0012699314037421,-0.0012699324817245,0.0012699340753686,-0.0011592320221618,0.0011592231565829,-0.0011592241812952,0.0011592309465636,-1.8562416827753e-09,1.7636222629825e-09,-1.9483268482468e-09,1.7851261005439e-09,-0.0010235299539433,0.0010235298196051,-0.001269934541407,0.0012699319934679,-0.0012699333424358,0.0012699332294253,-0.0012699333530518,0.0012699332063375,-0.0012699321616233,0.001269934433218,-0.0011592288820223,0.0011592262783305,-0.0011592252429081,0.0011592299187724,-0.00099964645043554,0.00099964402336264,-0.0009996429179406,0.0009996476210548,4.1706306533317e-09,-3.6659966663771e-09,-0.0015671174535412,0.0015671179210961,2.1883842613042e-09,-1.7126943488045e-09,-0.0018932751249007,0.0018932794870936,-0.0018932764421516,0.0018932781653667,-0.0018932777309746,0.0018932768843075,-0.0018932790540306,0.0018932755564889,-0.0013977483378422,0.0013977398623588,-0.001397740678918,0.0013977475589932,0.65786896894487,131329,3014,0.0042590965240266,0.0042590965242388,0.0065046945750417,18.58558399453,-9.1315328043759e-05,-9.1315328043759e-05,-9.1315328043759e-05,4703688.9835947,0.015138206463732
20019200,0.9860823243264,0.015900904087513,0.0047133992028523,0.0047133992031191,0.0064741056815417,-0.0010239785438996,0.0010239786734479,-3.9606067816521e-09,4.1194767236962e-09,1.8745128102145e-09,-1.7880106460903e-09,-0.0012705535636417,0.0012705521959688,-0.0012705508576615,0.0012705548955554,-0.0012705547486462,0.0012705509755181,-0.0012705520577549,0.0012705536766084,-0.0011597190650641,0.0011597101084536,-0.001159711137944,0.0011597179862223,-1.8302187714091e-09,1.7366597215078e-09,-1.9413221520645e-09,1.777365634663e-09,-0.0010239786764097,0.0010239785410237,-0.0012705541193819,0.0012705515932912,-0.0012705529255744,0.0012705528238138,-0.0012705529489913,0.0012705527878695,-0.0012705517619693,0.0012705540099771,-0.0011597158813612,0.0011597132732565,-0.0011597122564396,0.0011597169009418,-0.0010001457026596,0.0010001433212813,-0.0010001422205769,0.0010001468671136,4.2179845605258e-09,-3.7137640954091e-09,-0.0015677523187758,0.001567752786217,2.1825115453587e-09,-1.7071204492597e-09,-0.0018940670515055,0.0018940714421884,-0.001894068365372,0.0018940701239679,-0.0018940696896584,0.0018940688071904,-0.001894071008443,0.0018940674833559,-0.0013983866194911,0.0013983780548747,-0.0013983788689042,0.0013983858441771,0.68048386011001,131329,3014,0.0042609638164725,0.004260963816647,0.0065073156273019,18.671839598781,-9.0625283209756e-05,-9.0625283209756e-05,-9.0625283209756e-05,4703408.3478012,0.015144661625497
20219200,0.98641515227061,0.015906128776235,0.0047149337968905,0.0047149337971571,0.0064762611821874,-0.0010242061887167,0.0010242063189532,-4.0040102124718e-09,4.1637025485099e-09,1.8695309681416e-09,-1.7822648617378e-09,-0.001270966626177,0.0012709652261536,-0.0012709638910602,0.0012709679552195,-0.0012709678074788,0.0012709640094029,-0.0012709650876482,0.0012709667400583,-0.0011599861645514,0.0011599771259776,-0.0011599781518006,0.001159985089548,-1.7890469882913e-09,1.6931828381379e-09,-1.9320269681091e-09,1.7662679868084e-09,-0.0010242063224831,0.0010242061852719,-0.0012709671491383,0.001270964656081,-0.0012709659621773,0.0012709658800387,-0.0012709660069698,0.0012709658227842,-0.0012709648270124,0.0012709670384303,-0.0011599829453146,0.0011599803267593,-0.0011599793403868,0.0011599839344443,-0.0010004355396608,0.001000433232535,-0.0010004321412013,0.0010004366956894,4.2664133586475e-09,-3.7609243468722e-09,-0.0015681595562882,0.0015681600248774,2.1735832333183e-09,-1.6968755875568e-09,-0.0018946307884169,0.0018946352053175,-0.001894632095737,0.0018946338935409,-0.0018946334585185,0.0018946325388928,-0.0018946347710122,0.0018946312216173,-0.001398819235868,0.0013988105850456,-0.0013988113917345,0.0013988184678021,0.69908661851962,131329,3014,0.0042619147787468,0.0042619147789194,0.0065089936512438,18.6383300571,-9.08933595432e-05,-9.08933595432e-05,-9.08933595432e-05,4697980.5004394,0.01514830039574
20419200,0.98673937019149,0.01591122528362,0.0047164310378888,0.0047164310381556,0.0064783632075759,-0.0010244106715805,0.0010244108034013,-4.0506198139922e-09,4.21178139544e-09,1.8286422798218e-09,-1.7394947113365e-09,-0.001271382877584,0.001271381419889,-0.0012713801107271,0.0012713841805492,-0.0012713840312307,0.0012713802310387,-0.0012713812798187,0.0012713829928943,-0.001160232043576,0.0011602229424391,-0.0011602239382593,0.0011602309980312,-1.7763897669323e-09,1.6794362378096e-09,-1.9222815036531e-09,1.7556273451018e-09,-0.001024410806538,0.0010244106685344,-0.0012713833643555,0.0012713808863179,-0.001271382183989,0.0012713821034863,-0.0012713822308562,0.0012713820440159,-0.00127138105764,0.0012713832524671,-0.0011602287875945,0.0011602261798135,-0.001160225202841,0.0011602297667919,-0.0010007150988656,0.0010007128100245,-0.0010007117264638,0.0010007162467015,4.3108183376941e-09,-3.8050386278583e-09,-0.0015685511320018,0.0015685516009066,2.1622610090869e-09,-1.6851496791576e-09,-0.001895186997996,0.0018951914369606,-0.0018951882975849,0.0018951901330458,-0.0018951896973773,0.0018951887410666,-0.0018951910022474,0.0018951874312096,-0.0013992511033008,0.0013992423737092,-0.0013992431721498,0.0013992503438763,0.69998403053495,131329,3014,0.0042627709516194,0.0042627709518038,0.0065106053668412,18.602068554518,-9.1183451563858e-05,-9.1183451563858e-05,-9.1183451563858e-05,4690578.0072642,0.015151680672662
20619200,0.98705521235528,0.015915667418264,0.0047177201883103,0.0047177201885771,0.0064802270413769,-0.0010245793974865,0.0010245795313209,-4.0978746874471e-09,4.2609822281531e-09,1.782902212973e-09,-1.6913267899511e-09,-0.0012717685116339,0.0012717669926277,-0.0012717657126408,0.0012717697854819,-0.0012717696341908,0.0012717658349979,-0.0012717668507137,0.0012717686289439,-0.0011604223914532,0.001160413229574,-0.0011604141917639,0.0011604213792606,-1.7673068075687e-09,1.6697221469562e-09,-1.9116941106675e-09,1.7445252960483e-09,-0.0010245795336898,0.0010245793952161,-0.0012717689611808,0.0012717664963713,-0.0012717677879916,0.0012717677063657,-0.0012717678340903,0.0012717676476283,-0.0012717666681365,0.0012717688488162,-0.0011604190977376,0.0011604165047278,-0.0011604155341971,0.0011604200701945,-0.0010009454059815,0.0010009431280332,-0.0010009420522875,0.0010009465459783,4.3545641808181e-09,-3.8480768143065e-09,-0.001568901749819,0.0015689022194127,2.1511069998636e-09,-1.6731744342872e-09,-0.001895705852704,0.0018957103135438,-0.0018957071445386,0.001895709017344,-0.001895708581007,0.0018957075887196,-0.0018957098782222,0.0018957062865088,-0.0013996289079873,0.0013996201016726,-0.0013996208913499,0.0013996281567617,0.63099126971573,131329,3014,0.0042634785962524,0.0042634785964534,0.0065120476962869,18.565712021178,-9.1474303830572e-05,-9.1474303830572e-05,-9.1474303830572e-05,4683861.5024065,0.015154587339705
20819200,0.98734815817995,0.01592010870612,0.0047190212326502,0.004719021232917,0.0064820662405527,-0.0010233732370069,0.0010233733705958,-4.1351303296069e-09,4.2982616165287e-09,1.7936477056467e-09,-1.7018778975337e-09,-0.001270578067383,0.0012705765305714,-0.0012705752436868,0.0012705793455257,-0.0012705791978005,0.0012705753653236,-0.0012705763863871,0.0012705781843619,-0.0011591659631183,0.001159156716775,-0.0011591576863191,0.0011591649443313,-1.6504077363848e-09,1.5486529357747e-09,-1.8893873686015e-09,1.7191566058416e-09,-0.0010233733750836,0.001023373232586,-0.0012705784631027,0.0012705760894383,-0.0012705773058654,0.0012705772806381,-0.0012705774148647,0.0012705771598927,-0.0012705762615324,0.0012705783452395,-0.0011591626456743,0.0011591600138909,-0.0011591591249603,0.0011591635371079,-0.00099970583287952,0.00099970376631788,-0.00099970270732849,0.00099970695264012,4.4083169738248e-09,-3.9029683766423e-09,-0.0015677148450161,0.0015677153138004,2.133942904862e-09,-1.6568378295357e-09,-0.0018945814582863,0.0018945859449298,-0.0018945827407063,0.0018945846586334,-0.0018945842237045,0.0018945831814813,-0.0018945855078933,0.0018945818918233,-0.0013984242830828,0.0013984153832716,-0.0013984161660065,0.0013984235418309,0.67642720243478,131329,3014,0.0042584721625399,0.0042584721626772,0.0065071368584604,17.740839507807,-9.807328393754e-05,-9.807328393754e-05,-9.807328393754e-05,4670806.8511509,0.015139434707984
21019200,0.98761862828945,0.015924077349646,0.0047201798233094,0.004720179823576,0.0064837177027608,-0.0010219869459817,0.0010219870866599,-4.1943993636257e-09,4.3642293810234e-09,1.6244098491589e-09,-1.5244160204311e-09,-0.0012692525414208,0.0012692508533183,-0.0012692496740543,0.0012692537136367,-0.0012692535552973,0.0012692498053794,-0.0012692507060034,0.0012692526638978,-0.0011577291331171,0.0011577198957286,-0.0011577207426979,0.0011577282376771,-1.7255086431784e-09,1.6267963144966e-09,-1.8743682831017e-09,1.7066677744295e-09,-0.0010219870861116,0.0010219869466157,-0.0012692528813819,0.0012692504677397,-0.0012692517312803,0.0012692516534904,-0.0012692517811508,0.0012692515913212,-0.00126925064082,0.0012692527653713,-0.0011577257761484,0.0011577232327064,-0.0011577222913091,0.0011577267208985,-0.00099830848872464,0.00099830627250163,-0.00099830522188361,0.00099830960230388,4.4381882734536e-09,-3.9310450507427e-09,-0.0015663446032073,0.0015663450738992,2.1094334566382e-09,-1.6303138129145e-09,-0.0018932818130228,0.0018932863012451,-0.0018932830752737,0.001893285034525,-0.0018932845951729,0.0018932835215739,-0.0018932858657416,0.0018932822463332,-0.0013970692600439,0.0013970603152935,-0.0013970610751659,0.0013970685368433,0.65601667683457,131329,3014,0.0042527208395704,0.0042527208397456,0.0065014648303349,16.829954287664,-0.00010536036569869,-0.00010536036569869,-0.00010536036569869,4650673.6648288,0.01512200076348
21219200,0.98786852265794,0.015927767891884,0.0047212588824134,0.0047212588826797,0.0064852501267909,-0.0010205922296557,0.0010205923686093,-4.2312329319148e-09,4.3993608898388e-09,1.6573920102824e-09,-1.5594703824856e-09,-0.0012678708651948,0.0012678691757865,-0.0012678679760796,0.0012678720586105,-0.0012678719032241,0.0012678681033536,-0.0012678690287232,0.0012678709880134,-0.00115627756611,0.0011562682287033,-0.0011562690999123,0.0011562766453564,-1.6203108840406e-09,1.5153659072496e-09,-1.8562355234159e-09,1.6832320654057e-09,-0.0010205923714491,0.0010205922269106,-0.0012678711630043,0.0012678688321608,-0.0012678700288507,0.0012678700026368,-0.0012678701365672,0.0012678698819784,-0.0012678690087708,0.0012678710444211,-0.0011562741808534,0.0011562715951785,-0.001156270730659,0.0011562750472979,-0.00099688432298563,0.00099688229537552,-0.00099688126407999,0.00099688541685503,4.4948414260328e-09,-3.9856650478451e-09,-0.0015649368324705,0.0015649373049152,2.0958460772528e-09,-1.6146194961886e-09,-0.0018919171866191,0.0018919217055195,-0.0018919184409312,0.0018919204468444,-0.0018919200081061,0.0018919188874957,-0.0018919212668485,0.0018919176235113,-0.0013956617262785,0.0013956526890902,-0.0013956534377639,0.0013956610152483,0.65967104712513,131329,3014,0.0042469324240043,0.0042469324241973,0.0064956397367781,15.916964687191,-0.00011266428250247,-0.00011266428250247,-0.00011266428250247,4633474.5492484,0.015104334355257
21419200,0.98810292878132,0.015931253888814,0.0047222794946195,0.0047222794948858,0.0064866948993082,-0.00101958973484,0.0010195898746014,-4.2780857775926e-09,4.4469177485388e-09,1.6313049436949e-09,-1.5324428120122e-09,-0.0012668954174676,0.0012668936795639,-0.0012668924967865,0.0012668965941688,-0.0012668964377339,0.0012668926249454,-0.0012668935318054,0.0012668955412024,-0.0011552374031724,0.0011552279911928,-0.0011552288440512,0.0011552364998608,-1.6200870371603e-09,1.5146292917472e-09,-1.8448554322165e-09,1.6713832209842e-09,-0.0010195898771549,0.0010195897323955,-0.0012668956871123,0.0012668933641397,-0.0012668945606431,0.0012668945270602,-0.001266894660868,0.001266894413732,-0.001266893540951,0.001266895568486,-0.0011552339701739,0.0011552314057898,-0.0011552305421532,0.0011552348347399,-0.00099586612762066,0.00099586409191402,-0.00099586306908156,0.00099586721317676,4.539702828783e-09,-4.0295120487611e-09,-0.0015639399352503,0.0015639404085804,2.0836582213775e-09,-1.6013297376816e-09,-0.001890967686405,0.0018909722270525,-0.0018909689319925,0.0018909709768292,-0.0018909705372282,0.001890969379561,-0.0018909717876185,0.0018909681240738,-0.0013946670092079,0.0013946578949604,-0.0013946586343119,0.0013946663084785,0.66373456760303,131329,3014,0.0042427723331212,0.0042427723333443,0.0064915141948219,15.228916895275,-0.0001181686648378,-0.0001181686648378,-0.0001181686648378,4620256.8875599,0.015091700026681
21619200,0.98832327989471,0.015934560753102,0.0047232490051162,0.0047232490053825,0.0064880627426036,-0.001018621517048,0.0010186216590655,-4.3272221829209e-09,4.4978473699091e-09,1.5884170401262e-09,-1.4870626044641e-09,-0.0012659582522547,0.0012659564547448,-0.0012659552987696,0.0012659594024608,-0.0012659592439927,0.0012659554289671,-0.0012659563044977,0.0012659583790548,-0.0011542325573526,0.0011542230790605,-0.0011542238992804,0.0011542316865281,-1.6592390804469e-09,1.5562096488267e-09,-1.8354261557771e-09,1.6637688698789e-09,-0.0010186216594433,0.0010186215167796,-0.0012659585012593,0.0012659561600743,-0.0012659573809112,0.0012659573170163,-0.0012659574489878,0.0012659572360101,-0.0012659563343788,0.0012659583854748,-0.0011542290685043,0.0011542265491895,-0.0011542256563936,0.0011542299623164,-0.00099488474398913,0.00099488262547512,-0.00099488160755197,0.00099488582784939,4.581468005062e-09,-4.0708892499513e-09,-0.001562974509449,0.0015629749832828,2.0734023770983e-09,-1.5905279991673e-09,-0.0018900482504514,0.0018900528123633,-0.0018900494893537,0.0018900515687895,-0.001890051129367,0.0018900499364884,-0.0018900523727039,0.001890048688733,-0.0013937067405444,0.0013936975540779,-0.0013936982830114,0.0013937060462421,0.66920858154779,131329,3014,0.0042387547093217,0.0042387547095445,0.0064875186777388,14.56465376912,-0.00012348276984704,-0.00012348276984704,-0.00012348276984704,4607276.011372,0.015079487433843
21819200,0.98853054626602,0.015937625740203,0.0047241464945461,0.0047241464948123,0.0064893327508443,-0.0010176415540966,0.0010176416958651,-4.3742154583674e-09,4.5450207221485e-09,1.5863269985638e-09,-1.4850037368317e-09,-0.0012650134531071,0.0012650116223019,-0.0012650104681391,0.0012650146011911,-0.0012650144433718,0.0012650105979684,-0.0012650114724046,0.001265013579256,-0.0011532143261358,0.0011532047565427,-0.0011532055759366,0.0011532134563266,-1.6704597925047e-09,1.5682148917659e-09,-1.8275326055249e-09,1.6566648797611e-09,-0.001017641696124,0.0010176415539346,-0.0012650136867727,0.0012650113429185,-0.0012650125712959,0.0012650124947509,-0.001265012626669,0.0012650124266379,-0.0012650115169944,0.0012650135710565,-0.0011532107801241,0.0011532082839826,-0.0011532073825319,0.0011532116826268,-0.00099389298394748,0.00099389083784843,-0.00099388982290649,0.00099389406226077,4.6262937981354e-09,-4.115149975346e-09,-0.0015619925521819,0.0015619930264707,2.0658650655344e-09,-1.5823777145058e-09,-0.0018891106550792,0.0018891152421554,-0.0018891118887289,0.0018891140037699,-0.0018891135636642,0.0018891123367033,-0.001889114801647,0.0018891110940662,-0.0013927330564124,0.00139272378777,-0.0013927245122265,0.0013927323672354,0.65988857673026,131329,3014,0.0042346885819242,0.0042346885821218,0.0064834544938335,13.900974406408,-0.00012879220474873,-0.00012879220474873,-0.00012879220474873,4593910.5039966,0.015067107204603
22019200,0.98873751067483,0.015940637302293,0.0047250272801876,0.0047250272804536,0.0064905827416517,-0.0010182866576605,0.0010182867955532,-4.4180943991312e-09,4.5850984341549e-09,1.6721361971223e-09,-1.575565938248e-09,-0.0012657500830735,0.0012657482782353,-0.001265747069463,0.001265751285695,-0.0012657511308316,0.0012657471959539,-0.0012657481324031,0.0012657502046227,-0.0011538928488195,0.0011538831361131,-0.0011538840180616,0.0011538919160976,-1.6766287445738e-09,1.5741472936546e-09,-1.832507079793e-09,1.6615669536522e-09,-0.0010182867977428,0.0010182866555792,-0.0012657503336516,0.0012657479816898,-0.0012657492142693,0.0012657491373741,-0.0012657492685539,0.0012657490703897,-0.0012657481561407,0.0012657502174575,-0.0011538892334369,0.0011538867331747,-0.0011538858278187,0.0011538901394959,-0.00099456867300233,0.0009945665194906,-0.00099456550244625,0.0009945697545319,4.6760447211024e-09,-4.1653816602142e-09,-0.0015627471104156,0.0015627475841819,2.0724370834109e-09,-1.5895288058096e-09,-0.0018899482587093,0.0018899528824974,-0.0018899494964324,0.0018899516402224,-0.0018899512000037,0.0018899499443818,-0.0018899524430429,0.0018899486964617,-0.0013934844823986,0.0013934751090177,-0.0013934758388209,0.0013934837886813,0.64982381564585,131329,3014,0.0042373681763126,0.0042373681765343,0.0064865743248863,14.153844154572,-0.00012676924676342,-0.00012676924676342,-0.00012676924676342,4598970.3613294,0.015075715646047
22219200,0.9889453538449,0.015943637271053,0.0047259038573296,0.0047259038575957,0.0064918295561278,-0.0010191003667648,0.0010191005027534,-4.4649790075444e-09,4.6301336753592e-09,1.7211073394698e-09,-1.626845403372e-09,-0.0012666575290522,0.0012666557245954,-0.001266654484529,0.0012666587630488,-0.001266658609644,0.0012666546093132,-0.001266655580814,0.0012666576485028,-0.0011547409945668,0.001154731157357,-0.0011547320747206,0.0011547400265439,-1.7246105766191e-09,1.62493789393e-09,-1.8397219487136e-09,1.6709241617954e-09,-0.0010191005048002,0.0010191003648218,-0.0012666577980337,0.0012666554093125,-0.0012666566729525,0.0012666565708386,-0.0012666566998536,0.001266656531552,-0.0012666555822558,0.0012666576839902,-0.0011547373069768,0.0011547348262517,-0.0011547338861787,0.0011547382480709,-0.00099540619948122,0.00099540395778615,-0.00099540293262746,0.000995407289235,4.7218065657565e-09,-4.2116397911777e-09,-0.0015636825570169,0.0015636830302648,2.0808561884777e-09,-1.5985291025626e-09,-0.001890975656644,0.0018909803160612,-0.001890976899943,0.0018909790682494,-0.0018909786283842,0.0018909773476432,-0.0018909798775645,0.001890976093771,-0.001394403241591,0.0013943937711092,-0.001394394507192,0.0013944025418161,0.64497438000967,131329,3014,0.0042407471489889,0.004240747149201,0.0064904431306748,14.500537671302,-0.00012399569862958,-0.00012399569862958,-0.00012399569862958,4607175.4177558,0.015086504001116
22419200,0.98915401003757,0.015946781031216,0.0047268266549791,0.0047268266552452,0.0064931277209918,-0.0010199233829207,0.001019923516974,-4.5119920893271e-09,4.675246163733e-09,1.7640445082688e-09,-1.6721041507189e-09,-0.0012675670951,0.0012675652874921,-0.0012675640199709,0.0012675683564467,-0.0012675682050569,0.0012675641426134,-0.0012675651452917,0.0012675672126256,-0.0011556050114637,0.0011555950522498,-0.0011555960012029,0.0011556040123613,-1.7671772832099e-09,1.6698735799624e-09,-1.8485635583925e-09,1.6816615596766e-09,-0.0010199235190744,0.0010199233809173,-0.0012675673793577,0.0012675649568132,-0.0012675662479005,0.0012675661246391,-0.0012675662522055,0.0012675661080281,-0.0012675651279057,0.0012675672670938,-0.0011556012571394,0.0011555987879817,-0.0011555978168156,0.001155602229818,-0.00099625286370051,0.00099625054417896,-0.0009962495101163,0.00099625396216701,4.7673496399762e-09,-4.2579394336378e-09,-0.0015646290734596,0.0015646295460483,2.0898400031165e-09,-1.608330800451e-09,-0.0018920128014076,0.0018920174973454,-0.0018920140511594,0.0018920162431127,-0.001892015803823,0.001892014498037,-0.0018920170590725,0.0018920132380208,-0.0013953308948454,0.0013953213275469,-0.0013953220713867,0.0013953301881479,0.67139356667563,131329,3014,0.0042441644901615,0.0042441644903592,0.0064943580451235,14.849541890288,-0.00012120366487769,-0.00012120366487769,-0.00012120366487769,4615595.4454607,0.015097416901364
22619200,0.98936323420457,0.015949969774916,0.0047277634416221,0.0047277634418881,0.0064944428914054,-0.0010207160560964,0.0010207161888927,-4.5587842757402e-09,4.7208209925121e-09,1.7971861251975e-09,-1.7068271149268e-09,-0.0012684941410788,0.0012684923240385,-0.0012684910353388,0.0012684954240215,-0.0012684952735232,0.00126849115651,-0.0012684921832066,0.0012684942575226,-0.0011564477695973,0.001156437696285,-0.0011564386694761,0.0011564467470711,-1.8023104124847e-09,1.7069458485679e-09,-1.8577926107266e-09,1.6924575596059e-09,-0.0010207161908599,0.0010207160542175,-0.001268494435116,0.0012684919832963,-0.0012684932972174,0.0012684931580273,-0.0012684932841237,0.0012684931587476,-0.0012684921534485,0.0012684943246913,-0.001156443955165,0.00115644149218,-0.0011564404956857,0.0011564449539961,-0.00099709157590584,0.00099708919385462,-0.00099708815154631,0.00099709268291518,4.8128240422351e-09,-4.304061913863e-09,-0.0015655660080476,0.0015655664800848,2.0993228619805e-09,-1.6185404665821e-09,-0.0018930617385462,0.0018930664711111,-0.0018930629948519,0.0018930652103297,-0.0018930647715777,0.0018930634414145,-0.0018930660334491,0.001893062174809,-0.0013962706660163,0.0013962610016373,-0.0013962617527055,0.0013962699520392,0.67880270403506,131329,3014,0.004247458265557,0.004247458265736,0.0064982307969057,15.1876977037,-0.0001184984183704,-0.0001184984183704,-0.0001184984183704,4620153.8930064,0.015108038699
22819200,0.98956998112271,0.015953110999663,0.0047286858053362,0.0047286858056022,0.0064957393887243,-0.0010211031234798,0.0010211032560983,-4.6055471381081e-09,4.7674587349376e-09,1.8046560637607e-09,-1.7144661541476e-09,-0.0012690127732154,0.0012690109299885,-0.0012690096362347,0.0012690140608428,-0.0012690139108183,0.0012690097573148,-0.0012690107890995,0.0012690128893942,-0.0011568691081549,0.0011568589379455,-0.0011568599163686,0.0011568680804096,-1.822917990708e-09,1.7287278485325e-09,-1.8650477085259e-09,1.7006135654673e-09,-0.00102110325773,0.0010211031219296,-0.0012690130633352,0.0012690105931531,-0.0012690119202421,0.0012690117727593,-0.0012690118983686,0.00126901178257,-0.0012690107623278,0.0012690129535789,-0.0011568652452728,0.0011568627821048,-0.00115686177049,0.001156866259329,-0.00099751922148182,0.00099751680390071,-0.00099751575505806,0.00099752033472385,4.8578058270136e-09,-4.3495240432026e-09,-0.0015660758833368,0.0015660763548677,2.1062467330493e-09,-1.6260176709234e-09,-0.0018936797122939,0.0018936844794065,-0.0018936809734934,0.0018936832137291,-0.0018936827754546,0.0018936814193839,-0.0018936840421023,0.0018936801481344,-0.0013967902642207,0.0013967805060266,-0.0013967812626252,0.0013967895446912,0.67691805546235,131329,3014,0.0042490688592928,0.0042490688594582,0.0065003362277399,15.303776138906,-0.00011756979088876,-0.00011756979088876,-0.00011756979088876,4619630.6576932,0.015113449320494
23019200,0.98977418379331,0.015955996308393,0.0047295263098953,0.0047295263101612,0.0064969436883362,-0.0010214656679461,0.0010214658004632,-4.6519283730167e-09,4.8137642130429e-09,1.8082808885542e-09,-1.7182516352685e-09,-0.0012695032211849,0.0012695013495224,-0.0012695000533451,0.001269504511174,-0.0012695043613215,0.0012695001742762,-0.0012695012086141,0.0012695033372527,-0.001157259265976,0.0011572490024203,-0.0011572499832439,0.0011572582356689,-1.8300044448267e-09,1.7358831122217e-09,-1.8727253308548e-09,1.7083871422346e-09,-0.001021465802092,0.0010214656664044,-0.001269503501891,0.001269501022091,-0.0012695023537195,0.0012695022067549,-0.0012695023322456,0.0012695022161194,-0.0012695011909843,0.0012695033922744,-0.0011572553616543,0.0011572528879932,-0.0011572518715762,0.0011572563804473,-0.00099791626075195,0.00099791383397566,-0.00099791278030437,0.00099791737907872,4.9031043268226e-09,-4.395360443932e-09,-0.0015665581583252,0.0015665586293342,2.1126999492315e-09,-1.6330847075008e-09,-0.0018942691989961,0.0018942740005915,-0.0018942704647857,0.0018942727303472,-0.0018942722925576,0.0018942709100593,-0.0018942735636683,0.0018942696343345,-0.0013972760325411,0.0013972661802255,-0.0013972669416552,0.0013972753079405,0.63260005614393,131329,3014,0.0042505774176869,0.0042505774178643,0.0065023276745141,15.414967028201,-0.00011668026377439,-0.00011668026377439,-0.00011668026377439,4619392.8086049,0.015118536814014
23219200,0.98997584046286,0.015958974084449,0.0047303984355009,0.0047303984357668,0.006498177213181,-0.0010218467217738,0.00102184685387,-4.6971751508764e-09,4.8585403788676e-09,1.8169893536931e-09,-1.7275116729983e-09,-0.0012699291934322,0.0012699272971946,-0.0012699259954666,0.001269930488994,-0.0012699303393395,0.0012699261160883,-0.0012699271567563,0.0012699293089645,-0.0011576628225942,0.0011576524648634,-0.0011576534520349,0.0011576617857237,-1.8216877056817e-09,1.7269457718579e-09,-1.8792968947878e-09,1.7143931726394e-09,-0.0010218468559594,0.001021846719781,-0.0012699294613225,0.0012699269825073,-0.0012699283088834,0.0012699281715044,-0.0012699282972498,0.0012699281709357,-0.0012699271519749,0.0012699293511738,-0.0011576588803536,0.0011576563884188,-0.001157655378294,0.0011576598927488,-0.00099829802857105,0.00099829562275509,-0.00099829456555843,0.00099829915058748,4.9498289538879e-09,-4.4424448216542e-09,-0.0015670284595155,0.0015670289301169,2.1199827031307e-09,-1.640814546036e-09,-0.0018948106611207,0.0018948154984395,-0.0018948119318026,0.0018948142232921,-0.0018948137858315,0.0018948123767753,-0.0018948150620638,0.0018948110958621,-0.0013977160249813,0.0013977060750662,-0.0013977068419003,0.0013977152951696,0.65900012595759,131329,3014,0.0042521589320204,0.0042521589322174,0.0065042736750793,15.525990490053,-0.00011579207607958,-0.00011579207607958,-0.00011579207607958,4624516.3355346,0.015123722251644
23419200,0.99017581158107,0.015961895588264,0.0047312528823733,0.0047312528826391,0.0064993898232515,-0.0010223394850938,0.0010223396175584,-4.7435612538716e-09,4.9052442282736e-09,1.8062591922862e-09,-1.716377725074e-09,-0.0012705164199182,0.0012705144856488,-0.0012705131908456,0.001270517708618,-0.0012705175584617,0.0012705133119148,-0.0012705143449459,0.0012705165357102,-0.0011581901652048,0.001158179724297,-0.0011581807033801,0.0011581891355189,-1.8216632158295e-09,1.7266042520779e-09,-1.8863061033782e-09,1.721060149997e-09,-0.0010223396195671,0.0010223394831879,-0.0012705166711367,0.0012705141876938,-0.0012705155141053,0.0012705153813792,-0.001270515507028,0.0012705153760133,-0.0012705143573337,0.0012705165606904,-0.0011581861883226,0.0011581836825273,-0.0011581826727947,0.0011581871995881,-0.00099881327475601,0.00099881087355755,-0.0009988098122158,0.0009988144008428,4.9950005014575e-09,-4.4879621152498e-09,-0.0015676362538116,0.0015676367239923,2.1263490053504e-09,-1.6476004774658e-09,-0.00189551164489,0.0018955165162808,-0.0018955129198538,0.0018955152368418,-0.0018955147996711,0.0018955133644237,-0.0018955160803622,0.0018955120789753,-0.0013983118102122,0.0013983017667071,-0.0013983025380228,0.0013983110760531,0.65256371006501,131329,3014,0.0042542064435053,0.0042542064437153,0.006506786164598,15.704786452141,-0.00011436170838287,-0.00011436170838287,-0.00011436170838287,4627336.5135239,0.015130431591511
23619200,0.99037833211755,0.015964923041748,0.0047321405974991,0.0047321405977649,0.0065006418464845,-0.0010234322072668,0.0010234323404241,-4.7901986948945e-09,4.9526358884909e-09,1.7973904998952e-09,-1.7067613882288e-09,-0.0012717222939855,0.0012717203229201,-0.0012717190336454,0.0012717235774713,-0.0012717234263771,0.001271719155337,-0.0012717201818165,0.001271722410719,-0.0011593474440068,0.0011593369178957,-0.0011593378903694,0.0011593464209565,-1.8277644653372e-09,1.7328282359266e-09,-1.8955818632215e-09,1.7304810783747e-09,-0.0010234323419842,0.0010234322058114,-0.0012717225316781,0.0012717200381875,-0.0012717213685455,0.0012717212383454,-0.0012717213637337,0.0012717212308411,-0.0012717202081764,0.0012717224220051,-0.0011593434317174,0.0011593409118869,-0.0011593398979398,0.0011593444472111,-0.00099994536285543,0.00099994295584847,-0.00099994188883642,0.00099994649566588,5.0400011557184e-09,-4.5327582797577e-09,-0.0015688878498465,0.0015688883200756,2.1348683307085e-09,-1.6560502519192e-09,-0.0018968714831181,0.0018968763898921,-0.001896872763611,0.0018968751048093,-0.0018968746679293,0.0018968732084318,-0.00189687595446,0.0018968719174495,-0.0013995466591859,0.0013995365219501,-0.0013995372984405,0.0013995459189598,0.66669036616457,131329,3014,0.0042587442746471,0.0042587442748605,0.0065119620977261,16.220021881318,-0.00011023982494946,-0.00011023982494946,-0.00011023982494946,4637077.4733715,0.01514490118752
23819200,0.990583362947,0.015968155134931,0.0047330932482561,0.0047330932485219,0.0065019686381531,-0.0010245377002535,0.0010245378337177,-4.8362860184878e-09,4.9990149739358e-09,1.7901700245052e-09,-1.6990913135443e-09,-0.0012729725602398,0.0012729705535821,-0.00127296926903,0.0012729738388748,-0.001272973687593,0.0012729693909329,-0.0012729704121298,0.0012729726770316,-0.0011605254044362,0.0011605147931399,-0.0011605157599039,0.0011605243863753,-1.8227166776891e-09,1.7275336082602e-09,-1.9031695051903e-09,1.7377059326215e-09,-0.0010245378352952,0.0010245376987884,-0.001272972781135,0.0012729702857247,-0.0012729716130302,0.0012729714907403,-0.0012729716164474,0.0012729714748285,-0.0012729704558938,0.0012729726708392,-0.00116052135855,0.0011605188205219,-0.0011605178100943,0.0011605223701501,-0.0010011078553654,0.0010011054634716,-0.0010011043913554,0.001001108992898,5.0847296022951e-09,-4.5793673460592e-09,-0.0015701757740444,0.0015701762423324,2.1418086172169e-09,-1.6649425667063e-09,-0.0018982806297227,0.0018982855703304,-0.0018982819154252,0.0018982842798685,-0.0018982838448707,0.0018982823582093,-0.0018982851366307,0.0018982810618837,-0.001400833842425,0.0014008236085853,-0.0014008243921794,0.0014008330949798,0.70079157099025,131329,3014,0.0042633365852399,0.0042633365854695,0.0065172866960991,16.742675676272,-0.00010605859458982,-0.00010605859458982,-0.00010605859458982,4644985.8834604,0.015159633948004
24019200,0.99079076157064,0.015971462749975,0.0047340688283126,0.0047340688285785,0.0065033250930839,-0.0010256246628542,0.0010256247961019,-4.880644745065e-09,5.0431475472454e-09,1.7954269466451e-09,-1.7045792526563e-09,-0.0012742690052818,0.0012742669726039,-0.0012742656845496,0.0012742702871682,-0.0012742701363887,0.001274265806402,-0.0012742668311282,0.0012742691219902,-0.0011616934433484,0.0011616827414677,-0.0011616837121559,0.0011616924217464,-1.7998694031448e-09,1.7035401529589e-09,-1.9101852275045e-09,1.7438170739699e-09,-0.0010256247982728,0.0010256246607805,-0.0012742692081118,0.0012742667230381,-0.0012742680356553,0.0012742679321694,-0.0012742680589968,0.0012742678963874,-0.0012742668937831,0.0012742690967012,-0.0011616893668344,0.001161686799115,-0.0011616858054007,0.0011616903620344,-0.0010022842801341,0.001002281937391,-0.0010022808615363,0.0010022854206762,5.1319328742087e-09,-4.6274599089821e-09,-0.0015714852093223,0.0015714856767503,2.1481083031776e-09,-1.6721804589172e-09,-0.0018997376378635,0.0018997426140339,-0.00189973892833,0.0018997413190459,-0.0018997408849018,0.0018997393699907,-0.0018997421810541,0.0018997380692564,-0.0014021730349114,0.0014021627025659,-0.0014021634916929,0.0014021722822691,0.70866202830351,131329,3014,0.0042678550586372,0.0042678550588351,0.006522696854464,17.265583658856,-0.00010187533072915,-0.00010187533072915,-0.00010187533072915,4648777.1856413,0.015174306831597
24219200,0.99099912880153,0.015974642490255,0.0047350022396171,0.0047350022398829,0.0065046380107555,-0.0010265211451769,0.0010265212821852,-4.9302331261152e-09,5.097098327439e-09,1.714150642051e-09,-1.618585792521e-09,-0.0012753860205307,0.0012753839002964,-0.0012753826662487,0.0012753872493494,-0.0012753870959617,0.0012753827896463,-0.0012753837561247,0.001275386141331,-0.0011626604319765,0.0011626496856444,-0.0011626505973651,0.001162659470528,-1.8504947992664e-09,1.7575007921326e-09,-1.9113804024348e-09,1.7482546445197e-09,-0.0010265212811724,0.001026521146249,-0.0012753861971392,0.0012753836771649,-0.001275385023773,0.0012753848880176,-0.0012753850130341,0.0012753848850175,-0.0012753838460262,0.0012753860888018,-0.0011626563194375,0.00116265378202,-0.0011626527499453,0.001162657353446,-0.0010032685541462,0.0010032661114791,-0.0010032650303837,0.0010032697003031,5.1720412205733e-09,-4.6676624626452e-09,-0.0015726116344821,0.0015726121021888,2.1518925983935e-09,-1.676051037556e-09,-0.0019010173923576,0.0019010223991074,-0.0019010186853049,0.0019010211004728,-0.001901020666036,0.0019010191273678,-0.0019010219642906,0.0019010178251632,-0.0014033341260878,0.0014033237126279,-0.0014033245074584,0.0014033333681851,0.68010065555748,131329,3014,0.0042715835423743,0.0042715835424917,0.0065273489327982,17.693256206259,-9.8453950349929e-05,-9.8453950349929e-05,-9.8453950349929e-05,4650368.2398142,0.015186606567946
24419200,0.99120526993547,0.01597778472676,0.0047359246333269,0.004735924633593,0.0065059354598397,-0.0010270049505146,0.0010270050860218,-4.9732822217596e-09,5.1380986370842e-09,1.7398638294719e-09,-1.6461813231141e-09,-0.001276018124023,0.0012760159935693,-0.0012760147409252,0.0012760193703209,-0.0012760192178259,0.001276014864925,-0.0012760158496832,0.0012760182430635,-0.0011631886075345,0.0011631777620128,-0.0011631786924699,0.0011631876267418,-1.7756390752889e-09,1.678043307427e-09,-1.9110827731233e-09,1.7438178437736e-09,-0.0010270050876407,0.0010270049489865,-0.0012760182704466,0.0012760158008418,-0.0012760170978272,0.0012760170099304,-0.0012760171380633,0.0012760169568836,-0.0012760159721921,0.0012760181575444,-0.001163184468404,0.001163181882086,-0.0011631809056716,0.001163185446843,-0.001003802814154,0.0010038005193305,-0.0010037994436333,0.0010038039534467,5.2215148057186e-09,-4.7178525159618e-09,-0.0015732662223615,0.0015732666891718,2.1487974464189e-09,-1.6736402543508e-09,-0.0019017918104338,0.001901796847324,-0.0019017931016593,0.0019017955513031,-0.0019017951175464,0.0019017935426335,-0.0019017964141982,0.0019017922413975,-0.0014039996770333,0.0014039891672432,-0.0014039899575948,0.0014039989220126,0.67934591833142,131329,3014,0.0042735962479778,0.0042735962481627,0.006530051854815,17.885246330085,-9.6918029359319e-05,-9.6918029359319e-05,-9.6918029359319e-05,4651093.7542274,0.015193440486902
24619200,0.99140908011589,0.015981038713907,0.0047368844172641,0.00473688441753,0.0065072698791124,-0.0010274867804899,0.0010274869184689,-5.0191775671e-09,5.186567945733e-09,1.6973234431398e-09,-1.6007113043978e-09,-0.0012766339172261,0.0012766317279254,-0.0012766305027667,0.0012766351363716,-0.001276634981548,0.0012766306289912,-0.0012766315821421,0.0012766340390005,-0.0011637187964414,0.0011637078900094,-0.0011637087892119,0.0011637178475119,-1.7724350452702e-09,1.6749225360916e-09,-1.9071875682735e-09,1.7401588471743e-09,-0.001027486918786,0.0010274867802583,-0.001276634031945,0.0012766315667113,-0.0012766328619598,0.0012766327734434,-0.0012766329016748,0.0012766327212589,-0.0012766317385827,0.001276633919781,-0.0011637146243158,0.001163712043313,-0.0011637110692,0.0011637156010091,-0.0010043341050809,0.0010043318135047,-0.0010043307409905,0.0010043352425929,5.2664740627736e-09,-4.7623084376286e-09,-0.00157391565569,0.0015739161230438,2.1454976159029e-09,-1.6698478501179e-09,-0.0019025523730532,0.0019025574376794,-0.0019025536618051,0.0019025561439355,-0.0019025557100414,0.0019025541035974,-0.0019025570045427,0.0019025528050683,-0.0014046618112547,0.0014046512165449,-0.0014046520040291,0.0014046610583163,0.70944460479729,131329,3014,0.0042756002633599,0.0042756002635336,0.00653273403416,18.072026890468,-9.5423784876256e-05,-9.5423784876256e-05,-9.5423784876256e-05,4651826.81549,0.015200235377608
24819200,0.99161052320256,0.015984020711812,0.004737756728234,0.0047377567285,0.0065085072550781,-0.0010279435113718,0.0010279436484225,-5.0632752235351e-09,5.2296056429609e-09,1.7079330925223e-09,-1.612397272076e-09,-0.0012772768315748,0.0012772746196961,-0.00127727338786,0.0012772780573409,-0.0012772779031094,0.001277273513442,-0.0012772744747961,0.0012772769521756,-0.0011642202813374,0.0011642092818853,-0.0011642101894255,0.0011642193239122,-1.72027841506e-09,1.619696432417e-09,-1.9046045348622e-09,1.7349442610444e-09,-0.0010279436504706,0.0010279435094188,-0.0012772769172083,0.001277274487765,-0.0012772757496023,0.0012772756920734,-0.0012772758222431,0.0012772756064816,-0.0012772746618663,0.0012772768020767,-0.0011642160778392,0.0011642134665814,-0.0011642125308495,0.0011642170159291,-0.001004856508065,0.0010048543174313,-0.0010048532497256,0.0010048576396269,5.3149288402781e-09,-4.810476424659e-09,-0.0015745590674343,0.0015745595350425,2.1411430239621e-09,-1.6651661494936e-09,-0.0019033295562118,0.0019033346501464,-0.0019033308418097,0.001903333359661,-0.0019033329252008,0.0019033312839486,-0.0019033342166992,0.0019033299879878,-0.0014053357869589,0.0014053251003423,-0.0014053258847763,0.0014053350379968,0.66112229528209,131329,3014,0.0042775024416218,0.0042775024418156,0.0065353888165819,18.258628866187,-9.3930969070504e-05,-9.3930969070504e-05,-9.3930969070504e-05,4649310.4815693,0.015206798287828
25019200,0.99181186734822,0.015986965656813,0.0047386174285506,0.0047386174288165,0.0065097307994461,-0.0010287390467755,0.0010287391856654,-5.107530680326e-09,5.2761800629679e-09,1.7048701988563e-09,-1.6071805067976e-09,-0.0012781900740601,0.0012781878301986,-0.0012781866009769,0.0012781912988785,-0.0012781911425769,0.0012781867269191,-0.0012781876847854,0.0012781901979144,-0.0011650663904442,0.0011650553044598,-0.0011650562081935,0.0011650654357929,-1.7064849820292e-09,1.60569539413e-09,-1.9024572317274e-09,1.7324001784973e-09,-0.0010287391868161,0.001028739045718,-0.0012781901379357,0.0012781877190014,-0.0012781889728855,0.0012781889224009,-0.0012781890529513,0.0012781888296275,-0.0012781878950491,0.0012781900255682,-0.0011650621485136,0.0011650595293464,-0.0011650586043112,0.0011650630746147,-0.0010056891734847,0.00100568700708,-0.001005685943223,0.0010056903054461,5.3631781884113e-09,-4.8553613074567e-09,-0.0015755442768563,0.0015755447469872,2.1412386306885e-09,-1.6620557890424e-09,-0.001904422744389,0.0019044278697937,-0.0019044240289181,0.001904426579907,-0.0019044261451333,0.0019044244734515,-0.0019044274359862,0.0019044231798463,-0.0014063096286554,0.0014062988558724,-0.0014062996346957,0.0014063088814694,0.65362539406632,131329,3014,0.0042808070948665,0.004280807095054,0.0065394615469635,18.630482401016,-9.095614079187e-05,-9.095614079187e-05,-9.095614079187e-05,4656382.6139045,0.01521764444599
25219200,0.99201635864871,0.015990059212773,0.0047395247973317,0.0047395247975984,0.0065110096178426,-0.0010300242760748,0.0010300244128589,-5.1545316857717e-09,5.3205716999515e-09,1.7131363856535e-09,-1.6178928838065e-09,-0.001279596736923,0.0012795944674852,-0.0012795932324761,0.0012795979657819,-0.0012795978118589,0.0012795933577711,-0.0012795943225682,0.0012795968573152,-0.0011664288121638,0.0011664176300988,-0.001166418540716,0.0011664278500411,-1.7093074049177e-09,1.6078242009677e-09,-1.9055087393166e-09,1.7349295854487e-09,-0.0010300244153491,0.0010300242736843,-0.0012795967904303,0.001279594367745,-0.0012795956226153,0.001279595572184,-0.001279595702804,0.0012795954788891,-0.001279594541951,0.0012795966747696,-0.0011664245223894,0.0011664219011279,-0.0011664209735944,0.0011664254508778,-0.0010070190473162,0.0010070168780357,-0.0010070158111165,0.0010070201784137,5.4077849047656e-09,-4.9031352754065e-09,-0.0015770688843925,0.0015770693519247,2.1419733833893e-09,-1.6658452441301e-09,-0.0019060618984635,0.0019060670544817,-0.0019060631847555,0.0019060657634605,-0.0019060653292963,0.0019060636264418,-0.0019060666211167,0.0019060623299976,-0.0014078141260708,0.0014078032581241,-0.0014078040429471,0.001407813377721,0.67454675483689,131329,3014,0.0042861438605748,0.004286143860778,0.0065457663253067,19.271911628488,-8.5824706972099e-05,-8.5824706972099e-05,-8.5824706972099e-05,4669552.1767791,0.015234883070707
25419200,0.99222387077154,0.015993463247295,0.0047405308476941,0.0047405308479606,0.00651240155164,-0.0010313252989273,0.001031325435916,-5.2008612827284e-09,5.3671154042497e-09,1.7163918537894e-09,-1.6209782319336e-09,-0.0012810579150756,0.0012810556168513,-0.0012810543796786,0.0012810591463602,-0.0012810589920453,0.0012810545050909,-0.0012810554720892,0.0012810580357612,-0.0011678219582518,0.0011678106834793,-0.0011678115960741,0.0011678209937915,-1.7217737322123e-09,1.6211396672353e-09,-1.9069385010358e-09,1.7369824370384e-09,-0.0010313254379946,0.0010313252969557,-0.0012810579586651,0.0012810555267565,-0.0012810567897125,0.0012810567325912,-0.0012810568626668,0.0012810566468027,-0.0012810557009827,0.0012810578440113,-0.0011678176192671,0.0011678150037839,-0.0011678140671629,0.0011678185565886,-0.0010083874390419,0.0010083852467211,-0.0010083841780913,0.0010083885724474,5.4534061093044e-09,-4.9485386722463e-09,-0.0015786348015942,0.0015786352692423,2.1439078134703e-09,-1.6676165219305e-09,-0.0019077596542469,0.0019077648416079,-0.0019077609416277,0.0019077635494124,-0.0019077631154574,0.0019077613835631,-0.0019077644087326,0.0019077600859431,-0.0014093810050426,0.0014093700467229,-0.0014093708320935,0.0014093802552187,0.72789191893569,131329,3014,0.004291548147283,0.0042915481475015,0.0065522398971563,19.919320161178,-8.0645438710573e-05,-8.0645438710573e-05,-8.0645438710573e-05,4679920.8857789,0.015252432511282
25619200,0.99243418502158,0.01599693473816,0.0047415565299875,0.004741556530254,0.0065138216779186,-0.0010325994027076,0.0010325995393955,-5.24745211094e-09,5.4134262571908e-09,1.7210690074938e-09,-1.6260006867952e-09,-0.0012825913146256,0.0012825889884649,-0.0012825877482268,0.0012825925488921,-0.0012825923949327,0.0012825878734193,-0.001282588843955,0.0012825914349616,-0.0011691993188604,0.0011691879498378,-0.0011691888663787,0.0011691983515953,-1.7338047637246e-09,1.6338848972431e-09,-1.9078242063104e-09,1.7385927758749e-09,-0.0010325995413347,0.0010325994008627,-0.0012825913485623,0.0012825889081241,-0.0012825901787361,0.0012825901147418,-0.0012825902443452,0.001282590036282,-0.0012825890817616,0.0012825912342221,-0.0011691949292614,0.0011691923206595,-0.0011691913752229,0.0011691958764108,-0.0010097756793698,0.001009773464196,-0.0010097723938826,0.0010097768140345,5.4986502970079e-09,-4.9942597705569e-09,-0.0015802195345366,0.0015802200018885,2.1446777387731e-09,-1.6688355214851e-09,-0.0019095183812079,0.001909523599495,-0.0019095196692922,0.0019095223066665,-0.001909521872702,0.0019095201110316,-0.0019095231666065,0.0019095188126891,-0.0014110141968708,0.0014110031479379,-0.0014110039349443,0.0014110134459073,0.73243475775428,131329,3014,0.0042968454235845,0.0042968454237763,0.0065587860426886,20.566926440847,-7.5464588473224e-05,-7.5464588473224e-05,-7.5464588473224e-05,4683810.1675105,0.015269843358979
25819200,0.99264183753306,0.016000269203406,0.0047425386409042,0.0047425386411706,0.0065151919213308,-0.0010331295073515,0.0010331296462372,-5.291953843325e-09,5.4600570944155e-09,1.6841994362457e-09,-1.5865312873817e-09,-0.0012833624079789,0.0012833600300543,-0.0012833588125082,0.0012833636190551,-0.001283363464737,0.0012833589392554,-0.0012833598815707,0.0012833625322142,-0.0011697901672612,0.0011697787338281,-0.0011697796233014,0.0011697892300774,-1.758710808916e-09,1.6610256375992e-09,-1.8960520313517e-09,1.7290331724687e-09,-0.0010331296462288,0.0010331295074259,-0.0012833624196959,0.0012833599720786,-0.0012833612582848,0.001283361169807,-0.0012833612999265,0.0012833611163568,-0.001283360142582,0.0012833623081951,-0.0011697857256586,0.0011697831548537,-0.0011697821900834,0.0011697866950765,-0.0010104017234401,0.0010103994484005,-0.0010103983828238,0.0010104028526799,5.5445971969498e-09,-5.040874717267e-09,-0.0015809922215972,0.001580992688671,2.1396730224579e-09,-1.6643566908103e-09,-0.0019104528804101,0.0019104581279349,-0.0019104541670761,0.0019104568369002,-0.001910456404551,0.0019104546071996,-0.0019104576939179,0.0019104533135014,-0.0014118415461749,0.0014118304132753,-0.0014118311969109,0.0014118407977809,0.71386320030769,131329,3014,0.0042990545287145,0.0042990545288475,0.0065619726008809,20.805445532133,-7.3556435742939e-05,-7.3556435742939e-05,-7.3556435742939e-05,4679481.6087763,0.015277571695033
26019200,0.99284223009271,0.016003357591348,0.0047434445365129,0.0047434445367791,0.006516468518056,-0.0010330031234144,0.0010330032622021,-5.3393511514874e-09,5.5078675981903e-09,1.6829466865163e-09,-1.5856314655766e-09,-0.0012834057217988,0.0012834033095728,-0.0012834020933847,0.0012834069323639,-0.0012834067764046,0.0012834022207657,-0.0012834031635452,0.0012834058445387,-0.0011696835276098,0.001169672006171,-0.0011696728945893,0.001169682591232,-1.7260367565295e-09,1.6261346937804e-09,-1.8850895362958e-09,1.7168093919185e-09,-0.001033003263066,0.0010330031226117,-0.0012834057028578,0.0012834032822145,-0.0012834045478448,0.0012834044742441,-0.0012834046042063,0.0012834044053357,-0.0012834034566138,0.0012834055885904,-0.0011696790413898,0.0011696764735613,-0.0011696755321637,0.0011696799867735,-0.0010103306729718,0.001010328458882,-0.00101032740355,0.0010103317929063,5.5896982132624e-09,-5.0840892014471e-09,-0.0015810191612393,0.001581019630226,2.1246265753518e-09,-1.647291472288e-09,-0.0019106049688191,0.0019106102352378,-0.001910606242815,0.0019106089565136,-0.0019106085207346,0.0019106066868562,-0.0019106098009176,0.0019106054025517,-0.0014119051919129,0.0014118939804972,-0.0014118947533725,0.0014119044561706,0.68688292586339,131329,3014,0.0042985362216485,0.0042985362217702,0.0065620767724258,20.675566805591,-7.4595465555268e-05,-7.4595465555268e-05,-7.4595465555268e-05,4670587.7795513,0.015276629204878
26219200,0.99303555868306,0.016006515952104,0.0047443770444223,0.0047443770446885,0.006517761862993,-0.0010328814604527,0.0010328815990036,-5.3845677735624e-09,5.5524254603312e-09,1.6834163677855e-09,-1.5861278942934e-09,-0.0012833868997337,0.0012833844577405,-0.0012833832413084,0.00128338811021,-0.0012833879545528,0.0012833833684891,-0.0012833843115065,0.0012833870220108,-0.0011695808445444,0.0011695692333437,-0.0011695701224215,0.0011695799054955,-1.7011612576195e-09,1.5995463890642e-09,-1.8737772143556e-09,1.7033300360965e-09,-0.0010328816007226,0.0010328814588203,-0.0012833868539024,0.0012833844574827,-0.0012833857070135,0.0012833856409676,-0.0012833857720578,0.0012833855631502,-0.0012833846324062,0.0012833867379319,-0.0011695763115236,0.0011695737474576,-0.0011695728255828,0.0011695772355314,-0.0010102417350751,0.0010102395614901,-0.0010102385154738,0.0010102428449858,5.637203640063e-09,-5.1302754976051e-09,-0.0015810195135486,0.0015810199835828,2.111937571051e-09,-1.6332049449453e-09,-0.0019106969138819,0.0019107022036317,-0.001910698179053,0.0019107009336189,-0.0019107004969453,0.0019106986235768,-0.0019107017680315,0.0019106973481086,-0.0014119224106103,0.0014119111178596,-0.00141191187936,0.0014119216848107,0.72524662028904,131329,3014,0.004298034540737,0.004298034540913,0.0065620742298312,20.537468975537,-7.5700248195701e-05,-7.5700248195701e-05,-7.5700248195701e-05,4664979.2535832,0.015275609199444
26419200,0.99322210940166,0.016009651884976,0.0047453053771067,0.0047453053773728,0.0065190411304962,-0.0010327493792695,0.0010327495182717,-5.4302307140615e-09,5.598509248209e-09,1.6722824574482e-09,-1.5744466497944e-09,-0.0012834111958096,0.0012834087160901,-0.0012834075068801,0.0012834123990755,-0.0012834122430784,0.0012834076344361,-0.001283408569347,0.001283411318619,-0.0011694736707845,0.0011694619775619,-0.0011694628588653,0.0011694727400186,-1.6930020899507e-09,1.5908606278881e-09,-1.8615873410286e-09,1.6907270668487e-09,-0.0010327495199788,0.0010327493776488,-0.0012834111244189,0.0012834087414576,-0.0012834099858308,0.0012834099165829,-0.0012834100481588,0.001283409841476,-0.0012834089166423,0.0012834110080671,-0.0011694690877146,0.0011694665417513,-0.0011694656259984,0.0011694700059806,-0.0010101689826092,0.0010101668165319,-0.0010101657792413,0.0010101700836874,5.6833119422508e-09,-5.1758984964421e-09,-0.0015810254257669,0.001581025896386,2.1003184744476e-09,-1.6209763943721e-09,-0.0019108137691772,0.0019108190822747,-0.0019108150264966,0.0019108178201246,-0.0019108173828966,0.0019108154715982,-0.0019108186459267,0.0019108142041265,-0.0014119767934533,0.0014119654193981,-0.0014119661726932,0.0014119760761115,0.7450275634499,131329,3014,0.0042974923072972,0.0042974923074726,0.0065620919573895,20.39908876953,-7.6807289843763e-05,-7.6807289843763e-05,-7.6807289843763e-05,4655299.2380131,0.015274530550528
26619200,0.99340626482023,0.016012718926123,0.0047462125686159,0.004746212568882,0.0065202937886248,-0.0010332528710786,0.001033253008315,-5.4785950670343e-09,5.6453228965547e-09,1.7238339264098e-09,-1.6281459378769e-09,-0.0012841335413276,0.001284131060773,-0.0012841298186361,0.0012841347781262,-0.0012841346212719,0.0012841299459549,-0.0012841309184671,0.0012841336603906,-0.0011700302680406,0.0011700184501246,-0.0011700193681582,0.001170029298606,-1.658605127118e-09,1.5543053263921e-09,-1.8644593681298e-09,1.6916213298512e-09,-0.0010332530117267,0.0010332528677707,-0.0012841334599513,0.0012841310956579,-0.0012841323180366,0.0012841322746642,-0.0012841324054063,0.00128413217434,-0.0012841312752736,0.0012841333407114,-0.0011700256351479,0.0011700230649724,-0.0011700221752507,0.0011700265255268,-0.0010107682690884,0.0010107661782001,-0.0010107651427339,0.0010107693706542,5.7288038012116e-09,-5.2188253124691e-09,-0.0015817406784076,0.0015817411510375,2.0915892510606e-09,-1.6097241763843e-09,-0.0019116678774349,0.0019116732122888,-0.0019116691255818,0.0019116719590167,-0.0019116715184031,0.0019116695746967,-0.0019116727771589,0.001911668312177,-0.0014127576710522,0.0014127462133072,-0.0014127469565649,0.0014127569615004,0.73848440902649,131329,3014,0.0042995900811501,0.0042995900813613,0.0065650418404988,20.630219610694,-7.4958243114451e-05,-7.4958243114451e-05,-7.4958243114451e-05,4651086.0523483,0.015281791878037
26819200,0.99359024391709,0.016015706901301,0.0047470942304158,0.0047470942306823,0.0065215184402032,-0.0010341075726798,0.0010341077064095,-5.5268516038302e-09,5.6889555204316e-09,1.7368964183302e-09,-1.6454687546179e-09,-0.001285216996036,0.0012852144926428,-0.0012852132413683,0.001285218238596,-0.0012852180862466,0.0012852133675061,-0.0012852143504953,0.0012852171095234,-0.001170948896675,0.0011709369767113,-0.0011709379045195,0.0011709479124384,-1.6797970946903e-09,1.574458358332e-09,-1.8654209269216e-09,1.6909306143554e-09,-0.0010341077119727,0.0010341075672928,-0.0012852169109281,0.0012852145331589,-0.0012852157676329,0.0012852157102178,-0.0012852158408694,0.0012852156235359,-0.0012852147082019,0.0012852167867921,-0.0011709442055418,0.0011709416478296,-0.0011709407438479,0.001170945106406,-0.0010117224973207,0.0010117203639667,-0.0010117193273041,0.0010117235946219,5.7726865793287e-09,-5.266508875416e-09,-0.0015828469941438,0.0015828474632566,2.0912144896269e-09,-1.6130491141921e-09,-0.0019129224303817,0.0019129277946882,-0.0019129236807931,0.0019129265404909,-0.0019129261010724,0.0019129241242973,-0.0019129273597674,0.0019129228588377,-0.0014139203712506,0.0014139088206085,-0.0014139095691415,0.0014139196638785,0.72121906037899,131329,3014,0.0043031453523386,0.0043031453527063,0.006569609536811,21.065246786987,-7.1478025704106e-05,-7.1478025704106e-05,-7.1478025704106e-05,4652343.2285618,0.015293655119012
27019200,0.99377394130942,0.016018606651724,0.0047479473188863,0.0047479473191518,0.006522712013686,-0.0010349707898622,0.0010349709269073,-5.5685865909727e-09,5.7346434198741e-09,1.7146642003033e-09,-1.619462611823e-09,-0.0012862809319259,0.0012862783880265,-0.0012862771516892,0.0012862821619792,-0.0012862820081665,0.0012862772771168,-0.0012862782424673,0.0012862810528697,-0.0011718703648782,0.0011718583711953,-0.0011718592825978,0.0011718694022049,-1.7364911170587e-09,1.6360656276067e-09,-1.8593163008191e-09,1.6894821634339e-09,-0.0010349709288794,0.0010349707880104,-0.0012862808417058,0.0012862784321694,-0.0012862797045255,0.0012862796055506,-0.0012862797358961,0.0012862795615615,-0.0012862786050846,0.0012862807269615,-0.0011718656152279,0.0011718631020253,-0.0011718621554876,0.0011718665627666,-0.0010126679072829,0.0010126656526342,-0.0010126646156395,0.0010126690086267,5.8215755896854e-09,-5.3139212945286e-09,-0.0015839536049163,0.0015839540756565,2.0987152513956e-09,-1.6191789160485e-09,-0.0019141679182875,0.0019141733228626,-0.0019141691753473,0.0019141720614099,-0.0019141716244842,0.0019141696194289,-0.0019141728860925,0.0019141683530095,-0.0014150636392495,0.0014150519968908,-0.0014150527485451,0.0014150629245179,0.70228506616203,131329,3014,0.0043067344326433,0.0043067344328902,0.0065741800473663,21.504860623079,-6.7961115015367e-05,-6.7961115015367e-05,-6.7961115015367e-05,4656002.5643969,0.015305588343844
27219200,0.99395719757426,0.016021409573916,0.0047487690860782,0.0047487690863437,0.0065238714014941,-0.0010358384544137,0.0010358385909299,-5.6148186791435e-09,5.7805073395863e-09,1.7315842404665e-09,-1.6369155889112e-09,-0.0012873141293827,0.0012873115657509,-0.0012873103183215,0.0012873153706702,-0.0012873152172066,0.0012873104432563,-0.0012873114209277,0.001287314249718,-0.0011727912089782,0.0011727791135829,-0.0011727800370808,0.0011727902346854,-1.7510684838497e-09,1.6517338477107e-09,-1.8606379201858e-09,1.6917974360714e-09,-0.0010358385927232,0.0010358384527203,-0.0012873140345339,0.0012873116144695,-0.0012873128959818,0.0012873127892994,-0.0012873129188876,0.0012873127538956,-0.0012873117869918,0.001287313920529,-0.001172786404414,0.0011727838992826,-0.001172782941511,0.0011727873636451,-0.0010135980960061,0.0010135958147232,-0.0010135947752564,0.0010135991998518,5.8673071800284e-09,-5.3597017471436e-09,-0.0015850523985455,0.0015850528692179,2.1007443800541e-09,-1.6212548555417e-09,-0.0019153923241918,0.0019153977602197,-0.0019153935821443,0.0019153964977146,-0.0019153960606094,0.0019153940266284,-0.001915397323658,0.0019153927589684,-0.0014161781494409,0.0014161664158846,-0.0014161671689629,0.0014161774326647,0.68191773386117,131329,3014,0.0043103401474378,0.0043103401476416,0.0065787202171844,21.944632332136,-6.4442941342914e-05,-6.4442941342914e-05,-6.4442941342914e-05,4661932.174795,0.015317522951806
27419200,0.99413841042078,0.016024269208726,0.0047496102082826,0.0047496102085481,0.0065250487918957,-0.0010364877389472,0.001036487875063,-5.6622124491199e-09,5.8274488665549e-09,1.7353727000552e-09,-1.6411905504317e-09,-0.0012880772240564,0.0012880746307966,-0.0012880733808962,0.0012880784677938,-0.0012880783139946,0.0012880735061856,-0.0012880744868894,0.0012880773432691,-0.0011734836026969,0.0011734714140782,-0.0011734723409088,0.0011734826258328,-1.7609201760798e-09,1.6619633251263e-09,-1.8612425928251e-09,1.6927786395704e-09,-0.0010364878769337,0.0010364877371736,-0.0012880771182114,0.0012880746905736,-0.0012880759784769,0.0012880758665867,-0.0012880759952404,0.001288075837183,-0.0012880748634487,0.0012880770035569,-0.0011734787475239,0.0011734762502163,-0.0011734752853807,0.0011734797145552,-0.0010142850124935,0.0010142827142897,-0.0010142816735026,0.0010142861168028,5.9117054269278e-09,-5.404576777654e-09,-0.0015858941999823,0.0015858946703993,2.099872056203e-09,-1.6208078634323e-09,-0.0019163363981268,0.001916341862836,-0.0019163376549623,0.0019163406014462,-0.0019163401635852,0.0019163381000599,-0.0019163414267569,0.0019163368320276,-0.0014170174639409,0.0014170056408823,-0.0014170063945083,0.0014170167476557,0.70214879179561,131329,3014,0.0043130373541575,0.0043130373543556,0.0065821996446036,22.252694075586,-6.1978447395313e-05,-6.1978447395313e-05,-6.1978447395313e-05,4667492.2732602,0.015326533644521
27619200,0.99431704988584,0.01602713224254,0.0047504534019763,0.0047504534022416,0.0065262254383219,-0.0010370604090955,0.0010370605460781,-5.7053962922361e-09,5.8720367646017e-09,1.7494444934951e-09,-1.6541656724624e-09,-0.0012887887378619,0.0012887861255066,-0.0012887848664492,0.0012887899909157,-0.0012887898375428,0.0012887849911915,-0.0012887859804325,0.0012887888590797,-0.0011741029705162,0.0011740906848923,-0.0011740916205405,0.0011741019861087,-1.7519931742898e-09,1.6536307534656e-09,-1.859677448693e-09,1.6921059105821e-09,-0.0010370605472841,0.0010370604079604,-0.0012887886186137,0.001288786198302,-0.0012887874806321,0.0012887873727337,-0.0012887875025257,0.001288787338862,-0.0012887863706916,0.0012887885060153,-0.0011740980695182,0.0011740955666996,-0.0011740946075827,0.0011740990320433,-0.001014907755203,0.001014905471225,-0.0010149044318126,0.0010149088606354,5.9599722153517e-09,-5.4521584295378e-09,-0.0015866630996161,0.0015866635705767,2.1010471081589e-09,-1.6213399325015e-09,-0.0019172162845358,0.0019172217827964,-0.0019172175427129,0.0019172205197514,-0.0019172200830348,0.001917217987344,-0.0019172213462414,0.0019172167204903,-0.0014177998206545,0.0014177879058898,-0.0014177886585784,0.0014177991017347,0.71252807896269,131329,3014,0.0043154180126291,0.0043154180127719,0.0065853761354003,22.519620709811,-5.9843034321509e-05,-5.9843034321509e-05,-5.9843034321509e-05,4669731.6055864,0.015334595791353
27819200,0.99449304694628,0.016030000451574,0.0047512993876415,0.004751299387907,0.0065274016760257,-0.0010376260937468,0.0010376262299326,-5.7537604096867e-09,5.9192496390455e-09,1.7460991577222e-09,-1.6518307506162e-09,-0.0012895095985692,0.0012895069510574,-0.0012895056942247,0.0012895108493057,-0.0012895106954084,0.0012895058195261,-0.0012895068072627,0.0012895097178897,-0.0011747198648403,0.0011747074896935,-0.0011747084237334,0.0011747188808232,-1.755866914709e-09,1.6567500729648e-09,-1.8618422801067e-09,1.6932989666379e-09,-0.0010376262318348,0.0010376260919412,-0.0012895094641928,0.0012895070392309,-0.001289508324043,0.0012895082157087,-0.0012895083445665,0.0012895081827386,-0.001289507212504,0.0012895093496111,-0.0011747149187667,0.0011747124167998,-0.0011747114557292,0.0011747158821128,-0.0010155335401217,0.0010155312523312,-0.0010155302117411,0.0010155346451195,6.0038074055108e-09,-5.4963204240074e-09,-0.0015874303407086,0.0015874308113582,2.0997888538625e-09,-1.6203967757849e-09,-0.0019181007061822,0.0019181062319262,-0.0019181019627313,0.0019181049707489,-0.0019181045328592,0.0019181024080803,-0.0019181057960371,0.0019181011404087,-0.0014185900551074,0.0014185780522252,-0.0014185788052031,0.0014185893386882,0.72383357199802,131329,3014,0.0043177705719298,0.0043177705721268,0.006588544822876,22.785605218258,-5.7715158253936e-05,-5.7715158253936e-05,-5.7715158253936e-05,4670742.4081862,0.01534259391544
28019200,0.99466634531912,0.016032875611252,0.0047521487673934,0.0047521487676589,0.0065285780761993,-0.0010381849859523,0.001038185122094,-5.7989374765583e-09,5.9643286820293e-09,1.7476853458829e-09,-1.653503536102e-09,-0.0012902415680976,0.0012902388920097,-0.0012902376340965,0.0012902428199091,-0.001290242666443,0.0012902377589408,-0.0012902387478244,0.0012902416877662,-0.0011753330446195,0.0011753205788832,-0.0011753215139371,0.0011753320592947,-1.7522875234947e-09,1.6528116488251e-09,-1.8621222888063e-09,1.6932137191632e-09,-0.0010381851241746,0.0010381849839709,-0.0012902414181263,0.0012902389957798,-0.0012902402783388,0.0012902401718958,-0.0012902403014145,0.0012902401363204,-0.0012902391688978,0.0012902413036401,-0.0011753280553762,0.001175325549167,-0.0011753245909033,0.001175329015684,-0.0010161632987695,0.0010161610168927,-0.0010161599766105,0.0010161644034287,6.05045494299e-09,-5.5430165996478e-09,-0.0015881972728944,0.0015881977434628,2.1008072355163e-09,-1.62148491719e-09,-0.0019189916780384,0.0019189972360132,-0.0019189929357807,0.0019189959736669,-0.001918995536312,0.0019189933805619,-0.001918996799795,0.0019189921125387,-0.0014193910124477,0.0014193789183952,-0.0014193796720395,0.0014193902953351,0.73612510499578,131329,3014,0.0043200958595974,0.0043200958598,0.0065917112173485,23.051557149881,-5.5587542800953e-05,-5.5587542800953e-05,-5.5587542800953e-05,4670538.3294004,0.015350535289163
28219200,0.99483622046616,0.016035748264963,0.0047529988109466,0.0047529988112121,0.0065297506428046,-0.001038618637293,0.0010386187737389,-5.8452050262341e-09,6.0107868433526e-09,1.7330426227375e-09,-1.6384564037521e-09,-0.0012908615763503,0.0012908588597433,-0.00129085761099,0.0012908628182005,-0.0012908626647991,0.0012908577367082,-0.0012908587148385,0.0012908616957362,-0.0011758168284971,0.0011758042829665,-0.0011758052076009,0.0011758158541816,-1.756143470739e-09,1.6569222482564e-09,-1.8610434551775e-09,1.6925211279639e-09,-0.0010386187755952,0.0010386186355299,-0.0012908614074068,0.0012908589829776,-0.001290860267757,0.0012908601581489,-0.001290860287563,0.0012908601258788,-0.0012908591551712,0.001290861291883,-0.0011758117961523,0.0011758092956624,-0.001175808334083,0.0011758127604549,-0.001016675087033,0.0010166727974076,-0.0010166717568327,0.0010166761907396,6.0952401970665e-09,-5.5890431139223e-09,-0.0015888334235372,0.001588833893161,2.1005576137009e-09,-1.6224088197595e-09,-0.0019197553367659,0.0019197609245317,-0.0019197565947474,0.001919759662107,-0.001919759224929,0.0019197570384565,-0.0019197604885436,0.0019197557698453,-0.0014200734803231,0.00142006129557,-0.0014200620512283,0.0014200727624653,0.7494891798056,131329,3014,0.004321902135329,0.0043219021355198,0.0065943356622885,23.251274870448,-5.3989801036412e-05,-5.3989801036412e-05,-5.3989801036412e-05,4667829.2852378,0.015356873153049
28419200,0.99500258033768,0.016038619392593,0.0047538499139621,0.0047538499142273,0.0065309195644036,-0.001039026245659,0.0010390263820594,-5.8905748810985e-09,6.0561683336851e-09,1.7409774622453e-09,-1.6465183502593e-09,-0.001291473313549,0.0012914705720593,-0.0012914693182537,0.0012914745611049,-0.0012914744074471,0.0012914694434821,-0.0012914704276235,0.0012914734333055,-0.0011762746937447,0.0011762620535069,-0.0011762629839079,0.0011762737135127,-1.7355522270102e-09,1.6350976972554e-09,-1.8625639456398e-09,1.6928977262149e-09,-0.0010390263844394,0.0010390262433765,-0.0012914731256554,0.0012914707139133,-0.0012914719856739,0.0012914718900625,-0.0012914720203717,0.0012914718427838,-0.0012914708877482,0.0012914730099888,-0.0011762696232416,0.0011762671048859,-0.0011762661590261,0.0011762705716226,-0.0010171724693898,0.001017170220801,-0.0010171691810784,0.0010171735730294,6.1420919980115e-09,-5.6350372297748e-09,-0.0015894488104261,0.0015894492807496,2.0999866450848e-09,-1.6210314293673e-09,-0.001920503617862,0.0019205092363607,-0.0019205048750993,0.0019205079745478,-0.001920507537216,0.0019205053196759,-0.0019205088002406,0.0019205040519558,-0.0014207487002414,0.0014207364261394,-0.0014207371798723,0.0014207479832473,0.76402417544215,131329,3014,0.0043236011803764,0.0043236011805755,0.0065968731814166,23.441875194251,-5.2464998445993e-05,-5.2464998445993e-05,-5.2464998445993e-05,4663733.9242574,0.015362905817696
28619200,0.99516543021626,0.016041449138968,0.0047546891569081,0.0047546891571733,0.0065320708248862,-0.0010394198228335,0.0010394199601654,-5.936652060884e-09,6.1031838156885e-09,1.7228767379748e-09,-1.6272956334707e-09,-0.0012920920698617,0.0012920892855252,-0.0012920880435005,0.0012920933057265,-0.0012920931510924,0.001292088169717,-0.0012920891403259,0.0012920921906035,-0.0011767171961692,0.0011767044783636,-0.0011767053953635,0.0011767162292797,-1.740725065597e-09,1.6405630222953e-09,-1.8619578687998e-09,1.6925236428923e-09,-0.0010394199619436,0.0010394198211529,-0.0012920918621402,0.0012920894471844,-0.0012920907224845,0.0012920906230883,-0.0012920907530862,0.0012920905799667,-0.0012920896209156,0.0012920917468371,-0.0011767120844334,0.0011767095710296,-0.0011767086213024,0.001176713036604,-0.0010176683743303,0.0010176661152531,-0.0010176650757623,0.0010176694779769,6.187356687618e-09,-5.6802477074493e-09,-0.0015900580804923,0.0015900585508169,2.1009598766767e-09,-1.6219719387236e-09,-0.0019212530606809,0.0019212587099028,-0.0019212543185481,0.0019212574474798,-0.0019212570101662,0.0019212547632475,-0.0019212582739583,0.0019212534948393,-0.0014214313180587,0.0014214189545493,-0.0014214197089149,0.001421430600442,0.76896080432559,131329,3014,0.0043252429083604,0.0043252429085596,0.0065993842657837,23.632256475966,-5.094194819227e-05,-5.094194819227e-05,-5.094194819227e-05,4658454.5099166,0.015368796102338
28819200,0.99532480065642,0.016044145064931,0.0047554866322785,0.0047554866325437,0.006533171800109,-0.0010398037975136,0.0010398039345201,-5.9821986157622e-09,6.1483810164745e-09,1.7283158719012e-09,-1.6331123211867e-09,-0.0012927066949669,0.0012927038840915,-0.0012927026383985,0.0012927079345103,-0.001292707780178,0.0012927027642467,-0.001292703739139,0.0012927068153993,-0.0011771444880861,0.0011771316772332,-0.0011771325981955,0.0011771435167959,-1.7233675758614e-09,1.6221430876293e-09,-1.8637624284318e-09,1.6933851407915e-09,-0.0010398039369046,0.0010398037952304,-0.0012927064687782,0.001292704064247,-0.0012927053282492,0.0012927052410309,-0.0012927053718294,0.0012927051848012,-0.0012927042387229,0.0012927063526027,-0.0011771393376861,0.0011771368085499,-0.0011771358716818,0.0011771402766615,-0.0010181559974344,0.0010181537734121,-0.0010181527338465,0.0010181571009219,6.2337838916517e-09,-5.726634576774e-09,-0.0015906588680949,0.0015906593384075,2.1007662267397e-09,-1.6217500283557e-09,-0.0019219954928183,0.0019220011727957,-0.0019219967505232,0.0019219999105002,-0.0019219994732775,0.001921997195134,-0.0019220007368368,0.0019219959269016,-0.0014221077536855,0.0014220952995982,-0.0014220960535986,0.0014221070363095,0.74978435829384,131329,3014,0.0043268448638548,0.0043268448640618,0.0066018600309392,23.824856197528,-4.9401150419777e-05,-4.9401150419777e-05,-4.9401150419777e-05,4653267.8225401,0.015374569748838
29019200,0.99548184330992,0.016046656606551,0.0047562254699968,0.004756225470262,0.0065342056662924,-0.0010404032956274,0.0010404034314514,-6.0360840135414e-09,6.1995560018785e-09,1.7262605539839e-09,-1.6329433703186e-09,-0.0012935114621668,0.0012935086149499,-0.0012935073677365,0.0012935127013276,-0.0012935125457551,0.001293507497665,-0.0012935084703122,0.0012935115796906,-0.0011777890969844,0.0011777761907089,-0.0011777771106089,0.0011777881250115,-1.7241098108911e-09,1.6212493616802e-09,-1.8746359063184e-09,1.702093004278e-09,-0.0010404034349855,0.0010404032922592,-0.0012935112218118,0.0012935088097576,-0.0012935100720484,0.001293509994031,-0.001293510123474,0.0012935099315496,-0.0012935089844983,0.0012935111016542,-0.0011777839038423,0.0011777813609163,-0.0011777804252634,0.001177784840963,-0.0010188453622882,0.0010188431494203,-0.0010188421043471,0.0010188464686658,6.2719165661365e-09,-5.7670549531357e-09,-0.001591482139896,0.001591482608064,2.0962060916075e-09,-1.6194452095899e-09,-0.0019229523955972,0.0019229580957026,-0.0019229536501906,0.0019229568384581,-0.0019229564008203,0.0019229540939273,-0.0019229576636655,0.0019229528247744,-0.0014229843507731,0.0014229718161714,-0.0014229725672488,0.001422983639152,0.71130254665227,131329,3014,0.0043293396477939,0.0043293396481391,0.0066052579257958,24.140889278144,-4.6872885774845e-05,-4.6872885774845e-05,-4.6872885774845e-05,4653163.501487,0.015383091204862
29219200,0.99563650853359,0.016049070318136,0.0047569338076467,0.004756933807911,0.006535202702578,-0.0010410227135262,0.0010410228507741,-6.0761233571905e-09,6.2422362306151e-09,1.7236396162576e-09,-1.6283181049408e-09,-0.0012942665942886,0.0012942637175615,-0.0012942624746652,0.0012942678308464,-0.0012942676758683,0.0012942626014602,-0.00129426357267,0.0012942667145214,-0.0011784472262948,0.0011784342369196,-0.0011784351547003,0.0011784462588612,-1.7269254593048e-09,1.6257328768056e-09,-1.8715339729889e-09,1.7011064319526e-09,-0.0010410228530077,0.0010410227113925,-0.001294266339089,0.0012942639267424,-0.001294265192992,0.0012942651089469,-0.001294265239262,0.0012942650502401,-0.0012942641014755,0.0012942662224936,-0.001178441992032,0.0011784394518118,-0.0011784385129093,0.0011784429338154,-0.0010195179939439,0.0010195157692578,-0.001019514724938,0.0010195191023912,6.3230723195398e-09,-5.8169252409856e-09,-0.0015922973585789,0.0015922978281131,2.1051779018778e-09,-1.6272203050661e-09,-0.0019238739993789,0.0019238797419637,-0.0019238752604643,0.0019238784765455,-0.0019238780396146,0.0019238757045946,-0.0019238793071865,0.0019238744321859,-0.0014238135596645,0.001423800923455,-0.0014238016815853,0.0014238128385181,0.69516968373459,131329,3014,0.0043319136910947,0.0043319136912987,0.0066086262838845,24.459646768085,-4.4322825855317e-05,-4.4322825855317e-05,-4.4322825855317e-05,4657605.0803543,0.015391740205125
29419200,0.99578872361053,0.016051283591592,0.0047575781320624,0.0047575781323268,0.0065361273272028,-0.0010416476967266,0.0010416478339359,-6.121382573376e-09,6.2876035607331e-09,1.7240984875335e-09,-1.6287210048678e-09,-0.0012949937027206,0.0012949907961748,-0.0012949895530106,0.0012949949395835,-0.0012949947847614,0.0012949896795991,-0.0012949906511697,0.0012949938231102,-0.0011791059260311,0.0011790928470498,-0.0011790937649652,0.0011791049581234,-1.7269084363204e-09,1.6257887150943e-09,-1.8740316024753e-09,1.7036690355939e-09,-0.0010416478361652,0.0010416476945973,-0.0012949934333791,0.0012949910195068,-0.0012949922857403,0.0012949922032997,-0.0012949923336893,0.0012949921428312,-0.0012949911940606,0.0012949933170033,-0.0011791006496975,0.0011790981039816,-0.0011790971648377,0.0011791015914176,-0.0010201724213898,0.0010201701979326,-0.0010201691517248,0.001020173531622,6.3695307790893e-09,-5.8634766780476e-09,-0.0015931032696195,0.0015931037389242,2.1087827336938e-09,-1.6309489811282e-09,-0.0019247742236325,0.0019247799993076,-0.0019247754871158,0.0019247787313676,-0.0019247782948443,0.0019247759308518,-0.0019247795646161,0.0019247746562843,-0.0014246093157915,0.0014245965866612,-0.0014245973474036,0.0014246085920903,0.65089858932994,131329,3014,0.0043345091705852,0.0043345091707893,0.006611958146604,24.778497892407,-4.1772016860741e-05,-4.1772016860741e-05,-4.1772016860741e-05,4663960.6170734,0.015400394446886
29619200,0.99593833688047,0.016053426825447,0.0047582010549904,0.0047582010552547,0.0065370247152017,-0.0010422776410909,0.0010422777781995,-6.1669248673255e-09,6.3330742943393e-09,1.7245459218941e-09,-1.629271980477e-09,-0.0012956426816117,0.0012956397451518,-0.0012956385017351,0.0012956439187883,-0.0012956437641842,0.0012956386281044,-0.0012956396001143,0.0012956428021007,-0.0011797669583875,0.0011797537895986,-0.0011797547082777,0.0011797659905867,-1.726693746436e-09,1.625616734714e-09,-1.8762580062915e-09,1.7060614146909e-09,-0.0010422777804674,0.001042277638907,-0.0012956423979818,0.0012956399828112,-0.0012956412489915,0.0012956411680223,-0.0012956412985824,0.0012956411058396,-0.0012956401573112,0.0012956422817098,-0.0011797616394012,0.0011797590890428,-0.0011797581499461,0.0011797625818744,-0.0010207900430214,0.0010207878211423,-0.0010207867731192,0.0010207911547255,6.4156449905671e-09,-5.9100370454839e-09,-0.0015938799584509,0.0015938804274434,2.1117065827546e-09,-1.6343232541935e-09,-0.0019256126800646,0.0019256184887248,-0.00192561394579,0.0019256172185599,-0.001925616782316,0.0019256143892779,-0.0019256180540034,0.0019256131127131,-0.0014253298627341,0.0014253170405401,-0.001425317804255,0.0014253291365361,0.64191387577655,131329,3014,0.0043371213286784,0.0043371213288493,0.0066151735218978,25.088104651942,-3.9295162784467e-05,-3.9295162784467e-05,-3.9295162784467e-05,4675124.6177343,0.015408960502066
29819200,0.99608479453084,0.016055652894362,0.0047588522990692,0.0047588522993335,0.0065379482959593,-0.0010428222319889,0.0010428223694848,-6.2125768089842e-09,6.3791973219007e-09,1.7236141975341e-09,-1.6278553867236e-09,-0.0012961795844506,0.0012961766169291,-0.0012961753739336,0.0012961808210086,-0.0012961806662657,0.0012961755006835,-0.0012961764714617,0.0012961797053022,-0.0011803481358763,0.0011803348782489,-0.0011803357955727,0.0011803471689881,-1.7245697124431e-09,1.6236434761519e-09,-1.8774047213065e-09,1.707353357269e-09,-0.0010428223715043,0.0010428222300622,-0.0012961792849393,0.0012961768704345,-0.0012961781350971,0.0012961780563237,-0.001296178186939,0.0012961779921379,-0.0012961770447003,0.0012961791688499,-0.0011803427743147,0.0011803402201229,-0.0011803392822823,0.0011803437151904,-0.0010213118667931,0.0010213096498359,-0.0010213086011573,0.0010213129797313,6.4616119080152e-09,-5.9559701544354e-09,-0.0015945513253744,0.0015945517942805,2.113013485712e-09,-1.6356106323356e-09,-0.0019263336149717,0.0019263394548727,-0.0019263348815892,0.001926338183778,-0.0019263377478759,0.001926335324703,-0.0019263390204859,0.0019263340475012,-0.0014259347226416,0.0014259218097112,-0.0014259225738384,0.0014259339950622,0.67837705020475,131329,3014,0.0043393784594589,0.004339378459648,0.0066179542643618,25.340257070341,-3.7277943437272e-05,-3.7277943437272e-05,-3.7277943437272e-05,4685716.9996501,0.015416363723202
30019200,0.99622806825123,0.016057865561301,0.0047595003979169,0.0047595003981812,0.0065388647652033,-0.0010433526159049,0.0010433527532932,-6.2586598948834e-09,6.4251297674019e-09,1.7218152712842e-09,-1.6261939338916e-09,-0.0012967705960604,0.0012967675966182,-0.0012967663549227,0.0012967718314963,-0.0012967716766912,0.0012967664814976,-0.0012967674513262,0.0012967707168071,-0.001180928743142,0.0011809153965717,-0.0011809163129621,0.0011809277773214,-1.7241519756843e-09,1.6229683239704e-09,-1.8785564116342e-09,1.708245771426e-09,-0.0010433527554674,0.0010433526138234,-0.0012967702808278,0.0012967678658335,-0.0012967691303688,0.0012967690525208,-0.0012967691831534,0.0012967689871438,-0.0012967680403853,0.0012967701645693,-0.0011809233385494,0.0011809207817299,-0.0011809198445403,0.0011809242788719,-0.001021853572752,0.0010218513572871,-0.001021850308069,0.0010218546859933,6.5073869355607e-09,-6.0018469758712e-09,-0.0015952319776181,0.0015952324464757,2.1140290620103e-09,-1.6367413215879e-09,-0.0019270907308815,0.0019270966020964,-0.001927091998179,0.0019270953302943,-0.00192709489431,0.0019270924414242,-0.0019270961676138,0.0019270911633602,-0.0014265825461282,0.0014265695424928,-0.0014265703077082,0.0014265818180467,0.68873091632667,131329,3014,0.0043415802597062,0.0043415802598949,0.0066207696917492,25.591137749108,-3.5270898007139e-05,-3.5270898007139e-05,-3.5270898007139e-05,4691134.7670668,0.015423693885055
30219200,0.99636814405215,0.016059932329942,0.0047601025467192,0.0047601025469835,0.0065397272362389,-0.0010438725547636,0.0010438726921825,-6.304584144635e-09,6.4710834708419e-09,1.7210534695861e-09,-1.6253894624676e-09,-0.0012973729993643,0.0012973699688066,-0.0012973687276145,0.0012973742343175,-0.0012973740794731,0.0012973688541923,-0.0012973698234815,0.0012973731201493,-0.0011814982330146,0.0011814847970418,-0.0011814857127687,0.0011814972675753,-1.7234934225115e-09,1.6222331312168e-09,-1.879456103885e-09,1.7090460192318e-09,-0.0010438726943702,0.0010438725526714,-0.0012973726686303,0.0012973702535095,-0.0012973715176231,0.0012973714407674,-0.0012973715714246,0.0012973713743472,-0.0012973704280974,0.0012973725523626,-0.0011814927848933,0.0011814902257607,-0.0011814892890752,0.001181493724478,-0.0010223929584448,0.001022390744809,-0.001022389695129,0.0010223940721944,6.5532754806383e-09,-6.0477434718236e-09,-0.0015959083846127,0.0015959088534059,2.1149638765406e-09,-1.6376998400117e-09,-0.0019278530649207,0.0019278589672471,-0.0019278543328429,0.0019278576948175,-0.0019278572589482,0.0019278547760024,-0.0019278585328703,0.0019278534973111,-0.0014272351908734,0.0014272220967156,-0.00142722286251,0.0014272344621429,0.66008314204122,131329,3014,0.0043437397577511,0.0043437397579456,0.0066235665312311,25.841974656755,-3.3264202745958e-05,-3.3264202745958e-05,-3.3264202745958e-05,4695118.6499156,0.015430920590694
30419200,0.99650530705045,0.016061841691402,0.0047606550916704,0.0047606550919347,0.0065405315077967,-0.0010444634115311,0.0010444635489187,-6.3507796439824e-09,6.5171469265761e-09,1.7196300055426e-09,-1.6240332192823e-09,-0.0012979987577119,0.0012979956954501,-0.0012979944550868,0.001297999991727,-0.0012979998368535,0.0012979945817871,-0.0012979955501022,0.0012979988783306,-0.0011821356619102,0.0011821221367451,-0.0011821230510566,0.0011821346968307,-1.7276480596302e-09,1.6263739281429e-09,-1.8808535829949e-09,1.7102597564487e-09,-0.0010444635511046,0.0010444634094543,-0.0012979984128877,0.0012979959942729,-0.0012979972608904,0.001297997182416,-0.0012979973128268,0.0012979971178451,-0.0012979961686237,0.0012979982965658,-0.0011821301691994,0.0011821276100662,-0.0011821266706684,0.0011821311106577,-0.0010229784484454,0.0010229762277525,-0.0010229751774481,0.0010229795631677,6.5989619689474e-09,-6.0934583714412e-09,-0.0015966414588078,0.0015966419274534,2.1164104821714e-09,-1.639211536301e-09,-0.0019286545478927,0.0019286604813375,-0.0019286558167559,0.0019286592080255,-0.0019286587722662,0.0019286562596307,-0.0019286600472428,0.0019286549798629,-0.0014279151303297,0.0014279019457151,-0.0014279027120255,0.001427914400787,0.62526528963755,131329,3014,0.0043461911508229,0.0043461911510464,0.0066266004409145,26.129987854506,-3.0960097163955e-05,-3.0960097163955e-05,-3.0960097163955e-05,4703364.4420087,0.015438978476682
30619200,0.99664035261431,0.01606384456583,0.004761239061381,0.0047612390616452,0.0065413664428035,-0.0010452646673454,0.0010452648045042,-6.396522026937e-09,6.5627403687278e-09,1.7290182411796e-09,-1.6336988140344e-09,-0.0012987761142435,0.0012987730277104,-0.0012987717813321,0.0012987773542939,-0.0012987771998088,0.0012987719076048,-0.0012987728824723,0.0012987762348052,-0.0011829953272204,0.0011829817056581,-0.0011829826266566,0.0011829943557315,-1.7296921873344e-09,1.6287080750698e-09,-1.8839056492908e-09,1.7136141583855e-09,-0.0010452648066882,0.0010452646652637,-0.0012987757588946,0.0012987733369664,-0.0012987746049469,0.0012987745271094,-0.0012987746575392,0.0012987744619712,-0.0012987735110883,0.0012987756430442,-0.0011829897886701,0.0011829872247496,-0.0011829862836569,0.0011829907320849,-0.0010237519154332,0.0010237496923798,-0.0010237486397823,0.001023753032644,6.64504923966e-09,-6.1398226952783e-09,-0.0015975796394998,0.0015975801078765,2.1193982324859e-09,-1.6425098497163e-09,-0.0019296383457015,0.0019296443119199,-0.0019296396168281,0.0019296430363501,-0.0019296426010772,0.0019296400593031,-0.0019296438780456,0.0019296387776489,-0.0014287693610403,0.001428756083703,-0.001428756852476,0.0014287686287948,0.66318231786246,131329,3014,0.0043495129224777,0.0043495129226865,0.0066304859344381,26.524408416123,-2.7804732671014e-05,-2.7804732671014e-05,-2.7804732671014e-05,4717742.7341797,0.015449666056191
30819200,0.99677319940947,0.016065907158535,0.0047618430647316,0.0047618430649958,0.0065422210288079,-0.0010460589685744,0.0010460591054698,-6.4426825011779e-09,6.6086584386093e-09,1.733569408821e-09,-1.6385474668526e-09,-0.0012996241324656,0.0012996210180635,-0.001299619768866,0.001299625375438,-0.0012996252211234,0.0012996198948256,-0.0012996208731762,0.0012996242527435,-0.0011838634237942,0.0011838497087984,-0.0011838506334109,0.0011838624490357,-1.735505120582e-09,1.6348629041377e-09,-1.8864677639598e-09,1.7164790626484e-09,-0.0010460591076623,0.0010460589664792,-0.0012996237659783,0.0012996213384288,-0.001299622610248,0.0012996225304628,-0.0012996226606373,0.0012996224674433,-0.0012996215124965,0.0012996236503467,-0.0011838578390405,0.0011838552742007,-0.0011838543288585,0.0011838587869856,-0.0010245573898169,0.0010245551571646,-0.0010245541022543,0.0010245585090548,6.6908191168923e-09,-6.1857496755347e-09,-0.001598541526978,0.0015985419952426,2.1220832039324e-09,-1.6453652556915e-09,-0.0019306766014124,0.0019306825999765,-0.0019306778743305,0.0019306813225647,-0.0019306808873162,0.0019306783168469,-0.0019306821661473,0.0019306770332651,-0.0014296853532536,0.0014296719838647,-0.0014296727550073,0.0014296846191216,0.69236329710187,131329,3014,0.0043528098740769,0.0043528098742754,0.006634465270566,26.921191852386,-2.4630465180914e-05,-2.4630465180914e-05,-2.4630465180914e-05,4726425.0530715,0.015460403024771
31019200,0.99690375063938,0.016067995666585,0.0047624562778378,0.004762456278102,0.0065430831106455,-0.0010468391060241,0.0010468392427653,-6.4887481298458e-09,6.6545906818226e-09,1.737959429003e-09,-1.6431194786808e-09,-0.0013005159450015,0.0013005128027469,-0.0013005115507291,0.001300517190809,-0.001300517036636,0.0013005116765284,-0.0013005126580322,0.0013005160651247,-0.0011847233621283,0.0011847095539832,-0.0011847104818225,0.0011847223843072,-1.7401983498676e-09,1.6398445798057e-09,-1.8887190271719e-09,1.7189920664728e-09,-0.0010468392449209,0.001046839103962,-0.0013005155668862,0.0013005131347178,-0.0013005144095779,0.0013005143283579,-0.0013005144583458,0.0013005142669753,-0.0013005133086382,0.0013005154514725,-0.0011847177313623,0.0011847151653898,-0.0011847142166284,0.0011847186828917,-0.0010253783186955,0.0010253760784135,-0.0010253750216456,0.0010253794398034,6.7365847528423e-09,-6.2317536746735e-09,-0.0015995168758024,0.0015995173438488,2.1243515822233e-09,-1.6478949767043e-09,-0.0019317494054939,0.0019317554360374,-0.0019317506799949,0.0019317541570274,-0.0019317537219665,0.0019317511223417,-0.0019317550024271,0.0019317498371531,-0.0014306473883119,0.0014306339270745,-0.0014306347001108,0.0014306466522625,0.71215833659347,131329,3014,0.0043560509161488,0.0043560509163393,0.0066384971596144,27.318056742033,-2.1455546063732e-05,-2.1455546063732e-05,-2.1455546063732e-05,4731042.9452624,0.015471082968662
31219200,0.99703303777717,0.016070166930966,0.0047630966520577,0.0047630966523218,0.0065439736265867,-0.0010478767988782,0.0010478769284687,-6.5393026458518e-09,6.6956484537123e-09,1.8039906112369e-09,-1.7182779500234e-09,-0.0013017152629756,0.0013017121332081,-0.0013017108369996,0.0013017165512641,-0.0013017164021758,0.0013017109594184,-0.0013017119921152,0.0013017153751912,-0.001185855942338,0.0011858419932035,-0.0011858429732926,0.0011858549084124,-1.69116478135e-09,1.5840895387016e-09,-1.9008015082622e-09,1.7240291363596e-09,-0.0010478769368881,0.001047876790666,-0.0013017148784676,0.0013017124725988,-0.0013017137143609,0.0013017136713453,-0.001301713804256,0.0013017135682834,-0.0013017126480945,0.0013017147551389,-0.0011858502674974,0.0011858476455146,-0.0011858467365877,0.0011858511765363,-0.0010264892207348,0.0010264870837277,-0.0010264860245374,0.0010264903369145,6.7807885036246e-09,-6.2796296328605e-09,-0.001600800737697,0.0016008012024919,2.1243545328684e-09,-1.6515625297219e-09,-0.0019331499991907,0.0019331560593607,-0.0019331512757848,0.0019331547804518,-0.0019331543461864,0.0019331517150269,-0.0019331556269792,0.0019331504252951,-0.0014319436084879,0.0014319300534587,-0.0014319308318966,0.001431942878379,0.74546031263719,131329,3014,0.004360362885585,0.0043603628860172,0.0066438029353785,27.867815647234,-1.7057474822126e-05,-1.7057474822126e-05,-1.7057474822126e-05,4736203.2596203,0.015485233912666
31419200,0.99716101320302,0.016072214503999,0.0047636972542176,0.0047636972544808,0.006544819995301,-0.0010489161775075,0.0010489163143359,-6.5809659004797e-09,6.7464944668133e-09,1.737202423129e-09,-1.6425362025288e-09,-0.0013029843528846,0.0013029811488644,-0.0013029798973845,0.0013029855980897,-0.0013029854439154,0.0013029800232729,-0.0013029810037508,0.0013029844733061,-0.0011869875842054,0.0011869735956819,-0.0011869745233214,0.0011869866065026,-1.772719211042e-09,1.6737621300504e-09,-1.8971265203403e-09,1.7283336957985e-09,-0.0010489163158521,0.0010489161760961,-0.0013029839572229,0.0013029814982476,-0.0013029827942356,0.0013029826975275,-0.001302982826553,0.0013029826528785,-0.0013029816708403,0.0013029838432898,-0.0011869818607526,0.0011869792997587,-0.001186978328377,0.0011869828350305,-0.001027633535091,0.0010276312356013,-0.001027630172308,0.0010276346633074,6.8277156419739e-09,-6.3241767928577e-09,-0.0016021184752278,0.0016021189421687,2.1343086877758e-09,-1.6592850841561e-09,-0.0019346138014398,0.0019346198995057,-0.0019346150834378,0.0019346186131556,-0.0019346181792773,0.0019346155244724,-0.0019346194668593,0.0019346142321529,-0.0014333058212445,0.0014332921723978,-0.0014332929539859,0.0014333050778007,0.7124263178395,131329,3014,0.0043646848390309,0.0043646848392449,0.0066492454594682,28.435956273545,-1.251234981164e-05,-1.251234981164e-05,-1.251234981164e-05,4737990.85459,0.015499547175501
31619200,0.99728748972668,0.016074141728809,0.0047642595969664,0.0047642595972297,0.0065456225346132,-0.0010499552226417,0.0010499553590569,-6.627052611327e-09,6.7923300388033e-09,1.7430452226649e-09,-1.6487393758497e-09,-0.0013041967615975,0.0013041935310629,-0.0013041922754109,0.0013041980109395,-0.0013041978571765,0.0013041924009426,-0.0013041933862926,0.00130419688161,-0.0011881050539506,0.0011880909716319,-0.0011880919026848,0.0011881040719748,-1.7774386347934e-09,1.6788695755251e-09,-1.9008526435842e-09,1.7323535810549e-09,-0.001049955360635,0.0010499552211651,-0.001304196355304,0.0013041938911722,-0.001304195189669,0.0013041950930777,-0.0013041952218429,0.0013041950484964,-0.0013041940634225,0.0013041962414786,-0.0011880992853846,0.0011880967206697,-0.0011880957449413,0.0011881002633519,-0.001028749835592,0.0010287475301597,-0.0010287464634684,0.0010287509667712,6.8736160105727e-09,-6.3701880540688e-09,-0.0016034173003012,0.0016034177668998,2.1382825047314e-09,-1.6634142141023e-09,-0.0019360363666561,0.0019360424974678,-0.0019360376512351,0.0019360412086404,-0.0019360407751411,0.0019360380918844,-0.001936042065156,0.0019360367969087,-0.0014346211143677,0.0014346073729238,-0.0014346081568451,0.0014346203678596,0.68057768578873,131329,3014,0.0043690023859093,0.0043690023861166,0.0066546127008758,29.004545675164,-7.9636345986906e-06,-7.9636345986906e-06,-7.9636345986906e-06,4744427.3016745,0.01551377174028
31819200,0.9974101408689,0.016075944469755,0.004764783422516,0.0047647834227792,0.0065463776244598,-0.0010504640464091,0.0010504641820351,-6.6724960385909e-09,6.8371349028102e-09,1.7646265048127e-09,-1.6711726113239e-09,-0.0013047923916037,0.0013047891448519,-0.0013047878753253,0.0013047936544737,-0.0013047935018949,0.0013047879999664,-0.0013047890005813,0.0013047925107069,-0.0011886588564402,0.0011886446700044,-0.0011886456170816,0.0011886578598818,-1.7358254681238e-09,1.635389302586e-09,-1.89820521588e-09,1.7284358072485e-09,-0.0010504641848454,0.0010504640436899,-0.0013047919629072,0.001304789527549,-0.0013047907994183,0.0013047907269462,-0.0013047908576189,0.0013047906562758,-0.0013047897010058,0.0013047918470995,-0.001188653047132,0.0011886504592408,-0.001188649513495,0.0011886539964385,-0.0010292858594428,0.001029283633519,-0.0010292825702596,0.0010292869865939,6.9202624659084e-09,-6.4169453690179e-09,-0.0016040992048984,0.0016040996716348,2.1325190717121e-09,-1.6576319571286e-09,-0.0019368031039578,0.0019368092624158,-0.0019368043848157,0.0019368079773559,-0.001936807543611,0.0019368048254446,-0.0019368088295433,0.0019368035344968,-0.0014352860197534,0.0014352721906203,-0.0014352729713806,0.0014352852766623,0.65805654833604,131329,3014,0.0043711159007159,0.0043711159009015,0.0066574316765333,29.266295642657,-5.869634858743e-06,-5.869634858743e-06,-5.869634858743e-06,4748766.5001085,0.015520928103397
32019200,0.99752735259388,0.016077834907626,0.0047653384285831,0.0047653384288463,0.0065471580501961,-0.0010505601693187,0.0010505603066004,-6.7200738088874e-09,6.8860526734058e-09,1.7034003600236e-09,-1.6079900666543e-09,-0.001304898606118,0.0013048952870128,-0.0013048940569212,0.001304899829933,-0.0013048996744405,0.0013048941842998,-0.0013048951420437,0.0013048987260783,-0.00118878237345,0.0011887681383029,-0.0011887690427185,0.001188781419772,-1.7567267689618e-09,1.6566280963051e-09,-1.8864290590452e-09,1.716845701001e-09,-0.0010505603084253,0.0010505601675899,-0.0013048981446039,0.0013048957027694,-0.0013048969880934,0.0013048968954775,-0.0013048970244935,0.001304896846076,-0.0013048958768,0.0013048980280387,-0.0011887765199599,0.0011887739719046,-0.0011887730119003,0.0011887774835757,-0.0010293736525214,0.0010293713799171,-0.0010293703231605,0.0010293747711126,6.9639488300259e-09,-6.4602882627457e-09,-0.0016042946757159,0.0016042951430651,2.1228780800024e-09,-1.6475129045528e-09,-0.0019370451917896,0.0019370513728971,-0.0019370464651208,0.0019370500953176,-0.0019370496594596,0.0019370469078782,-0.0019370509395984,0.0019370456220422,-0.001435445119605,0.0014354312095011,-0.0014354319840433,0.0014354443848372,0.71766340572428,131329,3014,0.0043715137550722,0.0043715137552682,0.0066582416750231,29.28104262637,-5.751658989037e-06,-5.751658989037e-06,-5.751658989037e-06,4750839.801166,0.015522556730662
32219200,0.9976393256148,0.016079682691435,0.004765881947599,0.004765881947862,0.0065479187959743,-0.0010506234610929,0.0010506235984503,-6.7639251965517e-09,6.9301829476092e-09,1.7175246049787e-09,-1.6219956307351e-09,-0.0013050742715732,0.0013050709327956,-0.0013050696938528,0.0013050755042561,-0.0013050753496376,0.0013050698202704,-0.0013050707871752,0.0013050743924934,-0.0011888832573815,0.0011888689246255,-0.0011888698378458,0.0011888822943576,-1.7072242058386e-09,1.6048291813403e-09,-1.8774186891887e-09,1.7059748927712e-09,-0.0010506236011529,0.0010506234584875,-0.0013050737806905,0.0013050713777851,-0.0013050726315538,0.0013050725630849,-0.0013050726948208,0.0013050724870692,-0.0013050715529244,0.0013050736635006,-0.001188877364493,0.0011888747979073,-0.0011888738732874,0.0011888782921717,-0.0010294791320826,0.001029476948382,-0.001029475901216,0.0010294802428781,7.0125629340748e-09,-6.507225049565e-09,-0.001604490347929,0.0016044908166679,2.1126883498799e-09,-1.6356092310254e-09,-0.0019373233867827,0.0019373295940552,-0.0019373246535564,0.0019373283230653,-0.0019373278872865,0.0019373250965833,-0.0019373291593218,0.0019373238192899,-0.0014356623100764,0.0014356483176245,-0.001435649082145,0.0014356615828714,0.73340853760475,131329,3014,0.0043717805951241,0.0043717805953225,0.0066590469969772,29.290229228024,-5.6781661758102e-06,-5.6781661758102e-06,-5.6781661758102e-06,4745152.5307432,0.015523920326291
32419200,0.99774628956922,0.016081493241467,0.0047664158617519,0.0047664158620149,0.0065486615176999,-0.0010506720137179,0.0010506721526778,-6.8103137781183e-09,6.9781787293122e-09,1.6826645751052e-09,-1.5851998286745e-09,-0.0013052630309409,0.0013052596377917,-0.0013052584212368,0.001305264241286,-0.0013052640846631,0.0013052585498027,-0.0013052594912417,0.0013052631530272,-0.0011889664499781,0.0011889520515785,-0.0011889529396927,0.0011889655123972,-1.710723774719e-09,1.6085757086089e-09,-1.8668616186792e-09,1.6956922516901e-09,-0.0010506721544512,0.0010506720120396,-0.0013052625108124,0.0013052601121022,-0.0013052613680848,0.0013052612909857,-0.0013052614219622,0.0013052612244268,-0.0013052602875157,0.0013052623934257,-0.0011889605120788,0.0011889579699296,-0.0011889570428559,0.0011889614424338,-0.0010295872378632,0.0010295850416006,-0.0010295840012874,0.0010295883420043,7.0575154683352e-09,-6.55138257323e-09,-0.0016046789704142,0.0016046794399926,2.1034685598617e-09,-1.6255110392535e-09,-0.0019376040846934,0.0019376103155322,-0.0019376053444466,0.0019376090514685,-0.0019376086143155,0.0019376057889126,-0.0019376098805328,0.0019376045176405,-0.0014358923464607,0.001435878272416,-0.0014358790299414,0.0014358916265535,0.75109427399743,131329,3014,0.0043719875422363,0.00437198754243,0.0066598216562841,29.299223313459,-5.6062134923264e-06,-5.6062134923264e-06,-5.6062134923264e-06,4737991.2635971,0.015525132291773
32619200,0.99784820439855,0.016083085144575,0.0047668814178718,0.0047668814181348,0.0065493223085681,-0.0010506154077177,0.001050615546116,-6.85165122617e-09,7.0193241633474e-09,1.7103016719873e-09,-1.6133775540703e-09,-0.0013053757255027,0.0013053723247052,-0.0013053710901917,0.0013053769539218,-0.0013053767998371,0.001305371215963,-0.0013053721773009,0.0013053758488468,-0.0011889335062001,0.0011889190024929,-0.0011889199104307,0.0011889325500311,-1.6574016529166e-09,1.553310979561e-09,-1.8570470069579e-09,1.6846278474647e-09,-0.0010506155490165,0.0010506154048867,-0.0013053751799154,0.001305372824351,-0.0013053740459339,0.0013053739945677,-0.001305374129415,0.0013053738985516,-0.0013053730001643,0.0013053750627896,-0.0011889275265512,0.0011889249622075,-0.0011889240732985,0.0011889284199476,-0.0010296024861898,0.0010296003831088,-0.0010295993514917,0.0010296035822371,7.1085948289546e-09,-6.6013109522464e-09,-0.0016047622719031,0.0016047627425727,2.0952889025388e-09,-1.6161068218989e-09,-0.0019377894765462,0.0019377957378474,-0.0019377907319888,0.0019377944777123,-0.0019377940417117,0.0019377911757721,-0.0019377953003975,0.0019377899126515,-0.0014360339263363,0.0014360197650975,-0.0014360205151629,0.001436033211506,0.69653888238861,131329,3014,0.0043717593970469,0.0043717593971867,0.0066601589948637,29.262844161124,-5.8972467110112e-06,-5.8972467110112e-06,-5.8972467110112e-06,4728445.3071609,0.015525017576417
32819200,0.99794519601378,0.016084479515819,0.0047672856447171,0.0047672856449802,0.0065499082261217,-0.0010505336796807,0.0010505338177586,-6.8978949501618e-09,7.0650084524885e-09,1.7023685339863e-09,-1.6058632652443e-09,-0.001305361048414,0.0013053576110611,-0.0013053563823569,0.0013053622711861,-0.0013053621170315,0.0013053565080912,-0.0013053574638428,0.0013053611714293,-0.0011888601188405,0.001188845530035,-0.001188846433106,0.0011888591670078,-1.6476357095384e-09,1.5426043124696e-09,-1.8493743793767e-09,1.6759737540835e-09,-0.0010505338211982,0.0010505336763194,-0.0013053604791027,0.0013053581345946,-0.0013053593504982,0.0013053592995238,-0.0013053594346808,0.0013053592024734,-0.0013053583109644,0.0013053603610211,-0.0011888540927497,0.0011888515365967,-0.0011888506550734,0.0011888549779753,-0.0010295424203562,0.001029540330703,-0.0010295393045944,0.0010295435093886,7.1546484451659e-09,-6.6468302305461e-09,-0.0016047714612187,0.0016047719324829,2.0867241738324e-09,-1.6068996899057e-09,-0.0019378584652962,0.0019378647515833,-0.0019378597147472,0.0019378634976607,-0.0019378630606991,0.0019378601594667,-0.0019378643133084,0.001937858901748,-0.0014360484061859,0.0014360341621507,-0.0014360349067871,0.0014360476997273,0.64446137284199,131329,3014,0.0043714219503089,0.0043714219504673,0.0066601950643537,29.204331798454,-6.3653456123673e-06,-6.3653456123673e-06,-6.3653456123673e-06,4725517.7532669,0.015524369362488
33019200,0.99803751329262,0.016085919573123,0.0047677072769212,0.0047677072771843,0.0065505050190179,-0.0010504895803608,0.0010504897197893,-6.9463951806896e-09,7.1147958276948e-09,1.671821764228e-09,-1.5737103068186e-09,-0.0013052728601299,0.0013052693692714,-0.0013052681600039,0.0013052740632943,-0.0013052739067487,0.0013052682884384,-0.0013052692219063,0.0013052729831611,-0.0011888197590408,0.0011888050999033,-0.0011888059804887,0.0011888188293233,-1.6673998112728e-09,1.563190260208e-09,-1.8420013996524e-09,1.6692988099588e-09,-0.0010504897221709,0.0010504895780794,-0.00130527226864,0.0013052699150608,-0.0013052711433961,0.001305271076447,-0.0013052712095407,0.0013052709975316,-0.0013052700915973,0.0013052721500347,-0.0011888136820426,0.0011888111574316,-0.0011888102615877,0.0011888145812322,-0.0010294670983018,0.0010294649685411,-0.0010294639467862,0.0010294681834959,7.1975619787751e-09,-6.6891610079581e-09,-0.0016047712510094,0.0016047717228707,2.079211241465e-09,-1.5987222257511e-09,-0.0019378694437913,0.001937875752585,-0.001937870686773,0.001937874505115,-0.0019378740662502,0.0019378711331868,-0.0019378753148853,0.0019378698794871,-0.0014360019385738,0.0014359876133707,-0.0014359883518907,0.0014360012377317,0.69524137075477,131329,3014,0.0043712354622953,0.0043712354624993,0.0066601979793648,29.14531628054,-6.8374697556795e-06,-6.8374697556795e-06,-6.8374697556795e-06,4729153.4821024,0.015523988955537
33219200,0.99812539455333,0.016087361740917,0.004768131616262,0.0047681316165251,0.00655109850813,-0.001050431746596,0.0010504318859575,-6.9920948967122e-09,7.1604178283269e-09,1.6716011405561e-09,-1.5735594478684e-09,-0.0013052599561188,0.0013052564347339,-0.0013052552257039,0.0013052611590686,-0.0013052610027199,0.0013052553539415,-0.0013052562873514,0.0013052600792221,-0.0011887792410331,0.0011887644924999,-0.0011887653725404,0.0011887783112147,-1.6630576432376e-09,1.5587195120253e-09,-1.8357927787907e-09,1.6629256721864e-09,-0.0010504318884197,0.0010504317442281,-0.0013052593458504,0.0013052569993722,-0.0013052582248789,0.0013052581564369,-0.0013052582897565,0.0013052580788039,-0.0013052571758612,0.0013052592272348,-0.0011887731148594,0.0011887705992279,-0.0011887697061419,0.0011887740107005,-0.0010294212268455,0.0010294191014018,-0.001029418083867,0.001029422307786,7.2440421889542e-09,-6.7348770037776e-09,-0.0016047858494803,0.0016047863220054,2.0734095920249e-09,-1.5921034756552e-09,-0.0019379289453026,0.0019379352813724,-0.0019379301843511,0.0019379340380006,-0.0019379335986932,0.0019379306311951,-0.0019379348430031,0.0019379293817155,-0.0014360163583559,0.0014360019482061,-0.0014360026814039,0.0014360156623112,0.7292279237807,131329,3014,0.0043709966244703,0.0043709966246623,0.0066602573510091,29.086283310238,-7.3097335180987e-06,-7.3097335180987e-06,-7.3097335180987e-06,4726131.3849484,0.015523564813993
33419200,0.99821042196466,0.016088784672081,0.0047685510578805,0.0047685510581436,0.0065516825560569,-0.0010508586762088,0.0010508588140831,-7.0405566030639e-09,7.2076240629148e-09,1.7175152132362e-09,-1.621301343651e-09,-0.0013058158452282,0.0013058123203842,-0.0013058110820787,0.0013058170779207,-0.0013058169217365,0.0013058112092701,-0.0013058121758348,0.0013058159660448,-0.0011892493569677,0.0011892344842244,-0.0011892353971414,0.0011892483933665,-1.6452522588504e-09,1.5397914555898e-09,-1.8412978331009e-09,1.6674216761055e-09,-0.0010508588176907,0.0010508586727047,-0.0013058152294329,0.0013058128900367,-0.0013058141042892,0.0013058140517452,-0.0013058141847834,0.0013058139585386,-0.0013058130689204,0.0013058151099082,-0.0011892431796135,0.0011892406429564,-0.0011892397634715,0.0011892440608973,-0.0010299075076948,0.0010299054233271,-0.0010299044047015,0.0010299085920485,7.2886878392956e-09,-6.7781504764498e-09,-0.0016053552415211,0.0016053557150273,2.0716231706871e-09,-1.5890244359531e-09,-0.0019385794447582,0.0019385858078702,-0.0019385806809515,0.0019385845670585,-0.0019385841265124,0.0019385811297009,-0.0019385853703698,0.0019385798812783,-0.0014366211661616,0.0014366066699054,-0.0014366073996317,0.0014366204719532,0.74278654203983,131329,3014,0.0043727730742007,0.0043727730744111,0.0066626079661574,29.312235532519,-5.5021157398462e-06,-5.5021157398462e-06,-5.5021157398462e-06,4724662.9408525,0.015529564626591
33619200,0.99829298814787,0.016090166879643,0.0047689584551318,0.004768958455395,0.0065522499691164,-0.0010514021004814,0.0010514022426121,-7.0792062953423e-09,7.2496577928132e-09,1.6315861556923e-09,-1.5306138581796e-09,-0.0013065236805542,0.0013065200784326,-0.0013065188930779,0.0013065248590808,-0.0013065247018568,0.0013065190240052,-0.0013065199252437,0.0013065238094039,-0.0011898388380329,0.0011898239432251,-0.0011898247920795,0.0011898379393769,-1.7679525344281e-09,1.6694265847594e-09,-1.8320953695593e-09,1.6637251068145e-09,-0.0010514022411561,0.0010514021020571,-0.0013065230612942,0.001306520651625,-0.0013065219431289,0.0013065218052557,-0.0013065219361479,0.001306521801958,-0.0013065208207821,0.0013065229506658,-0.0011898325999393,0.0011898301591444,-0.0011898291895609,0.0011898335729039,-0.0010305288794767,0.001030526541082,-0.0010305255212802,0.0010305299653195,7.3389030710782e-09,-6.8307487578437e-09,-0.0016060723529017,0.0016060728241283,2.0850204395568e-09,-1.6049138684242e-09,-0.0019393935239881,0.0019393999324686,-0.0019393947740375,0.0019393986791368,-0.00193939824389,0.0019393952170368,-0.0019393994949612,0.0019393939616053,-0.0014373894952601,0.0014373748958503,-0.0014373756345071,0.0014373887910342,0.74303043832334,131329,3014,0.0043750342931213,0.0043750342933673,0.0066655681270706,29.614148872716,-3.0868090182717e-06,-3.0868090182717e-06,-3.0868090182717e-06,4723672.6548961,0.015537169391084
33819200,0.998373102827,0.016091512201827,0.0047693550706054,0.0047693550708684,0.0065528020603528,-0.001051936665035,0.0010519368000436,-7.1354403935469e-09,7.2993586865438e-09,1.7713161451253e-09,-1.6785732930911e-09,-0.0013072272718429,0.0013072237199429,-0.0013072224457308,0.0013072285399524,-0.0013072283860084,0.001307222571053,-0.0013072235779899,0.0013072273890297,-0.0011904170569683,0.0011904019640875,-0.001190402916354,0.0011904160544448,-1.6639831673783e-09,1.5595005419852e-09,-1.8518057435799e-09,1.6786062829042e-09,-0.001051936804769,0.0010519366604102,-0.0013072266519228,0.0013072242938389,-0.0013072255188088,0.0013072254630967,-0.0013072255950673,0.0013072253742168,-0.0013072244720577,0.0013072265318429,-0.0011904107718992,0.0011904082295837,-0.0011904073363194,0.0011904116677695,-0.0010311460941065,0.0010311439826011,-0.0010311429548848,0.0010311471857397,7.3779573645258e-09,-6.869374784198e-09,-0.0016067827958704,0.0016067832677105,2.0779960996456e-09,-1.5973767203553e-09,-0.0019402025896168,0.0019402090155953,-0.0019402038301181,0.0019402077708057,-0.001940207330848,0.0019402042776327,-0.0019402085796711,0.0019402030236218,-0.0014381553592687,0.0014381406785181,-0.0014381414149271,0.0014381546596526,0.7451777052643,131329,3014,0.0043772588938659,0.004377258894071,0.0066685002588597,29.917824418197,-6.5740465442013e-07,-6.5740465442013e-07,-6.5740465442013e-07,4722934.681538,0.015544671113641
34019200,0.99845077031923,0.016092777461871,0.0047697269101442,0.0047697269104073,0.0065533236413195,-0.0010524610239656,0.001052461161595,-7.1759668424917e-09,7.342565603661e-09,1.7190168366274e-09,-1.6231965521066e-09,-0.0013079235438233,0.0013079199311725,-0.0013079186918534,0.0013079247770573,-0.0013079246226856,0.0013079188179611,-0.0013079197849142,0.0013079236656804,-0.0011909816786474,0.0011909665366538,-0.001190967450931,0.0011909807144814,-1.7494619919837e-09,1.6497995766047e-09,-1.8479742436691e-09,1.6788406632157e-09,-0.0010524611629897,0.001052461022666,-0.0013079229199517,0.0013079205089913,-0.0013079217901602,0.0013079216749329,-0.0013079218051709,0.0013079216477361,-0.0013079206815968,0.001307922805932,-0.0011909753386668,0.0011909728570963,-0.0011909719015401,0.0011909762971205,-0.0010317554372426,0.001031753149012,-0.0010317521187675,0.0010317565322332,7.4274475726927e-09,-6.9197082261342e-09,-0.0016074842129395,0.0016074846839575,2.0900565896176e-09,-1.6103927604301e-09,-0.0019410030867297,0.0019410095565004,-0.0019410043381661,0.0019410083007692,-0.0019410078635406,0.0019410047828788,-0.0019410091194277,0.0019410035222097,-0.0014389142146692,0.0014388994314109,-0.0014389001776948,0.0014389135057665,0.72426546560144,131329,3014,0.0043794411887964,0.00437944118899,0.0066713948557129,30.221561342775,1.7724907422018e-06,1.7724907422018e-06,1.7724907422018e-06,4722247.99228,0.015552048717931
34219200,0.99852729942919,0.016093990636055,0.0047700824684982,0.0047700824687613,0.0065538256987951,-0.0010535307881601,0.0010535309233871,-7.2200396693912e-09,7.3823937475267e-09,1.6769062787819e-09,-1.5842440317852e-09,-0.0013091517482492,0.0013091480820184,-0.0013091468680856,0.0013091529524176,-0.0013091528027581,0.0013091469933806,-0.0013091479329995,0.0013091518667631,-0.0011921148775535,0.0011920996757339,-0.0011921005585814,0.0011921139350093,-1.8399598042951e-09,1.7414276185301e-09,-1.8528220724197e-09,1.683127592355e-09,-0.0010535309253623,0.0010535307864367,-0.0013091511279962,0.0013091486586435,-0.0013091499948495,0.0013091498241573,-0.0013091499527268,0.0013091498530826,-0.0013091488220007,0.0013091510120297,-0.00119210848297,0.0011921060487658,-0.0011921050292391,0.0011921094978978,-0.0010329096304637,0.0010329071637687,-0.001032906127814,0.0010329107257527,7.4744449942479e-09,-6.9722774472394e-09,-0.0016087792203189,0.0016087796858953,2.1069920998671e-09,-1.6330380165449e-09,-0.0019423942107713,0.001942400723659,-0.0019423954777574,0.001942399454299,-0.0019423990206442,0.0019423959130836,-0.0019424002869335,0.0019423946385311,-0.0014402456305361,0.0014402307384846,-0.0014402315027126,0.001440244910936,0.70594350073495,131329,3014,0.0043838856224929,0.0043838856230219,0.0066767461618737,30.833620075454,6.6689606036348e-06,6.6689606036348e-06,6.6689606036348e-06,4730336.3937875,0.01556651473831
34419200,0.99860269321498,0.016095190675325,0.0047704342564266,0.004770434256689,0.0065543221622097,-0.0010546638744641,0.0010546640083544,-7.2727771865315e-09,7.4355329518664e-09,1.8076413996196e-09,-1.7166260526348e-09,-0.0013104140611913,0.001310410442117,-0.0013104091446879,0.0013104153527191,-0.0013104152004843,0.00131040926786,-0.0013104103008318,0.0013104141779218,-0.0011933126548111,0.0011932972663013,-0.0011932982446054,0.0011933116264195,-1.7495732901826e-09,1.6493659306427e-09,-1.8781931954223e-09,1.7083069385622e-09,-0.0010546640118737,0.0010546638710536,-0.0013104134439377,0.0013104110127887,-0.0013104122929966,0.0013104122001833,-0.0013104123296081,0.0013104121514057,-0.0013104111875424,0.0013104133286645,-0.0011933062199299,0.0011933036820273,-0.0011933027275216,0.0011933071775305,-0.0010341107755348,0.001034108512664,-0.0010341074637692,0.0010341118904606,7.5154634032225e-09,-7.0094458810633e-09,-0.0016101368644648,0.0016101373338177,2.1083579290243e-09,-1.6306765926553e-09,-0.0019438375136759,0.0019438440513082,-0.0019438387760136,0.0019438427847104,-0.0019438423481,0.0019438392202612,-0.0019438436175868,0.0019438379459925,-0.0014416185346051,0.0014416035603191,-0.0014416043197491,0.0014416178104588,0.7086795984839,131329,3014,0.0043885913221886,0.0043885913224101,0.0066823581716344,31.477532838343,1.1820262706742e-05,1.1820262706742e-05,1.1820262706742e-05,4741259.1166715,0.015581774816193
34619200,0.99867681509644,0.016096419101785,0.0047707957286121,0.0047707957288745,0.0065548276442982,-0.0010557985153652,0.0010557986520189,-7.3117781426085e-09,7.477243550048e-09,1.7375741585963e-09,-1.6430919948733e-09,-0.00131168081233,0.0013116771227089,-0.0013116758709781,0.001311682057668,-0.0013116819052422,0.0013116759953123,-0.0013116769761388,0.0013116809339453,-0.0011945160274364,0.0011945006042041,-0.0011945015314998,0.0011945150489838,-1.8487074306426e-09,1.7537666396146e-09,-1.8772884014294e-09,1.7117002525581e-09,-0.0010557986519783,0.0010557985155178,-0.0013116801914543,0.0013116776973593,-0.001311679041828,0.0013116788829973,-0.0013116790104095,0.0013116789023968,-0.0013116778650459,0.0013116800821151,-0.0011945095431136,0.0011945070688715,-0.001194506041877,0.0011945105723611,-0.0010353156540046,0.0010353131886746,-0.0010353121338932,0.0010353167741294,7.5660616557159e-09,-7.0618477643983e-09,-0.0016115004058814,0.0016115008733042,2.12936219827e-09,-1.6536408183787e-09,-0.0019452879793847,0.0019452945674161,-0.0019452892592319,0.001945293283378,-0.001945292850425,0.0019452896990601,-0.001945294132837,0.001945288411931,-0.0014429986293559,0.0014429835433605,-0.0014429843200292,0.0014429978895822,0.73613740086133,131329,3014,0.0043933036841861,0.0043933036844151,0.00668799435743,32.122237359484,1.697789887587e-05,1.697789887587e-05,1.697789887587e-05,4751653.8775168,0.015597073551615
34819200,0.99875067147216,0.016097653849458,0.0047711591594695,0.004771159159732,0.0065553355302562,-0.0010574188050493,0.0010574189373703,-7.365827621434e-09,7.5269433509297e-09,1.8350834974588e-09,-1.7458769601573e-09,-0.0013135081906732,0.0013135045277987,-0.0013135032124821,0.0013135094996645,-0.0013135093488089,0.0013135033345661,-0.0013135043873224,0.0013135083057137,-0.0011962354815624,0.0011962198921722,-0.0011962208901443,0.0011962344319105,-1.7846617990229e-09,1.6855973980132e-09,-1.9056861570629e-09,1.7365508524808e-09,-0.0010574189411787,0.0010574188013671,-0.0013135075720423,0.0013135050998817,-0.0013135064024681,0.0013135063056585,-0.0013135064338128,0.0013135062619759,-0.0013135052729338,0.0013135074574164,-0.0011962289608877,0.0011962263930925,-0.0011962254136381,0.0011962299424304,-0.001037049125392,0.0010370468114992,-0.0010370457429607,0.0010370502596042,7.6058421983299e-09,-7.1022097086039e-09,-0.0016134316374594,0.001613432104166,2.1348641378072e-09,-1.6598530382173e-09,-0.0019473388600089,0.0019473454748546,-0.0019473401411129,0.001947344189667,-0.0019473437553744,0.0019473405824747,-0.0019473450433743,0.0019473392894225,-0.00144497316595,0.0014449579913351,-0.0014449587718659,0.0014449724218777,0.74236048763153,131329,3014,0.004400034570142,0.0044000345704012,0.0066959753748673,33.053416380496,2.4427331043966e-05,2.4427331043966e-05,2.4427331043966e-05,4764249.0062124,0.015618857603207
35019200,0.99882441461999,0.016098849240915,0.0047715096574105,0.004771509657673,0.0065558299258314,-0.0010591997276789,0.00105919986025,-7.4107763906918e-09,7.5722298851042e-09,1.8326425826741e-09,-1.7431268611121e-09,-0.0013155272542805,0.0013155235593728,-0.0013155222465553,0.0013155285608186,-0.0013155284102555,0.0013155223682764,-0.001315523418317,0.0013155273699493,-0.0011981246219925,0.0011981089446526,-0.0011981099409748,0.001198123573733,-1.809120138731e-09,1.7113870422951e-09,-1.9191231213725e-09,1.7510522707436e-09,-0.0010591998634138,0.0010591997246372,-0.0013155266323055,0.0013155241347556,-0.0013155254540834,0.0013155253493034,-0.0013155254769293,0.0013155253139859,-0.0013155243064837,0.0013155265191424,-0.0011981180630433,0.0011981154840749,-0.0011981144872681,0.0011981190617406,-0.0010389607218037,0.0010389583662559,-0.0010389572872424,0.0010389618663446,7.652008545568e-09,-7.1497307259282e-09,-0.0016155575498309,0.0016155580151455,2.1517805517871e-09,-1.6782965200463e-09,-0.001949601478038,0.001949608135734,-0.0019496027718275,0.0019496068377461,-0.0019496064052863,0.0019496032112763,-0.0019496077050146,0.0019496019065635,-0.0014471482580022,0.0014471329790293,-0.0014471337733065,0.0014471475007927,0.72136489614241,131329,3014,0.0044074332723269,0.0044074332725769,0.0067047600655186,34.085671690316,3.2685373522529e-05,3.2685373522529e-05,3.2685373522529e-05,4777949.7133996,0.015642815840956
35219200,0.99889776187435,0.016100004157762,0.0047718470639209,0.0047718470641834,0.006556310029658,-0.0010609836498772,0.0010609837829223,-7.4554040863463e-09,7.6173589421484e-09,1.8239449317932e-09,-1.7338552774997e-09,-0.0013175179701077,0.0013175142400132,-0.0013175129327866,0.001317519271094,-0.0013175191203652,0.0013175130545794,-0.0013175140982423,0.0013175180864962,-0.0012000163570623,0.0012000005976664,-0.0012000015871928,0.0012000153154054,-1.8267755766665e-09,1.730117834755e-09,-1.9309003945472e-09,1.7637087434373e-09,-0.0010609837854604,0.00106098364746,-0.0013175173401505,0.0013175148233131,-0.0013175161541633,0.0013175160457527,-0.001317516172959,0.0013175160143605,-0.0013175149941626,0.0013175172280198,-0.0012000097628622,0.0012000071722899,-0.0012000061621261,0.0012000107749088,-0.0010408602633907,0.0010408578805205,-0.0010408567921883,0.0010408614168789,7.6984871413846e-09,-7.1974061723584e-09,-0.0016176795505313,0.001617680014607,2.1662303915014e-09,-1.6940880103036e-09,-0.0019518505292031,0.0019518572274081,-0.001951851833313,0.0019518559190201,-0.0019518554880985,0.0019518522712548,-0.0019518567975624,0.0019518509567171,-0.0014492982667734,0.0014492828851212,-0.0014492836909257,0.0014492974983501,0.70214230557086,131329,3014,0.0044148428073373,0.0044148428075846,0.0067135300214539,35.120253929133,4.0962031433065e-05,4.0962031433065e-05,4.0962031433065e-05,4794025.8730899,0.015666779684604
35419200,0.99896956297176,0.016101099109624,0.0047721656265984,0.0047721656268608,0.0065567678561651,-0.0010623810212812,0.0010623811569392,-7.5007129893669e-09,7.6655374319168e-09,1.7849877254385e-09,-1.6916266686723e-09,-0.001319068048131,0.0013190642621893,-0.0013190629782814,0.0013190693232924,-0.0013190691717625,0.0013190631044068,-0.0013190641173433,0.0013190681658464,-0.0012015011174214,0.0012014852989178,-0.0012014862589185,0.0012015001098512,-1.8401845452953e-09,1.7464038180805e-09,-1.9324010441101e-09,1.7689213593932e-09,-0.0010623811570138,0.0010623810212782,-0.0013190673960895,0.0013190648686945,-0.0013190662064247,0.0013190660923583,-0.0013190662184149,0.0013190660693083,-0.0013190650359525,0.0013190672835386,-0.0012014944865416,0.0012014919067188,-0.001201490883736,0.0012014955165086,-0.001042341143394,0.001042338738921,-0.0010423376456583,0.0010423423022669,7.7417714933127e-09,-7.2444740157034e-09,-0.0016193590396051,0.0016193595008344,2.1718745199007e-09,-1.7033447001651e-09,-0.0019536350286593,0.0019536417592916,-0.0019536363376925,0.0019536404464573,-0.0019536400168393,0.0019536367722276,-0.00195364133168,0.0019536354529339,-0.0014509842524344,0.0014509687719951,-0.0014509695861148,0.0014509834733551,0.68162298707447,131329,3014,0.0044206459799673,0.0044206459801144,0.0067204718172467,35.931951577295,4.7455612618358e-05,4.7455612618358e-05,4.7455612618358e-05,4807751.7950518,0.015685621651863
35619200,0.99903900586464,0.016102117402445,0.0047724604126932,0.0047724604129555,0.0065571965767964,-0.0010634931126299,0.0010634932477122,-7.5464974328012e-09,7.7106642037955e-09,1.7834696249331e-09,-1.6908967533531e-09,-0.0013202751734356,0.0013202713563591,-0.0013202700745111,0.0013202764487262,-0.0013202762965644,0.0013202701985392,-0.0013202712127999,0.0013202752918255,-0.0012026861065967,0.0012026701973459,-0.0012026711582114,0.0012026850974225,-1.7928009682582e-09,1.6953568403523e-09,-1.9341483610419e-09,1.7669543710209e-09,-0.0010634932496049,0.0010634931108313,-0.0013202744901677,0.0013202719933251,-0.0013202733018383,0.0013202732177697,-0.0013202733462036,0.0013202731610826,-0.0013202721650259,0.0013202743768365,-0.0012026794512803,0.0012026768324809,-0.0012026758458139,0.001202680443284,-0.0010435036686274,0.0010435013559752,-0.0010435002654557,0.0010435048237339,7.7893721197933e-09,-7.2898455291642e-09,-0.0016207034573838,0.0016207039205275,2.1698506855216e-09,-1.6992035700561e-09,-0.0019550593852002,0.0019550661467367,-0.0019550606921027,0.0019550648355933,-0.0019550644052095,0.0019550611294421,-0.0019550657174317,0.0019550598122373,-0.0014523110605901,0.0014522954941393,-0.0014522963051282,0.0014523102868089,0.65729900350341,131329,3014,0.0044252628801529,0.0044252628803452,0.0067260302885207,36.575945175596,5.2607561404766e-05,5.2607561404766e-05,5.2607561404766e-05,4820427.9757923,0.015700646688642
35819200,0.999105977876,0.016103161873103,0.0047727648844147,0.0047727648846771,0.0065576321040113,-0.0010646168811972,0.0010646170174859,-7.5920689436817e-09,7.7573373016703e-09,1.7537424080203e-09,-1.6597065192228e-09,-0.0013214407130707,0.0013214368460549,-0.0013214355833247,0.0013214419693289,-0.001321441815833,0.0013214357087265,-0.0013214367014541,0.0013214408326672,-0.0012038861026126,0.001203870124465,-0.0012038710638736,0.0012038851141289,-1.771763550504e-09,1.6728317169868e-09,-1.9310279659882e-09,1.762515851428e-09,-0.001064617019318,0.001064616879462,-0.0013214399968951,0.0013214375160059,-0.0013214388110223,0.0013214387380819,-0.0013214388672101,0.00132143866938,-0.0013214376887116,0.0013214398825257,-0.0012038794171454,0.00120387678985,-0.0012038758191822,0.0012038803924833,-0.0010446528803029,0.0010446506066599,-0.0010446495202683,0.0010446540316297,7.8354320146951e-09,-7.335340368034e-09,-0.0016220398428699,0.0016220403064031,2.1667217922248e-09,-1.6955185977178e-09,-0.0019564528711032,0.0019564596611211,-0.0019564541756284,0.0019564583523025,-0.0019564579214813,0.0019564546134693,-0.0019564592316541,0.0019564532984114,-0.0014536038722114,0.0014535882187259,-0.0014535890265241,0.001453603101238,0.69619236293975,131329,3014,0.0044299258514843,0.004429925851682,0.0067315582692551,37.216137731894,5.7729101855155e-05,5.7729101855155e-05,5.7729101855155e-05,4835774.2911698,0.015715732334629
36019200,0.99917039288942,0.016104227342164,0.0047730772100225,0.0047730772102848,0.0065580729218568,-0.0010657265623486,0.001065726699425,-7.6375760321184e-09,7.8036105960529e-09,1.7345664329508e-09,-1.6395391094997e-09,-0.0013226648448798,0.0013226609349746,-0.0013226596846441,0.0013226660887899,-0.0013226659346055,0.0013226598107114,-0.0013226607895696,0.0013226649653583,-0.0012050819302846,0.0012050658759624,-0.0012050668011366,0.0012050809553162,-1.742061599486e-09,1.6414900920364e-09,-1.9273799437591e-09,1.7574617373311e-09,-0.0010657267015336,0.0010657265603452,-0.0013226640962965,0.0013226616374027,-0.0013226629134153,0.0013226628565234,-0.0013226629868868,0.001322662770362,-0.001322661811221,0.0013226639807285,-0.0012050752135271,0.0012050725726625,-0.0012050716234985,0.0012050761667103,-0.0010458246036104,0.0010458223853102,-0.0010458213031918,0.0010458257503408,7.8817354419807e-09,-7.381053621702e-09,-0.0016233900445957,0.0016233905085959,2.1619590772225e-09,-1.6901405164262e-09,-0.0019578873524047,0.0019578941701436,-0.0019578886536168,0.0019578928646066,-0.0019578924335654,0.0019578890917784,-0.0019578937402306,0.0019578877801565,-0.001454950496909,0.0014549347575705,-0.001454935561256,0.0014549497299569,0.7358631109569,131329,3014,0.0044345340436208,0.0044345340438356,0.0067371395832786,37.856197808484,6.2849582467871e-05,6.2849582467871e-05,6.2849582467871e-05,4845679.7187824,0.015730765436465
36219200,0.99923007933891,0.016105182453861,0.004773355990511,0.0047733559907733,0.0065584704725767,-0.0010656323789731,0.0010656325186391,-7.68140709858e-09,7.8500199007511e-09,1.6743720810234e-09,-1.576066795153e-09,-0.0013227087946632,0.0013227048162967,-0.0013227036047011,0.001322709999854,-0.001322709843734,0.0013227037330765,-0.0013227046682489,0.0013227089181524,-0.0012050146032778,0.0012049985034662,-0.0012049993851607,0.0012050136723863,-1.7100736110796e-09,1.6084810817901e-09,-1.907681483472e-09,1.7370073276596e-09,-0.0010656325199358,0.0010656323777685,-0.0013227079949313,0.0013227055702048,-0.0013227068257015,0.0013227067755629,-0.0013227069073798,0.0013227066811945,-0.0013227057446702,0.0013227078785092,-0.001205007855611,0.0012050052308193,-0.0012050043040506,0.0012050087867989,-0.0010457916653955,0.001045789496029,-0.0010457884272273,0.0010457927975565,7.9290745688029e-09,-7.4270684049231e-09,-0.0016234290046789,0.001623429470096,2.1464146088012e-09,-1.6730786600072e-09,-0.0019580129452044,0.0019580197850334,-0.0019580142358778,0.0019580184899809,-0.0019580180578727,0.0019580146752481,-0.001958019353346,0.0019580133748427,-0.0014550291808422,0.0014550133631089,-0.0014550141547607,0.001455028425855,0.71361056376108,131329,3014,0.0044341488295581,0.0044341488297452,0.0067372945207229,37.827199774864,6.2617598198912e-05,6.2617598198912e-05,6.2617598198912e-05,4837221.780907,0.015730144971279
36419200,0.99928452839407,0.016106041892418,0.0047736065882328,0.0047736065884951,0.0065588287156898,-0.0010650078147492,0.0010650079551744,-7.7275833210457e-09,7.8969151348398e-09,1.6500673413989e-09,-1.5507480507115e-09,-0.0013221454700203,0.0013221414447144,-0.0013221402487655,0.0013221466596082,-0.0013221465025319,0.0013221403781839,-0.0013221412962798,0.0013221455940288,-0.0012043898318257,0.0012043736591185,-0.0012043745236801,0.0012043889186423,-1.6418130059208e-09,1.5367191495091e-09,-1.8909416157573e-09,1.7174199165778e-09,-0.0010650079575447,0.0010650078124597,-0.0013221446191552,0.0013221422500661,-0.0013221434616453,0.0013221434436111,-0.0013221435778854,0.0013221433144001,-0.0013221424274558,0.0013221444993697,-0.0012043830542252,0.0012043804164342,-0.0012043795390911,0.0012043839363538,-0.0010451928401119,0.0010451907940986,-0.0010451897399994,0.0010451939569488,7.9748589711797e-09,-7.4717307726949e-09,-0.0016228695307482,0.0016228699974186,2.1244027033968e-09,-1.6497045099537e-09,-0.0019575000394064,0.001957506895133,-0.0019575013145533,0.0019575056156003,-0.0019575051819132,0.0019575017555905,-0.0019575064623492,0.0019575004700426,-0.0014544901001624,0.001454474209317,-0.0014544749850595,0.0014544893616176,0.70434021237656,131329,3014,0.0044315596834112,0.0044315596835748,0.006734977181177,37.495719115488,5.99657529239e-05,5.99657529239e-05,5.99657529239e-05,4826175.8308311,0.015722532561769
36619200,0.99933424399365,0.016106782073657,0.004773821071115,0.0047738210713773,0.0065591399311646,-0.0010643809864621,0.0010643811290043,-7.7725172534038e-09,7.9439833993484e-09,1.6006980395678e-09,-1.4988246078194e-09,-0.001321547080324,0.0013215429924723,-0.0013215418284412,0.0013215482381054,-0.0013215480790251,0.0013215419599345,-0.0013215428421792,0.0013215472064673,-0.0012037582270964,0.0012037419999814,-0.001203742828593,0.001203757349104,-1.6242339372819e-09,1.5180935347809e-09,-1.8705560000606e-09,1.6963099772661e-09,-0.0010643811306501,0.0010643809849109,-0.0013215461857013,0.0013215438417223,-0.0013215450419677,0.0013215450214847,-0.0013215451562433,0.0013215448941952,-0.0013215440196479,0.0013215460653541,-0.0012037514086479,0.0012037487984029,-0.0012037479338983,0.0012037522771171,-0.0010445755596336,0.0010445735340638,-0.0010445724952496,0.0010445766617351,8.0211786098524e-09,-7.5169178919653e-09,-0.0016222860997199,0.001622286567432,2.1074194954869e-09,-1.6314327422908e-09,-0.0019569450706476,0.0019569519461117,-0.0019569463340178,0.0019569506782025,-0.0019569502436383,0.0019569467760809,-0.001956951512465,0.0019569455022624,-0.0014539150302625,0.0014538990626223,-0.0014538998251094,0.0014539143044018,0.66675282167157,131329,3014,0.0044289596462553,0.0044289596464479,0.0067325624466232,37.157296222169,5.7258369777351e-05,5.7258369777351e-05,5.7258369777351e-05,4816650.23524,0.015714797887371
36819200,0.99937969441162,0.016107440306624,0.0047740113039374,0.0047740113041997,0.0065594176984865,-0.0010637797851799,0.0010637799283275,-7.8182926638788e-09,7.9903271172855e-09,1.5840419771343e-09,-1.4813994784099e-09,-0.0013208944278729,0.0013208902986487,-0.0013208891452653,0.0013208955750593,-0.0013208954153557,0.0013208892774323,-0.0013208901478588,0.0013208945546355,-0.0012031452612658,0.0012031289563436,-0.0012031297726735,0.00120314439534,-1.594379520122e-09,1.4866590888408e-09,-1.854139478558e-09,1.6786286453e-09,-0.0010637799302897,0.0010637797833138,-0.0013208934973442,0.001320891183966,-0.0013208923648551,0.0013208923524335,-0.0013208924882573,0.0013208922159272,-0.0013208913629991,0.0013208933757023,-0.0012031383979467,0.001203135799697,-0.0012031349565087,0.0012031392447488,-0.0010439427829791,0.0010439408050909,-0.0010439397789441,0.0010439438721998,8.0674359847802e-09,-7.562063108104e-09,-0.001621689977366,0.0016216904461634,2.0895517400404e-09,-1.612263953737e-09,-0.0019563428851048,0.0019563497796138,-0.0019563441360387,0.0019563485241705,-0.0019563480885667,0.0019563445792126,-0.0019563493449843,0.0019563433177125,-0.0014532864588527,0.001453270415066,-0.0014532711639749,0.0014532857465673,0.64957835053417,131329,3014,0.0044264621106836,0.0044264621108795,0.0067300995036115,36.818630717853,5.4549045742825e-05,5.4549045742825e-05,5.4549045742825e-05,4812214.9477515,0.015707218691362
37019200,0.99942248360087,0.016108101204318,0.0047742038311722,0.0047742038314344,0.006559693541711,-0.0010641460915054,0.0010641462335404,-7.8644458635772e-09,8.035380545993e-09,1.6077248726381e-09,-1.5064707235005e-09,-0.0013212172263294,0.0013212130819975,-0.0013212119135871,0.0013212183886023,-0.0013212182301303,0.0013212120443318,-0.0013212129320112,0.0013212173521925,-0.0012035452800277,0.0012035288677155,-0.0012035297011545,0.0012035443963831,-1.6067508877717e-09,1.4994216091605e-09,-1.8455829143573e-09,1.6704333796471e-09,-0.0010641462358304,0.0010641460893166,-0.0013212162892609,0.0013212139737802,-0.0013212151625822,0.001321215136439,-0.0013212152719706,0.0013212150139689,-0.0013212141520559,0.0013212161684184,-0.0012035383510738,0.0012035357770708,-0.0012035349249718,0.0012035392061037,-0.001044291463501,0.0010442894547198,-0.0010442884343313,0.0010442925476474,8.1139750922777e-09,-7.6079313623309e-09,-0.0016221108709704,0.0016221113403463,2.0813841999061e-09,-1.6033500579916e-09,-0.0019567686891629,0.0019567756094899,-0.0019567699346377,0.0019567743595026,-0.001956773923637,0.0019567703780505,-0.0019567751741155,0.001956769122475,-0.0014536579418173,0.0014536418146764,-0.0014536425572219,0.0014536572361719,0.68961816924331,131329,3014,0.0044279790799485,0.0044279790801552,0.0067318439728314,37.016532602847,5.6132260822778e-05,5.6132260822778e-05,5.6132260822778e-05,4819929.4418309,0.015712068322112
37219200,0.99946300766797,0.016108769673458,0.0047743998628954,0.0047743998631577,0.0065599699474051,-0.00106472510177,0.0010647252420918,-7.9115962986932e-09,8.0807218467297e-09,1.6467242884386e-09,-1.5475844504162e-09,-0.0013218507248459,0.0013218465746826,-0.001321845381018,0.0013218519123756,-0.0013218517550767,0.0013218455104487,-0.0013218464263677,0.0013218508488898,-0.0012041746934936,0.0012041581630237,-0.0012041590245711,0.0012041737810018,-1.6333354403387e-09,1.5273585660972e-09,-1.8413052228347e-09,1.6670845835303e-09,-0.0010647252446706,0.0010647250993048,-0.0013218497919858,0.001321847462005,-0.0013218486675852,0.0013218486223637,-0.0013218487565755,0.0013218485206682,-0.0013218476394389,0.0013218496723143,-0.0012041676916355,0.0012041651449172,-0.001204164273525,0.0012041685653418,-0.0010448997621108,0.0010448976991728,-0.0010448966804228,0.0010449008451925,8.1598363935405e-09,-7.6532194519874e-09,-0.001622790966652,0.001622791436426,2.0763299718387e-09,-1.5977068532112e-09,-0.0019574965416748,0.0019575034887612,-0.001957497783382,0.0019575022426321,-0.0019575018063595,0.0019574982272811,-0.0019575030535939,0.0019574969750787,-0.001454330534615,0.0014543143219022,-0.0014543150596758,0.0014543298332926,0.73362544520553,131329,3014,0.0044303831984812,0.0044303831987136,0.0067346559057981,37.343581990561,5.8748655924488e-05,5.8748655924488e-05,5.8748655924488e-05,4824552.7300238,0.01571980951242
37419200,0.99950134131533,0.016109358743103,0.0047745712162085,0.0047745712164707,0.0065602163104239,-0.0010652799656476,0.0010652801048442,-7.9581364009839e-09,8.1262625162582e-09,1.6719313522625e-09,-1.5741034214563e-09,-0.0013225477219573,0.0013225435570963,-0.001322542347498,0.0013225489254665,-0.0013225487693458,0.0013225424755383,-0.0013225434099245,0.0013225478447447,-0.0012047814762745,0.0012047648369689,-0.0012047657173262,0.0012047805454217,-1.679317207338e-09,1.5761657271362e-09,-1.8367501189959e-09,1.6648650770791e-09,-0.0010652801068752,0.0010652799637202,-0.0013225467953306,0.001322544438079,-0.001322545673227,0.0013225455961618,-0.0013225457284609,0.0013225455282963,-0.0013225446135518,0.001322546677767,-0.0012047744000558,0.0012047718935214,-0.0012047709885845,0.001204775307704,-0.0010455250586523,0.0010455229026713,-0.0010455218833861,0.0010455261420785,8.2064669693025e-09,-7.6981397564676e-09,-0.0016234807192214,0.0016234811908151,2.075337388485e-09,-1.5949720214349e-09,-0.0019582697228216,0.0019582767011733,-0.001958270963267,0.0019582754561753,-0.001958275017944,0.0019582714090169,-0.0019582762639357,0.0019582701581406,-0.0014550587707433,0.0014550424711347,-0.0014550432065305,0.0014550580722447,0.68665560377703,131329,3014,0.0044326912436057,0.004432691243817,0.0067375032512171,37.673662736339,6.1389301890709e-05,6.1389301890709e-05,6.1389301890709e-05,4823769.8159134,0.015727396041726
37619200,0.99953755352233,0.016109895798724,0.0047747268663656,0.0047747268666279,0.0065604420657305,-0.0010658468535047,0.0010658469910839,-8.0049240685351e-09,8.1714826278737e-09,1.7090355944887e-09,-1.6131740161705e-09,-0.0013231697646982,0.0013231655928804,-0.0013231643595337,0.0013231709919559,-0.0013231708373047,0.001323164485953,-0.0013231654472431,0.0013231698857912,-0.0012053896887327,0.0012053729326653,-0.0012053738399902,0.0012053887311608,-1.7125712446289e-09,1.6112769744364e-09,-1.8347668375337e-09,1.6643831539381e-09,-0.0010658469931757,0.0010658468515068,-0.0013231688448195,0.0013231664669828,-0.0013231677234813,0.0013231676242765,-0.0013231677552278,0.0013231675800663,-0.0013231666411613,0.0013231687286855,-0.0012053825406483,0.0012053800610822,-0.0012053791318195,0.0012053834728733,-0.0010461236116148,0.001046121389612,-0.0010461203695157,0.0010461246960757,8.2523948337084e-09,-7.74384720396e-09,-0.0016241646132102,0.001624165085067,2.0739072856442e-09,-1.5932964914447e-09,-0.001959001966081,0.001959008974217,-0.0019590032055035,0.0019590077303242,-0.0019590072917095,0.0019590036515499,-0.001959008536708,0.0019590024016695,-0.0014557373081406,0.0014557209198075,-0.0014557216539951,0.0014557366107647,0.66415287182286,131329,3014,0.0044350448128366,0.0044350448130276,0.006740330973783,38.003849851633,6.4030798813067e-05,6.4030798813067e-05,6.4030798813067e-05,4829453.1542939,0.01573505023571
37819200,0.99957079081871,0.016110369652884,0.0047748635496317,0.0047748635498939,0.0065606425533582,-0.0010654929321784,0.0010654930697563,-8.0512017680184e-09,8.2178323533332e-09,1.7111327653039e-09,-1.6151838617711e-09,-0.0013227804553121,0.0013227762537916,-0.0013227750190489,0.0013227816839502,-0.0013227815291551,0.0013227751456972,-0.0013227761084366,0.0013227805761751,-0.0012050312839217,0.0012050144366751,-0.0012050153459921,0.0012050303257776,-1.7285729052929e-09,1.6287578455879e-09,-1.8277194693517e-09,1.6585515222514e-09,-0.0010654930713588,0.001065492930657,-0.0013227795237152,0.0013227771396004,-0.0013227784064106,0.0013227782928154,-0.0013227784229011,0.001322778264069,-0.0013227773133244,0.0013227794081809,-0.0012050240770466,0.0012050216234956,-0.0012050206821368,0.0012050250226316,-0.0010457438448293,0.0010457415880164,-0.0010457405700494,0.001045744926309,8.2978359903358e-09,-7.7892142170877e-09,-0.0016238202795703,0.0016238207517102,2.0678065044013e-09,-1.5869974451704e-09,-0.0019586601989006,0.0019586672334096,-0.001958661433956,0.0019586659938555,-0.0019586655545993,0.0019586618806975,-0.0019586667957284,0.0019586606347712,-0.0014553610730062,0.0014553445988899,-0.0014553453293111,0.0014553603795138,0.64016142647082,131329,3014,0.004433573928538,0.0044335739287018,0.0067389092061003,37.803862457302,6.2430899658413e-05,6.2430899658413e-05,6.2430899658413e-05,4827768.9010969,0.015730615082837
38019200,0.99960125096307,0.016110822639649,0.0047749949297378,0.0047749949300001,0.0065608327799112,-0.001065080523599,0.0010650806610747,-8.0968367421366e-09,8.263425880541e-09,1.7217211112489e-09,-1.6259532333625e-09,-0.0013222710878541,0.0013222668630884,-0.0013222656212464,0.0013222723232849,-0.001322272168983,0.0013222657477993,-0.0013222667175002,0.0013222712087257,-0.0012046133789892,0.0012045964350686,-0.0012045973511178,0.0012046124139009,-1.7284201438929e-09,1.6286465178345e-09,-1.8234850491612e-09,1.6545544509223e-09,-0.0010650806626315,0.0010650805221246,-0.0013222701430004,0.0013222677621403,-0.0013222690284733,0.0013222689122711,-0.0013222690424746,0.0013222688864415,-0.0013222679352226,0.0013222700278538,-0.001204606119546,0.0012046036740001,-0.001204602732426,0.0012046070652688,-0.0010452778247758,0.0010452755651306,-0.001045274550723,0.0010452789039241,8.3439283073648e-09,-7.835300427715e-09,-0.0016233840567275,0.0016233845288835,2.0637203029672e-09,-1.5828652752877e-09,-0.0019581967267539,0.0019582037893383,-0.0019581979593363,0.0019582025523926,-0.0019582021134054,0.0019581984056807,-0.0019582033516924,0.001958197162839,-0.0014548678921238,0.0014548513310378,-0.0014548520579032,0.0014548672008043,0.66569814935855,131329,3014,0.0044318578136862,0.0044318578138535,0.0067371101790018,37.559453150043,6.0475625200342e-05,6.0475625200342e-05,6.0475625200342e-05,4828135.4265913,0.015725296083876
38219200,0.99962919060041,0.01611124152765,0.0047751165244541,0.0047751165247163,0.0065610084784794,-0.0010646580495059,0.0010646581863889,-8.1430481934085e-09,8.308962266318e-09,1.7259647411972e-09,-1.6309415610019e-09,-0.0013218032473442,0.001321798994476,-0.0013217977503176,0.0013218044854425,-0.0013218043314243,0.0013217978760156,-0.0013217988495199,0.0013218033676907,-0.001204191890591,0.0012041748528206,-0.0012041757724983,0.0012041909211248,-1.730762691141e-09,1.6305866532945e-09,-1.8219491943723e-09,1.6525174177318e-09,-0.0010646581883851,0.0010646580476029,-0.0013218022886385,0.0013217999073248,-0.0013218011754575,0.0013218010564196,-0.0013218011866139,0.0013218010329792,-0.0013218000807588,0.0013218021733804,-0.0012041845827305,0.0012041821410463,-0.0012041811983176,0.0012041855287612,-0.001044828017372,0.0010448257514619,-0.0010448247385914,0.0010448290947687,8.3900926083124e-09,-7.8808002718437e-09,-0.0016229518423817,0.001622952315062,2.0620840046021e-09,-1.5805719643761e-09,-0.0019577561502397,0.0019577632425952,-0.001957757381467,0.0019577620069005,-0.0019577615674179,0.0019577578284109,-0.0019577628042693,0.0019577565867204,-0.0014544059913132,0.0014543893425837,-0.0014543900680099,0.0014544053027423,0.67076172821548,131329,3014,0.0044301026807212,0.0044301026809105,0.0067353248757278,37.313904252118,5.851123401694e-05,5.851123401694e-05,5.851123401694e-05,4824672.9830938,0.015719914922985
38419200,0.99965501424901,0.0161116545625,0.0047752373002354,0.0047752373004977,0.0065611799617665,-0.0010644625830305,0.001064462719443,-8.1897662060288e-09,8.3553014234533e-09,1.7202558550703e-09,-1.6257593541677e-09,-0.0013215835019133,0.0013215792131461,-0.0013215779736277,0.0013215847355883,-0.0013215845817563,0.0013215780985419,-0.0013215790692452,0.0013215836209715,-0.0012040088546561,0.0012039917287464,-0.0012039926445574,0.0012040078858712,-1.7493916909325e-09,1.6493027576792e-09,-1.8239442695703e-09,1.65431661154e-09,-0.0010644627215819,0.0010644625810144,-0.0013215825322682,0.0013215801371365,-0.0013215814175622,0.001321581287919,-0.0013215814169727,0.0013215812751856,-0.0013215803103105,0.001321582416614,-0.0012040015000672,0.0012039990660645,-0.0012039981106004,0.0012040024554933,-0.0010446192240896,0.0010446169226015,-0.0010446159084574,0.0010446203022357,8.4355278213566e-09,-7.9257281579158e-09,-0.0016227639973362,0.0016227644702108,2.064176164041e-09,-1.5821949964407e-09,-0.0019575689983086,0.0019575761217846,-0.001957570230313,0.0019575748850772,-0.001957574444863,0.0019575706774481,-0.0019575756830836,0.0019575694339494,-0.0014541967331202,0.0014541799942223,-0.0014541807218316,0.0014541960448702,0.71253733416449,131329,3014,0.00442929041834,0.0044292904185912,0.0067345495035537,37.196398713922,5.7571189711376e-05,5.7571189711376e-05,5.7571189711376e-05,4822846.0195178,0.01571747606144
38619200,0.99967903644714,0.016112040905848,0.0047753503124996,0.0047753503127618,0.0065613402805865,-0.0010644477489288,0.0010644478859742,-8.2353083098076e-09,8.4014087560236e-09,1.7212842695059e-09,-1.6261145056122e-09,-0.0013216381125286,0.001321633794797,-0.0013216325537813,0.0013216393475647,-0.0013216391931725,0.0013216326797069,-0.0013216336499223,0.0013216382328055,-0.0012040180401027,0.0012040008254455,-0.0012040017412746,0.0012040170735136,-1.7641189051969e-09,1.6653996818722e-09,-1.8279330077295e-09,1.659658491058e-09,-0.001064447887247,0.0010644477477583,-0.0013216371343373,0.0013216347270637,-0.0013216360166473,0.0013216358807696,-0.0013216360094048,0.0013216358756308,-0.0013216348994271,0.0013216370202755,-0.00120401063834,0.0012040082080193,-0.0012040072411013,0.0012040116077164,-0.001044638679164,0.0010446363522636,-0.0010446353341526,0.0010446397623173,8.481069156453e-09,-7.9720018062876e-09,-0.0016228025221819,0.0016228029945193,2.0694325605205e-09,-1.5882426947759e-09,-0.0019576462007623,0.0019576533582722,-0.0019576474368037,0.0019576521177409,-0.0019576516784078,0.0019576478835005,-0.0019576529204593,0.0019576466366126,-0.0014542599377575,0.0014542431048182,-0.0014542438353283,0.0014542592438631,0.7162596716557,131329,3014,0.0044292320030498,0.0044292320032583,0.006734705862185,37.193706124583,5.7549648996664e-05,5.7549648996664e-05,5.7549648996664e-05,4817732.4153352,0.015717519683684
38819200,0.99970138610215,0.01611240156779,0.0047754558642158,0.004775455864478,0.0065614898390961,-0.0010644329779072,0.0010644331148514,-8.2811267067341e-09,8.4470734562336e-09,1.7268447086383e-09,-1.6318114357219e-09,-0.0013216974551052,0.0013216931107625,-0.0013216918659569,0.0013216986938768,-0.0013216985396931,0.001321691991801,-0.0013216929657891,0.0013216975755136,-0.0012040228151345,0.0012040055069193,-0.0012040064265636,0.0012040218448997,-1.7688456138248e-09,1.6704623816275e-09,-1.8337399075013e-09,1.6656711846973e-09,-0.0010644331160601,0.0010644329767975,-0.0013216964669658,0.0013216940529085,-0.0013216953454638,0.0013216952104042,-0.0013216953390371,0.0013216952046675,-0.0013216942249891,0.0013216963533643,-0.0012040153705842,0.0012040129319949,-0.0012040119615773,0.0012040163437175,-0.0010446597052242,0.0010446573728532,-0.0010446563504556,0.0010446607927759,8.5268753712223e-09,-8.0181730581993e-09,-0.0016228426065526,0.0016228430784987,2.0758621452776e-09,-1.5951096735238e-09,-0.001957725719579,0.0019577329118679,-0.0019577269602429,0.0019577316668222,-0.001957731228095,0.0019577274064012,-0.0019577324745014,0.0019577261552524,-0.001454329174447,0.0014543122470263,-0.0014543129820122,0.0014543284756348,0.7184460076344,131329,3014,0.0044291739094013,0.004429173909603,0.0067348684631362,37.193612062447,5.7548896499577e-05,5.7548896499577e-05,5.7548896499577e-05,4812780.4379038,0.015717570283679
38880000,0.99970802927318,0.01611250889322,0.0047754872867435,0.0047754872870058,0.0065615343194704,-0.0010644231098895,0.001064423245979,-8.2952834640784e-09,8.4604251151143e-09,1.743737820183e-09,-1.6496894007388e-09,-0.0013217149966085,0.0013217106537875,-0.0013217093983005,0.0013217162460789,-0.0013217160926999,0.0013217095231744,-0.0013217105096418,0.0013217151160603,-0.0012040186792373,0.0012040013316201,-0.0012040022638127,0.0012040176966159,-1.7519120125005e-09,1.652579882898e-09,-1.8375417418336e-09,1.6687118660392e-09,-0.001064423248029,0.0010644231079367,-0.0013217140050117,0.0013217115993941,-0.0013217128812388,0.0013217127591916,-0.001321712888593,0.0013217127394748,-0.0013217117722838,0.0013217138904735,-0.0012040112245193,0.0012040087668518,-0.0012040078089013,0.0012040121854031,-0.0010446649242228,0.0010446626274193,-0.0010446616033879,0.0010446660130066,8.5409320717997e-09,-8.0323776919634e-09,-0.0016228525837848,0.0016228530556191,2.0773381844503e-09,-1.5967453517608e-09,-0.0019577498206628,0.0019577570233345,-0.0019577510623187,0.0019577557772455,-0.0019577553385662,0.0019577515084204,-0.0019577565859274,0.0019577502561703,-0.0014543525351911,0.0014543355787874,-0.0014543363153557,0.0014543518353574,0.71909631056486,131329,3014,0.0044291340336987,0.0044291340338962,0.0067349086139185,37.193608840623,5.7548870724982e-05,5.7548870724982e-05,5.7548870724982e-05,4811175.2301573,0.015717531201133
