time,ASR_ext,ASR_strain,ASR_strain_xx,ASR_strain_yy,ASR_strain_zz,disp_x_101,disp_x_102,disp_x_103,disp_x_104,disp_x_105,disp_x_106,disp_x_p1_neg,disp_x_p1_pos,disp_x_p2_neg,disp_x_p2_pos,disp_x_p3_neg,disp_x_p3_pos,disp_x_p4_neg,disp_x_p4_pos,disp_x_p5_neg,disp_x_p5_pos,disp_x_p6_neg,disp_x_p6_pos,disp_y_101,disp_y_102,disp_y_103,disp_y_104,disp_y_105,disp_y_106,disp_y_p1_neg,disp_y_p1_pos,disp_y_p2_neg,disp_y_p2_pos,disp_y_p3_neg,disp_y_p3_pos,disp_y_p4_neg,disp_y_p4_pos,disp_y_p5_neg,disp_y_p5_pos,disp_y_p6_neg,disp_y_p6_pos,disp_y_p7_neg,disp_y_p7_pos,disp_y_p8_neg,disp_y_p8_pos,disp_z_101,disp_z_102,disp_z_103,disp_z_104,disp_z_105,disp_z_106,disp_z_p1_neg,disp_z_p1_pos,disp_z_p2_neg,disp_z_p2_pos,disp_z_p3_neg,disp_z_p3_pos,disp_z_p4_neg,disp_z_p4_pos,disp_z_p5_neg,disp_z_p5_pos,disp_z_p6_neg,disp_z_p6_pos,humidity,ndof,nelem,strain_xx,strain_yy,strain_zz,temp,thermal_strain_xx,thermal_strain_yy,thermal_strain_zz,vonmises,vstrain
2419200,0,0,0,0,0,0,0,0,0,0,0,0,0,0,0,0,0,0,0,0,0,0,0,0,0,0,0,0,0,0,0,0,0,0,0,0,0,0,0,0,0,0,0,0,0,0,0,0,0,0,0,0,0,0,0,0,0,0,0,0,0,0,0,0,0,0,0,0,0,0,0,0,0,0,0
2619200,0.019618752720082,0.0004024293463365,0.0001341431154455,0.0001341431154455,0.0001341431154455,-3.3387708355464e-05,3.3387726379181e-05,-2.7232244856701e-12,2.0520823641527e-11,-3.5996766211369e-11,5.5541817280644e-11,-3.3380170770048e-05,3.3380150855838e-05,-3.3380146788066e-05,3.3380142283594e-05,-3.3380132293692e-05,3.3380172042209e-05,-3.3380127008791e-05,3.3380182073767e-05,-3.4742699134661e-05,3.4742724421246e-05,-3.474267411868e-05,3.474274478292e-05,4.405126824029e-11,-6.8363940943053e-11,-4.4065039121936e-09,4.384267020333e-09,-3.3387728603344e-05,3.3387706131494e-05,-3.3381554622974e-05,3.3378687755131e-05,-3.3378737843778e-05,3.3381633754935e-05,-3.3381590351056e-05,3.3378650468817e-05,-3.3378773270489e-05,3.3381596244117e-05,-3.4746996557964e-05,3.4738310862144e-05,-3.4738483721523e-05,3.47470503961e-05,-3.4315123111251e-05,3.4318123508484e-05,-3.4315232363083e-05,3.4318010422631e-05,-1.1181398266896e-09,-1.1419661197594e-09,-3.5391898980497e-05,3.538962364015e-05,3.1406189716773e-09,-5.5480546585887e-09,-3.5143304222731e-05,3.5143955922338e-05,-3.5146185431215e-05,3.5141074301032e-05,-3.5143312200696e-05,3.5143948019244e-05,-3.5146193601032e-05,3.5141066408524e-05,-3.5840479701848e-05,3.5835302007883e-05,-3.5840456342285e-05,3.5835325481107e-05,0.81992968654565,131329,3014,0.00013910578654454,0.00013910578654511,0.00014745054630365,31.583283342459,1.2666266739669e-05,1.2666266739669e-05,1.2666266739669e-05,638202.58627037,0.00042575297454364
2819200,0.0411956138141,0.0008339094381465,0.000276396063652,0.00027639606363121,0.00028111731086329,-6.7799645364156e-05,6.7802058092228e-05,1.1425174109288e-09,1.2484653557551e-09,-4.8087743459431e-09,7.4276117175753e-09,-6.8950771279694e-05,6.8949109176401e-05,-6.8950738478699e-05,6.8949146799741e-05,-6.894689300051e-05,6.8953188790319e-05,-6.8946852522967e-05,6.8953218669065e-05,-7.0513552376409e-05,7.0519888811712e-05,-7.0513443582435e-05,7.0519987511118e-05,4.816859683836e-09,-7.4383206574773e-09,1.2056408316459e-09,-3.5989411441244e-09,-6.7802059185099e-05,6.7799644262027e-05,-6.8948442045345e-05,6.8951659865196e-05,-6.8950004018518e-05,6.8950047683896e-05,-6.895232996417e-05,6.8947578068492e-05,-6.8953891623938e-05,6.8945965659639e-05,-7.0517579710822e-05,7.0515842479152e-05,-7.0522239282843e-05,7.0511079761795e-05,-6.9469457632999e-05,6.9477405516511e-05,-6.9481393008362e-05,6.9465110590145e-05,1.2536690839686e-09,1.1420294714196e-09,-7.2985539380266e-05,7.2987935972783e-05,-1.1558231201765e-09,3.6124966648353e-09,-7.3371990900485e-05,7.3372822755459e-05,-7.3370396462397e-05,7.337438744623e-05,-7.3372043061733e-05,7.3372800383189e-05,-7.3370448500875e-05,7.3374364941056e-05,-7.3490401638963e-05,7.349427278485e-05,-7.3490254438052e-05,7.3494344322542e-05,0.82138492438299,131329,3014,0.00028246375501618,0.00028246375499695,0.00030406480210636,32.74306592552,2.1944527404159e-05,2.1944527404159e-05,2.1944527404159e-05,958428.61580723,0.00086937069845662
3019200,0.062589508303526,0.001251116889981,0.00041152272308903,0.00041152272306102,0.00042807144383098,-9.7978760100917e-05,9.7979876622337e-05,4.5652008480125e-10,6.5119215054886e-10,-3.3433179999815e-09,4.6180142895099e-09,-0.00010044210648873,0.00010044053402516,-0.00010044204890902,0.00010044060603117,-0.0001004396094485,0.00010044318648889,-0.00010043953846973,0.00010044324497609,-0.00010273430392334,0.00010273785524671,-0.00010273410454026,0.00010273803700116,3.3519558537069e-09,-4.6290414471385e-09,3.1382485002393e-09,-4.2480286539406e-09,-9.7979877607704e-05,9.7978759102278e-05,-0.00010043944993531,0.00010044338970073,-0.00010044182799786,0.00010044091235441,-0.00010044195980875,0.00010044073761836,-0.00010044433758509,0.00010043826001914,-0.00010273435281514,0.00010273785318345,-0.00010274150574997,0.00010273050517455,-0.00010051831995067,0.00010052254042247,-0.00010052609675059,0.00010051449987104,1.5243184453311e-09,1.33059386787e-09,-0.00010777065783357,0.00010777351676853,-2.166153210896e-09,5.140193080264e-09,-0.00010918365849577,0.00010918412327477,-0.00010918122595987,0.00010918652878347,-0.00010918373669892,0.00010918407213629,-0.00010918130405128,0.00010918647747603,-0.00010819941037407,0.00010820450521021,-0.00010819919840957,0.00010820467286922,0.8201332666583,131329,3014,0.00040816433607861,0.00040816433605109,0.00044894851535323,32.491526316137,1.9932210529093e-05,1.9932210529093e-05,1.9932210529093e-05,1305184.6971046,0.0012660797964377
3219200,0.083729264782674,0.0016487606693764,0.00053878641035061,0.00053878641032164,0.00057118784870413,-0.0001262448948375,0.00012624550870577,1.6537343273824e-10,4.4454773341969e-10,-2.3811277023265e-09,3.1239597699712e-09,-0.00013046757833664,0.00013046629068411,-0.00013046749708901,0.00013046639537735,-0.00013046587900426,0.00013046812241252,-0.00013046577970476,0.0001304682089617,-0.00013316492434182,0.00013316708004687,-0.00013316463994759,0.00013316734239444,2.3932732083636e-09,-3.1404258222259e-09,3.8603465105622e-09,-4.4740975277536e-09,-0.00012624551057777,0.00012624489295386,-0.00013046506787065,0.00013046899572676,-0.00013046772728641,0.00013046619995544,-0.00013046678521571,0.00013046716367799,-0.00013046944434588,0.00013046436768124,-0.00013316317491675,0.00013316891960197,-0.00013317123064041,0.00013316060181515,-0.00012951071347302,0.00012951272687563,-0.00012951610260054,0.00012950712801964,1.6850201526219e-09,1.4049901048255e-09,-0.00014150108491045,0.0001415041809438,-2.4910503304165e-09,5.7410828880682e-09,-0.00014444352072225,0.00014444393552316,-0.0001444407881427,0.00014444664377676,-0.00014444362628002,0.00014444385427442,-0.00014444089354337,0.00014444656233356,-0.00014154975663052,0.0001415553088029,-0.00014154946718035,0.00014155556788257,0.80675915573009,131329,3014,0.00052588473859856,0.00052588473857447,0.00058941831497777,32.203329792742,1.7626638341936e-05,1.7626638341936e-05,1.7626638341936e-05,1582367.6888311,0.001642538681274
3419200,0.10459505635498,0.0020243083251452,0.00065768378491722,0.00065768378489104,0.00070894075533692,-0.00015253942268148,0.00015253969833368,-4.4679202639852e-11,3.2003372286592e-10,-2.007201914602e-09,2.3877188149468e-09,-0.00015898854917446,0.00015898725931952,-0.00015898844098239,0.00015898739409139,-0.00015898719420172,0.00015898872042642,-0.00015898706673086,0.00015898883582196,-0.00016156957363645,0.00016157094509031,-0.00016156920262573,0.00016157128831469,2.0179590043163e-09,-2.4021958402462e-09,4.1566438393063e-09,-4.4352029355244e-09,-0.0001525396998913,0.00015253942111319,-0.00015898600121514,0.00015898998156567,-0.0001589887341181,0.00015898710089242,-0.00015898737384305,0.00015898852186995,-0.00015899010646914,0.00015898564097199,-0.00016156696275901,0.00016157366539464,-0.00016157526183371,0.00016156507970914,-0.00015627261070904,0.00015627379472661,-0.00015627692212735,0.00015626932324178,1.6545478277364e-09,1.2892556189567e-09,-0.00017388665168976,0.00017388960036625,-2.6773906230322e-09,5.7982202289035e-09,-0.00017894575873655,0.0001789459687678,-0.00017894295073924,0.00017894875672624,-0.0001789458905825,0.00017894585696222,-0.00017894308243103,0.00017894864472315,-0.00017313202059075,0.00017313742338787,-0.00017313165359531,0.00017313777191118,0.78589838541473,131329,3014,0.00063538262770254,0.0006353826276805,0.00072426743324301,31.913831687771,1.5310653502169e-05,1.5310653502169e-05,1.5310653502169e-05,1818712.4809586,0.0019970293502841
3619200,0.1257138001826,0.0023904127549438,0.00077265824997744,0.00077265824995376,0.00084509625501258,-0.0001785716987966,0.00017857188585361,-1.3386233395053e-10,3.216621490892e-10,-1.9325203273011e-09,2.2136832012551e-09,-0.00018756824664768,0.0001875669193915,-0.00018756810778805,0.00018756708435415,-0.00018756696327134,0.00018756829608203,-0.00018756680654971,0.0001875684422779,-0.00018984747820475,0.00018984859240335,-0.00018984701606598,0.00018984902121085,1.9290310258691e-09,-2.2082606324187e-09,3.949322414197e-09,-4.1350956176258e-09,-0.00017857188472108,0.00017857169991964,-0.0001875657562936,0.00018756956877435,-0.00018756832304301,0.00018756686040376,-0.00018756704557378,0.00018756820456436,-0.00018756961238349,0.00018756549549596,-0.00018984489455889,0.00018985128542258,-0.00018985269866262,0.00018984319960174,-0.00018256936017053,0.00018257053586847,-0.00018257340346798,0.00018256635491271,1.4987546760073e-09,1.0534099515123e-09,-0.00020654322124502,0.00020654577528768,-2.6181996382468e-09,5.3454862644499e-09,-0.00021426763123708,0.00021426764172367,-0.00021426499624416,0.0002142702598004,-0.0002142677881683,0.00021426750194589,-0.0002142651532833,0.00021427011929913,-0.00020465070388552,0.00020465546600238,-0.00020465026241429,0.00020465589802541,0.77011577103474,131329,3014,0.00074377820818528,0.00074377820816566,0.00086022509140042,31.99397597153,1.5951807772239e-05,1.5951807772239e-05,1.5951807772239e-05,2066086.4906382,0.002350547204616
3819200,0.14743404108819,0.002761314131986,0.00088845224478678,0.00088845224475701,0.00098440964244222,-0.00020522124467465,0.00020522145846127,-1.8784630989476e-10,4.0299429074222e-10,-2.0396678119308e-09,2.3458743404359e-09,-0.00021694527824286,0.00021694385110173,-0.00021694509167279,0.00021694406302899,-0.00021694391157149,0.00021694530821218,-0.00021694371312555,0.00021694549888068,-0.00021920453104428,0.0002192056277719,-0.00021920394154715,0.00021920618152101,1.8608544433169e-09,-2.1093527283622e-09,3.5958041099248e-09,-3.7571429063622e-09,-0.00020522143175962,0.00020522127136325,-0.00021694287032841,0.00021694640791114,-0.00021694519887194,0.00021694394925231,-0.00021694410715078,0.00021694510277658,-0.00021694644023917,0.00021694263944696,-0.00021920224969417,0.00021920801002233,-0.00021920935138276,0.00021920064371689,-0.00020955337265588,0.00020955466197481,-0.00020955726555687,0.00020955064785792,1.3099111385845e-09,8.2891999098974e-10,-0.00024036842646344,0.00024037056343998,-2.4408413235282e-09,4.7472118839429e-09,-0.0002512253808838,0.0002512252405911,-0.00025122300292864,0.00025122760385197,-0.00025122554672948,0.000251225090538,-0.00025122317471258,0.0002512274503084,-0.00023716177854884,0.00023716582872996,-0.0002371612932788,0.00023716629888557,0.77140162650008,131329,3014,0.00085473341454441,0.00085473341451734,0.0010010271150402,32.325834227583,1.8606673820662e-05,1.8606673820662e-05,1.8606673820662e-05,2321889.3165808,0.002714181374691
4019200,0.16974484491536,0.0031376839739891,0.0010052346039286,0.0010052346039231,0.0011272147661374,-0.00023206889544365,0.00023206914923641,-2.0847912023834e-10,4.6374332570973e-10,-2.0936081167091e-09,2.4400040020967e-09,-0.00024679599410987,0.00024679452720695,-0.00024679577935277,0.00024679476666729,-0.00024679457540453,0.00024679603401108,-0.00024679434967255,0.00024679625369953,-0.00024910174783838,0.00024910285530454,-0.00024910107625543,0.00024910348750563,1.9502172211809e-09,-2.2280853308374e-09,3.2370446628485e-09,-3.4292762440473e-09,-0.00023206911813362,0.00023206892653881,-0.00024679365990802,0.00024679700508362,-0.0002467957666504,0.00024679477793153,-0.00024679496254233,0.00024679563274808,-0.0002467970739452,0.0002467934016078,-0.00024909985353639,0.00024910484140052,-0.00024910629079356,0.00024909815772307,-0.00023680789462509,0.00023680958715038,-0.00023681199195885,0.00023680536974654,1.1872358895232e-09,6.1645138695093e-10,-0.00027497047894849,0.00027497227744575,-2.2725056290718e-09,4.235838465502e-09,-0.00028936404795819,0.00028936382459039,-0.00028936189708363,0.00028936596159143,-0.00028936424176,0.00028936364470668,-0.00028936209718823,0.00028936577918118,-0.00027038413642422,0.00027038754020009,-0.00027038356971041,0.00027038810033361,0.77299486684293,131329,3014,0.00096650274165081,0.00096650274163499,0.0011450406990654,32.663378389552,2.1307027116419e-05,2.1307027116419e-05,2.1307027116419e-05,2559485.3280374,0.0030828034612263
4219200,0.1926207467737,0.0035196917578547,0.0011230484877213,0.0011230484877142,0.0012735947824191,-0.00025911906784465,0.00025911935705155,-2.319211073076e-10,5.2246238309606e-10,-2.1560616642079e-09,2.5383918291515e-09,-0.000277176206872,0.00027717469400577,-0.00027717596428712,0.00027717496038963,-0.00027717473468227,0.0002771762539483,-0.00027717448221015,0.00027717650219758,-0.00027947566401543,0.00027947678038761,-0.00027947491051777,0.00027947749250444,2.0203065449701e-09,-2.3400722239109e-09,2.9130058643261e-09,-3.1467289371547e-09,-0.00025911932912852,0.0002591190957591,-0.0002771739394925,0.00027717710087601,-0.00027717585088787,0.00027717507894763,-0.00027717529982122,0.00027717566951368,-0.00027717721554962,0.00027717364381748,-0.00027947411786887,0.00027947841002973,-0.00027947996850974,0.00027947232894202,-0.00026434598165172,0.00026434801104555,-0.00026435025565891,0.00026434361616547,1.1044101629688e-09,4.4460013209468e-10,-0.0003103571001926,0.0003103586411096,-2.1037758089828e-09,3.8047202531138e-09,-0.00032863519684205,0.00032863494510151,-0.00032863324654407,0.00032863688270016,-0.00032863541956803,0.00032863473585065,-0.00032863347493847,0.00032863667102864,-0.00030438449967483,0.00030438736318614,-0.00030438384891579,0.00030438801131615,0.77488674567444,131329,3014,0.0010791046624426,0.0010791046624248,0.0012922962201619,33.001119680893,2.4008957447148e-05,2.4008957447148e-05,2.4008957447148e-05,2777842.5974946,0.0034564867286816
4419200,0.21643204193323,0.0039132672777702,0.001243723268793,0.0012437232687822,0.001425820740195,-0.00028726563552804,0.00028726593429716,-2.4335898522652e-10,5.4340403768848e-10,-2.076707796767e-09,2.4676355477514e-09,-0.000309069321103,0.00030906785916598,-0.00030906906940705,0.0003090681332882,-0.00030906790036612,0.00030906936570682,-0.00030906763518097,0.00030906962817208,-0.00031121878731045,0.0003112198242065,-0.00031121799403523,0.00031122057456384,2.0843569532355e-09,-2.4377650844087e-09,2.5658445424577e-09,-2.8326356805676e-09,-0.00028726591816094,0.00028726565165018,-0.00030906717545804,0.00030907013976541,-0.00030906887532907,0.00030906833846437,-0.00030906858931814,0.00030906865301947,-0.00030907028836816,0.00030906685288413,-0.00031121756853803,0.00031122111861639,-0.00031122277114367,0.00031121570041353,-0.00029307315216642,0.00029307552013702,-0.00029307757703373,0.00029307097172224,1.0742079744043e-09,2.7557620920362e-10,-0.00034755683983539,0.00034755817872173,-1.9129448923246e-09,3.4066521391965e-09,-0.00037011831002179,0.00037011810128878,-0.00037011655897876,0.00037011984060375,-0.0003701185808705,0.00037011784323248,-0.00037011682963526,0.00037011958451559,-0.00034019577575635,0.00034019811527881,-0.00034019499979373,0.00034019889509615,0.77612069454021,131329,3014,0.0011962595258652,0.0011962595258359,0.0014470708865133,33.595686086613,2.8765488692901e-05,2.8765488692901e-05,2.8765488692901e-05,2988568.5813221,0.0038470001285715
4619200,0.24131697030653,0.0043201501843608,0.001367792420001,0.0013677924199866,0.0015845653443733,-0.00031636295621849,0.00031636326245006,-2.8512067189154e-10,5.9260547085376e-10,-2.0527894932783e-09,2.4503015243822e-09,-0.00034236258549886,0.00034236111612804,-0.00034236230349962,0.00034236141971797,-0.00034236117865808,0.00034236260773037,-0.00034236088534978,0.00034236290039012,-0.00034415611410477,0.00034415705909156,-0.00034415523416944,0.00034415789678226,2.0300790629971e-09,-2.3981051830309e-09,2.2798916724385e-09,-2.5615220268393e-09,-0.00031636325000608,0.00031636296864667,-0.00034236054902263,0.00034236328258426,-0.00034236206833052,0.00034236167071344,-0.00034236193193911,0.00034236182777984,-0.00034236345083063,0.00034236021602306,-0.00034415511071678,0.00034415813291842,-0.00034415977337738,0.00034415326650304,-0.00032285693941965,0.00032285938560831,-0.00032286127295111,0.00032285492796733,1.0375838235558e-09,1.5892271197612e-10,-0.00038641410133874,0.00038641528474853,-1.7116376312409e-09,3.044635394111e-09,-0.00041371576833343,0.00041371561913918,-0.00041371420539707,0.00041371717271386,-0.00041371606697012,0.00041371533432187,-0.00041371450244449,0.0004137168878172,-0.00037764740809411,0.00037764932539432,-0.00037764655300777,0.00037765018678626,0.7769364787174,131329,3014,0.0013173605189665,0.0013173605189337,0.0016087128959431,34.293746165801,3.4349969326411e-05,3.4349969326411e-05,3.4349969326411e-05,3190367.0744935,0.0042524903667182
4819200,0.26724642761832,0.0047397182420519,0.0014951482292376,0.0014951482292219,0.0017494217835924,-0.00034620346878454,0.00034620378200388,-3.2516168684249e-10,6.3958674444634e-10,-2.0083627247944e-09,2.4121098120833e-09,-0.00037685251155643,0.00037685104885474,-0.00037685220028396,0.00037685138108809,-0.00037685113254319,0.00037685251139074,-0.00037685081108173,0.00037685283361099,-0.00037806418339218,0.00037806502221469,-0.00037806321801638,0.0003780659444303,1.9843590012412e-09,-2.3582519781284e-09,2.0306461054632e-09,-2.3189032253292e-09,-0.00034620376940243,0.00034620348137221,-0.00037685057523511,0.00037685311116151,-0.00037685193523524,0.00037685166551615,-0.00037685193007096,0.00037685168458431,-0.00037685328982761,0.00037685023902103,-0.00037806335459662,0.000378065916259,-0.00037806754039157,0.0003780615370328,-0.00035349622631694,0.0003534987459013,-0.00035350047661033,0.00035349437183286,1.0241922804083e-09,6.1644590711833e-11,-0.00042660632632945,0.00042660739695843,-1.5253538883902e-09,2.7411385694659e-09,-0.00045913878110261,0.00045913871096135,-0.00045913738124636,0.00045914010193754,-0.00045913910765984,0.00045913839738125,-0.00045913770650865,0.00045913978820306,-0.0004164194457423,0.00041642100583779,-0.00041641850772445,0.00041642195079033,0.77792180626922,131329,3014,0.0014415436037244,0.0014415436036958,0.0017758758592904,34.994176131491,3.9953409051926e-05,3.9953409051926e-05,3.9953409051926e-05,3383518.4693529,0.0046698873226192
5019200,0.29417432259848,0.0051698855411762,0.0016252903224826,0.0016252903224683,0.0019193048962252,-0.00037667518489826,0.00037667549005723,-3.7218604953049e-10,6.7857784713315e-10,-1.9845575684374e-09,2.378661193651e-09,-0.00041244461412264,0.00041244313380241,-0.00041244427416327,0.00041244349476202,-0.00041244325272344,0.00041244457666437,-0.00041244290318443,0.00041244492812887,-0.00041272393581036,0.00041272466331596,-0.00041272288628933,0.00041272566968793,1.9597189721984e-09,-2.3242148262838e-09,1.7985659514023e-09,-2.0788456988845e-09,-0.00037667547748162,0.00037667519745986,-0.0004124427516597,0.00041244511911381,-0.00041244395588828,0.00041244383255264,-0.00041244408859182,0.00041244371190526,-0.00041244529266966,0.00041244242542694,-0.00041272326768059,0.00041272539422093,-0.00041272699424412,0.00041272148043887,-0.00038486322059678,0.00038486584860484,-0.00038486741419382,0.00038486153362736,1.0425656777018e-09,-4.9987007490057e-12,-0.00046785371468706,0.00046785473571123,-1.3168872842842e-09,2.4799711443339e-09,-0.00050614528882942,0.00050614535482985,-0.00050614404638035,0.0005061465891225,-0.0005061456434602,0.00050614501239482,-0.00050614439974163,0.00050614624645129,-0.00045619198871199,0.00045619326007273,-0.00045619096729862,0.00045619428880356,0.77677327206745,131329,3014,0.0015683428728374,0.0015683428728083,0.0019473915952097,35.694688617838,4.5557508942702e-05,4.5557508942702e-05,4.5557508942702e-05,3565830.1825934,0.0050970955912444
5219200,0.32140612339043,0.0056015035141426,0.0017557022516508,0.0017557022516349,0.002090099010857,-0.00040650926207456,0.00040650956607931,-4.0652347344282e-10,7.116078207519e-10,-1.9940662855702e-09,2.3859741490834e-09,-0.00044772184516113,0.00044772033666345,-0.00044772148349297,0.00044772071896124,-0.00044772047788348,0.00044772178380989,-0.00044772010527689,0.00044772215920868,-0.00044679139398437,0.00044679205723625,-0.00044679027563639,0.00044679313215067,1.9963190567156e-09,-2.3595639980848e-09,1.6178707783279e-09,-1.8974730096041e-09,-0.00040650955376715,0.0004065092743725,-0.00044772001392223,0.0004477222874522,-0.00044772110100214,0.00044772112193675,-0.00044772137735615,0.00044772085510753,-0.00044772246231378,0.00044771969165771,-0.00044679088271778,0.00044679262812809,-0.00044679425469758,0.00044678907506583,-0.00041570717845071,0.0004157099962148,-0.00041571144079649,0.00041570561402523,1.0692061760147e-09,-8.2064392121505e-11,-0.0005084306317359,0.00050843160117077,-1.184896907801e-09,2.29419635406e-09,-0.00055286995007578,0.00055287010620118,-0.00055286881496418,0.00055287123399745,-0.00055287034021221,0.00055286972799794,-0.00055286920174887,0.0005528708574495,-0.00049532736533155,0.00049532838153201,-0.00049532624499629,0.00049532950930154,0.77855553707158,131329,3014,0.0016924799009523,0.0016924799009227,0.002116081648342,36.023538186048,4.8188305488382e-05,4.8188305488382e-05,4.8188305488382e-05,3730330.2396183,0.0055162948296764
5419200,0.34874052758177,0.0060255415232053,0.0018837845832954,0.0018837845832761,0.0022579723566338,-0.00043559419193787,0.00043559449836236,-4.4817999724696e-10,7.5557365222887e-10,-2.0306962134923e-09,2.424606902144e-09,-0.00048255534015277,0.00048255378061217,-0.00048255494962337,0.00048255419097559,-0.00048255394683111,0.00048255525227373,-0.00048255354637129,0.00048255565649813,-0.00047988447918521,0.00047988508760258,-0.00047988327783668,0.00047988624548931,2.0308337288393e-09,-2.3966957831267e-09,1.4811652537006e-09,-1.7634889306057e-09,-0.00043559448628985,0.00043559420399242,-0.00048255351572593,0.00048255572121806,-0.0004825545156537,0.0004825546474055,-0.00048255490421294,0.00048255426481888,-0.00048255590189277,0.00048255319269817,-0.00047988408540387,0.00047988553882385,-0.00047988719387351,0.00047988225410107,-0.00044570940697294,0.00044571238225146,-0.00044571373982988,0.00044570792964227,1.0821492923319e-09,-1.5448557632169e-10,-0.00054834910366113,0.00054835001264674,-1.0818316439182e-09,2.128645068119e-09,-0.00059930917310094,0.00059930938664473,-0.00059930812735917,0.00059931042601348,-0.00059930959229528,0.00059930897976682,-0.00059930854242295,0.00059931002021317,-0.00053363567302073,0.00053363645560251,-0.00053363446873151,0.00053363766823105,0.76958004643523,131329,3014,0.0018134922847582,0.0018134922847208,0.0022819967522659,36.276236926683,5.0209895413466e-05,5.0209895413466e-05,5.0209895413466e-05,3867651.5771045,0.0059265944302645
5619200,0.37610078693578,0.0064269950734487,0.0020046754550517,0.0020046754550274,0.0024176441633695,-0.00046296365436144,0.00046296396341523,-4.9019016510047e-10,8.0014755754136e-10,-2.069657860373e-09,2.4658817578285e-09,-0.00051596113440628,0.00051595952183221,-0.00051596071467423,0.0005159599607775,-0.00051595971347518,0.00051596101997449,-0.0005159592844112,0.00051596145318961,-0.00051054724982768,0.00051054780308468,-0.00051054596398713,0.00051054904530795,2.0685559948102e-09,-2.4369202273278e-09,1.3653645597064e-09,-1.650309507494e-09,-0.00046296395138206,0.00046296366637435,-0.00051595930804717,0.00051596146176967,-0.00051596023410823,0.0005159604650822,-0.00051596072346186,0.00051595997915334,-0.00051596164736058,0.00051595898405344,-0.00051054695421571,0.00051054815415742,-0.00051054984019202,0.00051054509630351,-0.00047342832668605,0.00047343145204416,-0.00047343273642122,0.00047342692358548,1.0994218114477e-09,-2.2152968539076e-10,-0.00058671191134936,0.00058671277004656,-9.9317979811244e-10,1.9873567320425e-09,-0.00064468259035008,0.00064468285845696,-0.00064468162082292,0.00064468382178297,-0.00064468303759641,0.00064468242312992,-0.00064468206416031,0.00064468338747646,-0.00056971042969895,0.00056971100305539,-0.00056970914184872,0.00056971229832101,0.7363704991237,131329,3014,0.0019273632881988,0.0019273632881566,0.0024414077762153,36.527137591176,5.2217100729411e-05,5.2217100729411e-05,5.2217100729411e-05,3976159.8622301,0.0063161427692542
5819200,0.40340925048293,0.0068106886398959,0.0021198295885763,0.0021198295885494,0.0025710294627702,-0.00048896289363842,0.00048896320472296,-5.3219076870203e-10,8.4412646969225e-10,-2.1070473412677e-09,2.5051638572726e-09,-0.00054809913762606,0.00054809747278921,-0.00054809868883281,0.00054809794007533,-0.00054809769063615,0.00054809899621981,-0.00054809723287483,0.00054809945805097,-0.00053950555204459,0.00053950604869798,-0.00053950418182332,0.00053950737476473,2.1053481510773e-09,-2.4761719571712e-09,1.267529242667e-09,-1.5549119887906e-09,-0.00048896319291941,0.00048896290542109,-0.00054809730443892,0.00054809941762901,-0.00054809816788389,0.00054809848568802,-0.00054809874570633,0.00054809790960886,-0.00054809960712791,0.00054809697930566,-0.00053950533596691,0.0005395063185135,-0.00053950803419834,0.00053950345185991,-0.00049928375020847,0.00049928701166586,-0.00049928823496215,0.00049928240953201,1.1190403965252e-09,-2.8687918812596e-10,-0.00062379965928166,0.00062380047202991,-9.2084693659642e-10,1.8668377354475e-09,-0.00068918717736167,0.0006891874923572,-0.00068918627178403,0.00068918839171216,-0.00068918765281376,0.00068918702851301,-0.00068918674355373,0.00068918792895945,-0.00060397265933306,0.00060397303948641,-0.00060397128776946,0.00060397441791917,0.71317585059373,131329,3014,0.0020355301163668,0.0020355301163234,0.0025954857696696,36.777975230072,5.4223801840574e-05,5.4223801840574e-05,5.4223801840574e-05,4086879.8987979,0.0066889893461813
6019200,0.43017936998567,0.0071773029607749,0.0022295347785812,0.0022295347785513,0.0027182334036424,-0.00051321755105378,0.0005132178640422,-5.7296980160704e-10,8.8680073258164e-10,-2.1569761443594e-09,2.5570547659527e-09,-0.00057860485631391,0.00057860313305758,-0.00057860438095915,0.00057860362628363,-0.00057860337645544,0.00057860468868275,-0.00057860288914625,0.00057860517991217,-0.00056637811466346,0.00056637856050225,-0.00056637665761691,0.0005663799730858,2.1605057376063e-09,-2.53403704704e-09,1.2168962034594e-09,-1.5067771876514e-09,-0.00051321785256266,0.00051321756250803,-0.00057860299080928,0.00057860510873641,-0.00057860382432448,0.0005786042082026,-0.00057860447180114,0.00057860356124496,-0.00057860530027311,0.00057860266577449,-0.00056637794367669,0.00056637878391437,-0.00056638054104814,0.00056637602051066,-0.00052319648824232,0.00052319988574848,-0.00052320107945053,0.00052319517804526,1.1429961590166e-09,-3.505013359836e-10,-0.00065916311130138,0.00065916388432584,-9.0503562328295e-10,1.809450903017e-09,-0.00073202713341459,0.00073202746417722,-0.00073202625371887,0.00073202833760539,-0.00073202763952799,0.00073202696937974,-0.00073202675305143,0.00073202784726308,-0.00063634806391735,0.00063634829923368,-0.00063634661122364,0.00063634975841267,0.70261524388825,131329,3014,0.0021364361288442,0.0021364361287916,0.0027423704679246,36.775511023374,5.420408818699e-05,5.420408818699e-05,5.420408818699e-05,4177886.2744393,0.0070401086429422
6219200,0.45634069037591,0.0075365838958091,0.002336917203271,0.0023369172032395,0.0028627494892986,-0.00053680254482596,0.00053680286008813,-6.1497042875201e-10,9.3106677834315e-10,-2.2042464091676e-09,2.6068049392367e-09,-0.00060877582186746,0.00060877403906426,-0.00060877531658966,0.00060877456148604,-0.00060877430872363,0.00060877562761779,-0.00060877379347193,0.00060877614660522,-0.00059257031136712,0.00059257070988984,-0.00059256877219665,0.00059257220458261,2.2055527662389e-09,-2.5819234222351e-09,1.1939438665261e-09,-1.4863044268834e-09,-0.00053680284876177,0.00053680255612388,-0.00060877391898984,0.00060877605075661,-0.00060877473857355,0.00060877516592624,-0.00060877543035028,0.00060877447290784,-0.00060877624676557,0.00060877359159807,-0.00059257015328366,0.00059257091968659,-0.00059257271091519,0.00059256819760304,-0.00054648250672898,0.0005464860088597,-0.00054648719148239,0.00054648120808686,1.1683528702395e-09,-4.0987058417618e-10,-0.00069406708071041,0.00069406781977161,-8.9807905166909e-10,1.7670470944242e-09,-0.00077434217543586,0.00077434251636308,-0.00077434131117386,0.00077434337440191,-0.00077434270931548,0.00077434199363275,-0.00077434183925477,0.000774342855253,-0.00066847165567495,0.0006684717554606,-0.00066847011819197,0.00066847329940399,0.70745492932266,131329,3014,0.0022345531623306,0.0022345531622714,0.0028873191663901,36.758736670095,5.4069893360759e-05,5.4069893360759e-05,5.4069893360759e-05,4244435.9063904,0.007383786168261
6419200,0.48185278888594,0.0078835946850613,0.0024402186641427,0.0024402186641139,0.0030031573568046,-0.00055941763918786,0.0005594179565749,-6.5682960877691e-10,9.7503274003673e-10,-2.243381965515e-09,2.648322264308e-09,-0.00063816646891052,0.00063816463281499,-0.00063816593451899,0.00063816518332914,-0.00063816492882811,0.00063816624802417,-0.00063816438487955,0.00063816679540956,-0.00061758978332888,0.00061759012687522,-0.00061758815968188,0.00061759170510026,2.2443100167172e-09,-2.6234704120472e-09,1.1822397417355e-09,-1.477013553895e-09,-0.00055941794542199,0.0005594176503197,-0.00063816452931104,0.00063816667958775,-0.00063816534426512,0.00063816580176725,-0.00063816606733738,0.0006381650749682,-0.00063816687926245,0.00063816420069586,-0.00061758962251156,0.00061759033870024,-0.00061759215963846,0.0006175876379178,-0.00056872728214112,0.00056873086695787,-0.00056873204579913,0.00056872598753924,1.1965946966769e-09,-4.6682281605988e-10,-0.00072811787677012,0.00072811858704835,-9.0228156868213e-10,1.7411722380745e-09,-0.00081573506659974,0.00081573541437587,-0.00081573420918086,0.00081573626545547,-0.00081573562868814,0.00081573486320981,-0.00081573476578893,0.00081573571785435,-0.0006997442489807,0.00069974422903767,-0.00069974262742133,0.00069974585677414,0.70210893882713,131329,3014,0.002328633690773,0.0023286336907292,0.0030286972006805,36.741573459767,5.3932587678139e-05,5.3932587678139e-05,5.3932587678139e-05,4298992.2676951,0.0077158507943772
6619200,0.50709232956838,0.0082493940372335,0.0025494534752719,0.0025494534752468,0.0031504870867148,-0.00058341270922089,0.00058341302736829,-6.9943918878937e-10,1.0183541611853e-09,-2.2453691111032e-09,2.6511404846545e-09,-0.00066851537381815,0.00066851350820776,-0.00066851481006656,0.00066851408697157,-0.00066851383189421,0.00066851512485503,-0.00066851325938047,0.00066851570052275,-0.00064520785402818,0.00064520811630215,-0.00064520614591609,0.00064520977704415,2.2456079329691e-09,-2.6261250097167e-09,1.1633269927131e-09,-1.4594474823199e-09,-0.00058341301642635,0.00058341272016069,-0.00066851342409663,0.00066851556340877,-0.00066851422901401,0.00066851469785065,-0.00066851496310128,0.00066851395776876,-0.00066851576537438,0.00066851309538071,-0.00064520767138827,0.00064520834915834,-0.00064521017340377,0.00064520568380416,-0.00059288799429282,0.0005928915934366,-0.00059289276234643,0.00059288670987049,1.2262207235927e-09,-5.2239582107802e-10,-0.00076377448225728,0.00076377516631749,-8.9645598317918e-10,1.7080288035837e-09,-0.00085871539106987,0.00085871575366985,-0.00085871454606839,0.00085871659216271,-0.00085871598114983,0.00085871517433059,-0.00085871513145656,0.00085871601596488,-0.00073308008676437,0.00073307994382093,-0.00073307838056716,0.00073308165566749,0.74070667192284,131329,3014,0.0024284481061157,0.0024284481061114,0.0031767173886258,37.009406451037,5.6075251608296e-05,5.6075251608296e-05,5.6075251608296e-05,4362644.7156011,0.0080662886663105
6819200,0.53315784180913,0.0086589122575825,0.0026720505145555,0.0026720505145333,0.0033148112284937,-0.00061135743941921,0.00061135775618026,-7.4234016328228e-10,1.0599086901641e-09,-2.1744588018644e-09,2.5784331394022e-09,-0.00070214426786749,0.00070214241457449,-0.00070214366919442,0.00070214302708135,-0.00070214276720488,0.0007021439891939,-0.00070214217258138,0.00070214458665424,-0.00067879355901836,0.00067879370827138,-0.00067879178462843,0.00067879543050017,2.1687040001313e-09,-2.5467863060718e-09,1.107910821396e-09,-1.4023765180415e-09,-0.00061135774485375,0.00061135745077437,-0.00070214236936209,0.00070214441615762,-0.00070214313206655,0.00070214359449815,-0.00070214385054725,0.00070214286941556,-0.00070214462297966,0.00070214203854204,-0.00067879333755773,0.00067879397713933,-0.00067879574898802,0.00067879140254168,-0.00062179068059508,0.00062179418333913,-0.00062179531557561,0.00062178943488738,1.2551066300599e-09,-5.8066065833312e-10,-0.0008040390627058,0.00080403971664714,-8.0535503939754e-10,1.5853082759792e-09,-0.00090669760638873,0.00090669803239825,-0.00090669682596199,0.00090669880625901,-0.00090669821924147,0.00090669743050548,-0.00090669744734745,0.00090669819537412,-0.00077148940211289,0.00077148905500629,-0.00077148758902929,0.00077149086908382,0.79221451635423,131329,3014,0.0025446789086907,0.0025446789087508,0.0033438355141752,38.07582934325,6.4606634745997e-05,6.4606634745997e-05,6.4606634745997e-05,4491690.9962251,0.0084692289851239
7019200,0.55994789251273,0.009043814894195,0.0027856885069412,0.0027856885069234,0.0034724378803304,-0.00063804794022396,0.00063804825333392,-7.8710206163113e-10,1.101134685003e-09,-2.1020737703245e-09,2.5017325344942e-09,-0.00073550624510197,0.00073550440993831,-0.00073550561920561,0.00073550505050635,-0.00073550479546846,0.0007355059345089,-0.00073550417020676,0.00073550656046753,-0.0007094005556921,0.00070940056144225,-0.00070939868948124,0.00070940237194879,2.0970170527941e-09,-2.4713286215555e-09,1.0379283459009e-09,-1.3297315607159e-09,-0.00063804824228246,0.00063804795129232,-0.00073550440027853,0.00073550635688989,-0.00073550511953012,0.0007355055803803,-0.00073550583366149,0.00073550485836397,-0.00073550656071699,0.0007355040745662,-0.00070940030855186,0.00070940085538767,-0.00070940257543566,0.00070939842439292,-0.00064873792192198,0.00064874132604465,-0.00064874240730647,0.00064873672758365,1.2826762611795e-09,-6.3868052504249e-10,-0.00084381002939502,0.00084381065217192,-7.572283838103e-10,1.5050000934126e-09,-0.00095459211795033,0.00095459258513744,-0.0009545913813675,0.00095459331496328,-0.00095459275896593,0.00095459195461505,-0.00095459203168665,0.00095459267557923,-0.00080854628348293,0.00080854578060611,-0.00080854438730783,0.00080854767844667,0.73335807874844,131329,3014,0.0026556933176529,0.0026556933176878,0.0035088624355075,39.16012585408,7.3281006832637e-05,7.3281006832637e-05,7.3281006832637e-05,4535727.7377139,0.0088596956064046
7219200,0.58731083081659,0.0094199721234328,0.0028960724350906,0.0028960724350505,0.0036278272532918,-0.00066421391066835,0.00066421421919699,-8.3239499316904e-10,1.1419583853376e-09,-2.0370825262918e-09,2.4313287549872e-09,-0.00076867901262663,0.00076867718958936,-0.00076867835803042,0.00076867785817568,-0.00076867760783561,0.0007686786685164,-0.00076867695342829,0.00076867932333307,-0.00073879563912484,0.00073879550993469,-0.0007387936879569,0.00073879740611818,2.0325606813547e-09,-2.4011682456017e-09,9.8508133635497e-10,-1.2720203879951e-09,-0.00066421420803756,0.00066421392179943,-0.00076867721073154,0.0007686790918002,-0.00076867789555985,0.00076867835141932,-0.00076867860009591,0.00076867763794041,-0.00076867929212697,0.00076867689095215,-0.00073879535367691,0.00073879584147105,-0.00073879751273433,0.00073879352078232,-0.00067475418791891,0.00067475750063512,-0.00067475854053393,0.0006747530361516,1.3097342694877e-09,-6.9707105184021e-10,-0.00088345369993853,0.00088345429148501,-7.2200807622241e-10,1.4369222573496e-09,-0.0010025993906723,0.0010025998909369,-0.001002598689217,0.0010026005855388,-0.0010026000603186,0.0010025992315338,-0.0010025993677896,0.0010025999179307,-0.00084507588737787,0.00084507523605898,-0.00084507390920858,0.00084507721626255,0.70718848836776,131329,3014,0.0027645220463423,0.0027645220462828,0.0036733260316569,40.245043514015,8.1960348112122e-05,8.1960348112122e-05,8.1960348112122e-05,4595575.0268212,0.0092453331474315
7419200,0.61424732164122,0.009775435019301,0.002999782016292,0.0029997820162387,0.0037758709867703,-0.00068794264149344,0.00068794294656329,-8.7723226009779e-10,1.1835355756829e-09,-2.0330522891481e-09,2.4234654282653e-09,-0.00079946305981072,0.00079946120975437,-0.00079946237761165,0.00079946190519883,-0.00079946166003639,0.0007994626830671,-0.00079946097518777,0.00079946336812091,-0.00076513296502072,0.00076513273920081,-0.00076513092598559,0.00076513472634699,2.0337661213631e-09,-2.3979156960182e-09,1.0095586721273e-09,-1.2926217250005e-09,-0.00068794293543064,0.00068794265255156,-0.00079946123398532,0.00079946313484883,-0.00079946193709678,0.0007994623774787,-0.0007994626245051,0.00079946167996203,-0.00079946333179511,0.00079946091917533,-0.00076513260947502,0.00076513314132055,-0.00076513480875404,0.00076513078330371,-0.00069802943838133,0.00069803273427262,-0.00069803378370983,0.00069802827728493,1.3393564985489e-09,-7.5271008969403e-10,-0.00092049599879458,0.00092049656490074,-7.6840311190062e-10,1.4568785190083e-09,-0.0010479887318563,0.0010479892154909,-0.0010479880099786,0.001047989930378,-0.001047989431384,0.0010479885257652,-0.001047988715051,0.0010479892356992,-0.00087875717457117,0.00087875644035404,-0.00087875511929864,0.00087875849992046,0.68501444396714,131329,3014,0.0028632143890937,0.0028632143889381,0.0038269653612856,40.771984333838,8.6175874670707e-05,8.6175874670707e-05,8.6175874670707e-05,4646507.554773,0.0095997208184934
7619200,0.64001513512708,0.010106619643162,0.003096066228499,0.0030960662284773,0.0039144871861856,-0.00070914980791517,0.00070915011229779,-9.2063354421835e-10,1.226163631631e-09,-2.078671501836e-09,2.4684040400392e-09,-0.00082751683748693,0.00082751492790129,-0.00082751612604956,0.00082751565182345,-0.0008275154068897,0.00082751643117938,-0.00082751469372325,0.00082751714497478,-0.00078845735219913,0.00078845707302134,-0.00078845523017774,0.00078845914299964,2.0779753644696e-09,-2.4420433977376e-09,1.1029060976824e-09,-1.3856114430076e-09,-0.00070915010136214,0.0007091498188246,-0.00082751493484896,0.00082751692837684,-0.0008275157011401,0.00082751610925074,-0.00082751635513262,0.00082751544409771,-0.00082751712596635,0.00082751462126273,-0.00078845689261152,0.00078845757865097,-0.00078845927552372,0.00078845503740625,-0.00071860808509862,0.0007186114063446,-0.00071861251861296,0.00071860686203004,1.3748913936587e-09,-8.0284262423834e-10,-0.00095461673288511,0.00095461728439923,-8.6803883367124e-10,1.5417693920622e-09,-0.0010901546852349,0.0010901551214745,-0.0010901539017827,0.0010901558980735,-0.0010901554136522,0.001090154402998,-0.0010901546350203,0.0010901551750558,-0.00090949803681808,0.00090949726589038,-0.00090949589748548,0.00090949940890211,0.67223241561328,131329,3014,0.0029514198130059,0.0029514198129517,0.0039684619561093,40.851949789568,8.6815598316547e-05,8.6815598316547e-05,8.6815598316547e-05,4680845.5933454,0.0099207864970713
7819200,0.66457996295862,0.010418149659053,0.0031864071464925,0.0031864071464923,0.0040453353660681,-0.00072891682066094,0.00072891712532206,-9.6349201265685e-10,1.2692878388925e-09,-2.1238737443503e-09,2.5140753208717e-09,-0.00085415343430393,0.00085415146593241,-0.00085415269388047,0.0008541522182962,-0.00085415197308843,0.00085415299940994,-0.00085415123135497,0.00085415374184486,-0.00081004728727979,0.00081004695500013,-0.00081004508174848,0.00081004910896144,2.1226089673178e-09,-2.4875832712996e-09,1.204066199975e-09,-1.4872811236971e-09,-0.00072891711454218,0.00072891683142893,-0.00085415145309652,0.00085415354422367,-0.00085415228769092,0.00085415265747829,-0.00085415290361086,0.00085415202990428,-0.00085415374285338,0.00085415113933355,-0.00081004671712247,0.00081004757135199,-0.00081004929905737,0.0008100448315303,-0.00073777234541743,0.00073777568683886,-0.00073777686780041,0.00073777105408039,1.4145407802501e-09,-8.4885863377495e-10,-0.00098711800631699,0.00098711855154209,-9.7185477276851e-10,1.6394904247812e-09,-0.001130344418337,0.0011303448097476,-0.0011303435674337,0.0011303456537396,-0.0011303451753522,0.0011303440626549,-0.0011303443291503,0.0011303449022649,-0.00093873167977966,0.00093873088554363,-0.00093872945622836,0.00093873311273072,0.66655084055208,131329,3014,0.0030336335735742,0.0030336335735497,0.0041032257542869,40.921766866054,8.7374134928429e-05,8.7374134928429e-05,8.7374134928429e-05,4702103.9912325,0.010223048588831
8019200,0.68793328823484,0.010710896261781,0.0032709830311417,0.0032709830311519,0.0041689301994875,-0.00074736111828903,0.00074736142355874,-1.0062072372067e-09,1.312579608241e-09,-2.1656541770162e-09,2.5567208791969e-09,-0.00087933090920398,0.00087932888459208,-0.0008793301399289,0.00087932966539358,-0.00087932941973194,0.00087933044611279,-0.00087932864924516,0.00087933121719162,-0.00083012220426752,0.00083012181647453,-0.00083011991447153,0.00083012405473044,2.1641283164301e-09,-2.5304212032368e-09,1.3067418364334e-09,-1.5909001549023e-09,-0.00074736141296163,0.00074736112888295,-0.00087932885141228,0.00087933103898687,-0.00087932975537341,0.00087933008325609,-0.00087933033019554,0.00087932949650587,-0.00087933123875358,0.00087932853700548,-0.00083012152024843,0.0008301225470061,-0.00083012430370263,0.00083011960528868,-0.00075566353809954,0.00075566689221734,-0.00075566814321809,0.00075566217690512,1.457577078109e-09,-8.9142231418961e-10,-0.001017997581869,0.001017998127593,-1.0741458410819e-09,1.742822969234e-09,-0.0011685388033207,0.0011685391552194,-0.0011685378836694,0.0011685400678362,-0.0011685395889447,0.0011685383795151,-0.0011685386738823,0.0011685392879801,-0.00096646080496621,0.00096645999608,-0.00096645849751399,0.00096646230702122,0.66097249683011,131329,3014,0.0031103458354051,0.0031103458353987,0.0042312482628531,40.99122963088,8.7929837047038e-05,8.7929837047038e-05,8.7929837047038e-05,4720847.373659,0.010507472124796
8219200,0.71021892377964,0.010987324159433,0.0033505589903864,0.0033505589904016,0.0042862061786449,-0.00076489773436183,0.00076489803988145,-1.0491192916846e-09,1.3556454882844e-09,-2.189570167252e-09,2.5810497414962e-09,-0.00090339782747452,0.00090339575838556,-0.00090339702958302,0.00090339656769253,-0.0009033963218501,0.00090339733575115,-0.00090339552259501,0.00090339813564688,-0.00084915573007572,0.00084915527387147,-0.00084915335508339,0.00084915759596372,2.1876407307977e-09,-2.5554945517357e-09,1.396513084863e-09,-1.6820495079379e-09,-0.00076489802967583,0.00076489774459506,-0.00090339570916614,0.00090339797293334,-0.0009033966739219,0.0009033969566856,-0.00090339720426898,0.00090339641407981,-0.00090339817340004,0.00090339539430284,-0.00084915493301523,0.00084915611814037,-0.00084915789237231,0.00084915299904553,-0.00077267415660345,0.000772677495491,-0.00077267880907259,0.00077267273347268,1.5026123808997e-09,-9.3202859366623e-10,-0.0010476436673967,0.0010476442173377,-1.1621814743155e-09,1.8358311666474e-09,-0.0012051849754256,0.0012051852995113,-0.0012051839953433,0.0012051862724411,-0.0012051857896787,0.0012051844951022,-0.0012051848139217,0.0012051854642317,-0.00099304725766146,0.00099304643053542,-0.00099304486654372,0.00099304882494882,0.65549140047774,131329,3014,0.0031832818711524,0.0031832818712102,0.0043541402348739,41.181860082794,8.9454880662351e-05,8.9454880662351e-05,8.9454880662351e-05,4742325.3515118,0.010779156858879
8419200,0.73148745623446,0.011250270490133,0.0034260676285575,0.0034260676285653,0.0043981352330099,-0.00078158711618379,0.0007815874217196,-1.0921168245513e-09,1.3986586424974e-09,-2.1999055763947e-09,2.5914977703455e-09,-0.00092636899069131,0.00092636688603066,-0.00092636816421725,0.00092636772411923,-0.00092636747809506,0.00092636847026699,-0.00092636665035376,0.00092636929899878,-0.00086732037095254,0.00086731983771226,-0.00086731791286708,0.00086732224485291,2.1978516999237e-09,-2.5658910780462e-09,1.4776990055514e-09,-1.7632768760927e-09,-0.00078158741157336,0.00078158712633443,-0.0009263668240532,0.00092636914874112,-0.00092636784324752,0.00092636807846449,-0.0009263683260842,0.00092636758307536,-0.00092636934968323,0.00092636650925696,-0.0008673194592059,0.00086732079673966,-0.00086732257840501,0.00086731751919969,-0.00078891381372361,0.00078891711899963,-0.00078891848651997,0.00078891233659025,1.5481741555481e-09,-9.7206906457498e-10,-0.001076069819978,0.0010760703758237,-1.2398842100502e-09,1.919713673168e-09,-0.0012403075354525,0.001240307840266,-0.0012403065013471,0.0012403088670678,-0.0012403083782854,0.0012403070073046,-0.0012403073484844,0.0012403080304822,-0.0010185480442608,0.0010185471925811,-0.0010185455691761,0.0010185496708271,0.65380935495796,131329,3014,0.003252693435667,0.0032526934356762,0.004471959423192,41.431297291339,9.1450378330716e-05,9.1450378330716e-05,9.1450378330716e-05,4765003.2919195,0.011038659829941
8619200,0.75172242459575,0.011499924996585,0.0034976118394339,0.0034976118394385,0.004504701317713,-0.0007973611320669,0.00079736143720679,-1.1353226303494e-09,1.4414332880848e-09,-2.2051637829954e-09,2.5964279904366e-09,-0.00094813921422805,0.00094813707709716,-0.00094813835914706,0.00094813794389491,-0.00094813769812729,0.00094813866462558,-0.0009481368418136,0.00094813952215128,-0.00088455489291555,0.00088455427850577,-0.00088455235091233,0.00088455676998632,2.202818881272e-09,-2.5709416999977e-09,1.5546756904013e-09,-1.8402731436808e-09,-0.00079736142725821,0.00079736114201972,-0.000948137003782,0.00094813938333631,-0.00094813807461002,0.00094813826180577,-0.00094813850925475,0.00094813781434233,-0.00094813958446855,0.00094813668930047,-0.00088455386713667,0.00088455535188116,-0.00088455713705184,0.00088455192359779,-0.00080428800200558,0.00080429126580012,-0.00080429268464834,0.00080428647362363,1.5953108304668e-09,-1.0105292382607e-09,-0.0011031248488497,0.0011031254134857,-1.3117912821327e-09,2.0009947099263e-09,-0.0012737295831699,0.0012737298742386,-0.0012737284978264,0.0012737309521013,-0.0012737304545578,0.0012737290127372,-0.0012737293735278,0.0012737300870919,-0.0010428158384109,0.0010428149628585,-0.0010428132793847,0.0010428175248477,0.65260875772029,131329,3014,0.0033182975666649,0.0033182975666739,0.0045840801482819,41.682083458134,9.3456667665075e-05,9.3456667665075e-05,9.3456667665075e-05,4786417.9541034,0.01128476516986
8819200,0.7709141319911,0.011726575332726,0.0035620970304675,0.0035620970304696,0.004602381271789,-0.00081176442322663,0.00081176472773253,-1.1786074124996e-09,1.4840985944831e-09,-2.2045153162762e-09,2.595178060474e-09,-0.00096841686755808,0.00096841470174373,-0.00096841598381299,0.00096841559719426,-0.00096841535201218,0.00096841628857419,-0.00096841446706027,0.00096841717483144,-0.00089994661904523,0.00089994591929552,-0.00089994399347847,0.00089994849539121,2.2020003917855e-09,-2.5697730199078e-09,1.6249503948009e-09,-1.9101056496357e-09,-0.00081176471790515,0.00081176443305323,-0.00096841461934425,0.00096841704549274,-0.00096841573714795,0.00096841587725973,-0.00096841612427702,0.00096841547718021,-0.00096841724644479,0.00096841430546667,-0.00089994548149712,0.00089994710471917,-0.00089994888894073,0.00089994353945981,-0.00081811190929163,0.00081811512483806,-0.00081811658996644,0.00081811033482957,1.643157484255e-09,-1.0482860700507e-09,-0.0011282799434148,0.001128280518349,-1.3761504580481e-09,2.0761008795726e-09,-0.0013049758159383,0.0013049760994343,-0.001304974684007,0.0013049772237574,-0.0013049767158701,0.0013049752094159,-0.0013049755882813,0.0013049763303265,-0.0010651373961303,0.0010651364932548,-0.0010651347532461,0.0010651391389714,0.62941993041795,131329,3014,0.0033782025799293,0.0033782025799279,0.0046883117599507,41.932916840324,9.5463334722591e-05,9.5463334722591e-05,9.5463334722591e-05,4809691.6464312,0.011511418322106
9019200,0.7886586259228,0.011936217222349,0.0036217069339303,0.0036217069339322,0.0046928033544863,-0.00082424331289054,0.00082424361772838,-1.2213552345242e-09,1.5271879112223e-09,-2.2275119901554e-09,2.6187451204871e-09,-0.00098633436097808,0.00098633215137326,-0.00098633344872655,0.00098633307541113,-0.00098633282997003,0.00098633375366542,-0.00098633191635665,0.00098633466869013,-0.000913396675,0.00091339590699333,-0.00091339396577033,0.00091339856779536,2.2250459669953e-09,-2.593393070677e-09,1.7183810920085e-09,-2.0038433027707e-09,-0.00082424360796562,0.00082424332264394,-0.00098633205214487,0.00098633455576225,-0.00098633323237336,0.00098633332508245,-0.00098633357278133,0.00098633297185983,-0.0009863347572225,0.00098633173788261,-0.00091339541970376,0.00091339721035204,-0.00091339901035394,0.00091339346212932,-0.00083008298733273,0.00083008618577724,-0.00083008771315173,0.00083008135048674,1.6926831124575e-09,-1.084277146548e-09,-0.0011507408392911,0.0011507414279739,-1.4620732264018e-09,2.1765336885369e-09,-0.0013330913994565,0.0013330916631599,-0.0013330902053184,0.0013330928495133,-0.001333092327996,0.0013330907446163,-0.0013330911381279,0.0013330919277872,-0.0010849971384664,0.0010849962276141,-0.0010849944120215,0.0010849989567768,0.62977530470527,131329,3014,0.0034301064682429,0.0034301064682235,0.0047813690928775,41.74973418628,9.3997873490237e-05,9.3997873490237e-05,9.3997873490237e-05,4818658.9452381,0.011710623442943
9219200,0.804949179523,0.012126261676502,0.0036756286896054,0.0036756286896114,0.0047750042972856,-0.00083526970973883,0.00083527001495005,-1.2640737064748e-09,1.5702714279034e-09,-2.2469078688305e-09,2.6387333494192e-09,-0.001002408202773,0.001002405951824,-0.0010024072620854,0.0010024069045093,-0.0010024066587195,0.0010024075672139,-0.0010024057164738,0.0010024085109676,-0.00092528669018566,0.00092528585160499,-0.00092528389720638,0.00092528859681487,2.2444057121986e-09,-2.6136305086945e-09,1.8046448909049e-09,-2.090687646211e-09,-0.00083527000530627,0.0008352697193791,-0.0010024058382848,0.00100240841212,-0.0010024070758944,0.0010024071237186,-0.0010024073722256,0.0010024068149735,-0.0010024086138949,0.0010024055233991,-0.00092528532197642,0.00092528726821449,-0.00092528908213998,0.00092528335058946,-0.00084049429431036,0.00084049747322757,-0.00084049905912605,0.00084049259906391,1.7426413442678e-09,-1.1198084321505e-09,-0.0011709346697422,0.0011709352730759,-1.5404925333635e-09,2.2703376780953e-09,-0.0013585103112857,0.0013585105606553,-0.0013585090596444,0.0013585118043923,-0.0013585112683847,0.0013585096135909,-0.0013585100209565,0.0013585108543097,-0.0011027590533045,0.0011027581308448,-0.0011027562431733,0.0011027609434585,0.62300580666561,131329,3014,0.0034759712302103,0.0034759712302032,0.0048650234632667,41.45163961641,9.1613116931282e-05,9.1613116931282e-05,9.1613116931282e-05,4823493.3778751,0.011888127725492
9419200,0.81989479363492,0.012298432438759,0.0037243971770539,0.003724397177063,0.0048496380846418,-0.00084516753457849,0.00084516783989863,-1.30692381061e-09,1.6132265048318e-09,-2.2576145404843e-09,2.6496780061557e-09,-0.0010169246704149,0.001016922383678,-0.0010169237012501,0.0010169233650771,-0.0010169231190915,0.001016924006293,-0.0010169221482394,0.0010169249786363,-0.0009359551981813,0.00093595428311521,-0.00093595232174922,0.00093595711252415,2.2548045914015e-09,-2.6245811714167e-09,1.8782194128392e-09,-2.1645806873754e-09,-0.00084516783039057,0.00084516754408239,-0.0010169222605786,0.0010169248898429,-0.0010169235461849,0.0010169235523198,-0.0010169238018297,0.0010169232855643,-0.0010169250914658,0.0010169219448424,-0.00093595372329926,0.0009359558067368,-0.00093595762811796,0.00093595174460922,-0.00084980678418709,0.00084980993468711,-0.00084981157015755,0.00084980503944854,1.7927647722668e-09,-1.1551278831067e-09,-0.0011892285562879,0.0011892291746096,-1.6058055846534e-09,2.3513562633273e-09,-0.001381619131489,0.0013816193755489,-0.0013816178309223,0.00138162066809,-0.0013816201170443,0.0013816184000538,-0.0013816188207776,0.0013816196895541,-0.0011187840945524,0.0011187831518793,-0.0011187812006212,0.0011187860482785,0.61620824509997,131329,3014,0.0035171424279222,0.0035171424279138,0.0049407995928416,41.150852548381,8.9206820387049e-05,8.9206820387049e-05,8.9206820387049e-05,4828306.1699471,0.012048186067894
9619200,0.83360140692332,0.012454319788196,0.0037684861943895,0.0037684861944001,0.004917347399406,-0.00085404242562802,0.00085404273072205,-1.3499279183052e-09,1.6560012243287e-09,-2.2603593211037e-09,2.6522781631345e-09,-0.0010299997371281,0.0010299974197671,-0.0010299987395197,0.0010299984298436,-0.0010299981840067,0.0010299990441371,-0.0010299971845369,0.0010300000451302,-0.00094552164037823,0.00094552064288335,-0.00094551868003297,0.00094552355629627,2.2573536826369e-09,-2.6273107934275e-09,1.9390224707653e-09,-2.2254941343889e-09,-0.00085404272135458,0.0008540424349973,-0.0010299972911751,0.001029999962436,-0.0010299986165101,0.0010299985843455,-0.0010299988343842,0.0010299983563731,-0.0010300001636507,0.0010299969751319,-0.00094552006584129,0.00094552226645758,-0.00094552408964187,0.00094551808494146,-0.00085814857639,0.00085815169131164,-0.00085815336752482,0.00085814679115185,1.8426373681638e-09,-1.1906946699775e-09,-0.0012057974959284,0.0012057981286248,-1.6587153717075e-09,2.4193433366629e-09,-0.0014026220131528,0.0014026222596983,-0.0014026206722269,0.0014026235925175,-0.0014026230272015,0.0014026212557344,-0.0014026216905937,0.0014026225855708,-0.0011332348812521,0.0011332339096493,-0.0011332319035665,0.0011332368896259,0.60938041069541,131329,3014,0.0035540592814962,0.0035540592815003,0.0050094248459736,40.849970896999,8.6799767175991e-05,8.6799767175991e-05,8.6799767175991e-05,4832291.4677261,0.01219241582063
9819200,0.84593237883935,0.012595469864379,0.0038084594210684,0.0038084594210804,0.0049785510222302,-0.00086130851937653,0.00086130882473095,-1.3926161112396e-09,1.6989754627894e-09,-2.2731248562136e-09,2.6654852300794e-09,-0.0010409866508309,0.0010409842965441,-0.0010409856248036,0.0010409853351561,-0.0010409850891569,0.0010409859295214,-0.0010409840610351,0.001040986959177,-0.00095347445186003,0.000953473379303,-0.00095347140782793,0.00095347637715987,2.2703078960784e-09,-2.6407036805781e-09,2.001548718255e-09,-2.2882512681386e-09,-0.00086130881540521,0.00086130852870115,-0.0010409841615359,0.0010409868828309,-0.0010409855282287,0.0010409854628924,-0.001040985713697,0.0010409852679185,-0.0010409870841344,0.0010409838450021,-0.00095347278308464,0.0009534750973006,-0.00095347692935415,0.00095347079332461,-0.00086496508200734,0.00086496818066539,-0.00086496989858545,0.00086496325485951,1.8924781912668e-09,-1.2262897934533e-09,-0.0012199153003853,0.0012199159475159,-1.7135077705138e-09,2.4892106658816e-09,-0.0014207087592011,0.0014207090071579,-0.0014207073767264,0.0014207103814341,-0.0014207098018194,0.0014207079746667,-0.0014207084235472,0.0014207093461562,-0.0011454822033407,0.00114548120401,-0.0011454791421874,0.0011454842674177,0.61213711732906,131329,3014,0.0035842878768215,0.0035842878768193,0.0050678928171383,40.183035199927,8.1464281599415e-05,8.1464281599415e-05,8.1464281599415e-05,4825804.6106324,0.012312837685313
10019200,0.85701742176262,0.012723442839095,0.0038447719246234,0.0038447719246375,0.0050338989898341,-0.00086766769612741,0.00086766800132405,-1.435546038701e-09,1.7417610476603e-09,-2.2764353763148e-09,2.6687013531232e-09,-0.0010506463814843,0.0010506439961813,-0.0010506453268774,0.0010506450634947,-0.0010506448175715,0.0010506456313911,-0.0010506437609135,0.0010506466895743,-0.00096052511345268,0.00096052395921182,-0.00096052198596176,0.00096052704100762,2.2732184366e-09,-2.643785566912e-09,2.0461847713495e-09,-2.3329255939481e-09,-0.00086766799210706,0.00086766770534314,-0.0010506438610106,0.0010506466138369,-0.0010506452570269,0.001050645164188,-0.0010506454151967,0.0010506449969749,-0.0010506468150551,0.001050643544228,-0.00096052336122612,0.00096052576104747,-0.00096052759508922,0.00096052136940241,-0.00087098272860328,0.0008709858033631,-0.00087098755125642,0.00087098087166116,1.9414583632503e-09,-1.2626571505731e-09,-0.0012323813553712,0.0012323820152465,-1.7511086403625e-09,2.5400586694512e-09,-0.0014367098535491,0.0014367101131236,-0.001436708441481,0.0014367115169327,-0.0014367109245602,0.0014367090522523,-0.0014367095168118,0.0014367104531842,-0.0011563218555887,0.0011563208145379,-0.0011563187106694,0.001156323961759,0.61574677704762,131329,3014,0.0036107446642161,0.0036107446642137,0.0051195161235804,39.478769236285,7.5830153890279e-05,7.5830153890279e-05,7.5830153890279e-05,4817097.5717401,0.012418703467247
10219200,0.86699605087678,0.012839794860813,0.0038778592163634,0.0038778592163795,0.0050840764280701,-0.00087329413879756,0.00087329444349476,-1.4786197785043e-09,1.7843523477606e-09,-2.2720810353075e-09,2.6638427986957e-09,-0.0010592009465136,0.0010591985351979,-0.0010591998634095,0.001059199631106,-0.0010591993856258,0.0010592001673117,-0.0010591983003837,0.0010592012540901,-0.00096684557228461,0.00096684433058973,-0.00096684236113737,0.00096684749653882,2.2688020549561e-09,-2.6391001086929e-09,2.0769344086953e-09,-2.3633782626802e-09,-0.000873294434375,0.00087329414791693,-0.0010591984042818,0.0010592011746993,-0.0010591998203954,0.0010591997046388,-0.0010591999555682,0.0010591995608676,-0.001059201375471,0.0010591980877436,-0.00096684374486582,0.00096684620786643,-0.00096684803865039,0.00096684175641835,-0.00087636219993551,0.00087636524559941,-0.00087636701378808,0.00087636032295319,1.9895052143931e-09,-1.2999812701116e-09,-0.001243444851999,0.0012434455227422,-1.7758976661336e-09,2.57602878553e-09,-0.001450917351995,0.001450917630675,-0.0014509159196543,0.00145091905471,-0.0014509184514669,0.0014509165413473,-0.0014509170234473,0.001450917962552,-0.0011659812495325,0.0011659801558363,-0.0011659780209861,0.0011659833866493,0.62007023714598,131329,3014,0.0036341536008933,0.0036341536008928,0.0051653278516001,38.773567129137,7.0188537033095e-05,7.0188537033095e-05,7.0188537033095e-05,4807572.4301051,0.012512520862907
10419200,0.87600647389269,0.012946032311771,0.0039081412456833,0.0039081412457005,0.0051297498203872,-0.00087834500769146,0.00087834531142028,-1.5218965793689e-09,1.8266184946471e-09,-2.2571853859476e-09,2.6478377064933e-09,-0.0010668614424816,0.0010668590120241,-0.0010668603309766,0.0010668601364307,-0.00106685989181,0.0010668606337117,-0.0010668587779818,0.0010668617491241,-0.00097260080328825,0.00097259946627952,-0.00097259750766218,0.00097260271563821,2.2543788102163e-09,-2.6240421937442e-09,2.087740540352e-09,-2.3738163008057e-09,-0.00087834530248907,0.00087834501663616,-0.0010668588916429,0.0010668616600408,-0.0010668603147079,0.0010668601828625,-0.0010668604333097,0.0010668600559924,-0.0010668618599936,0.0010668585759005,-0.00097259891316026,0.00097260140643896,-0.00097260322694589,0.0009725969339462,-0.00088124404761557,0.00088124705738226,-0.00088124883252053,0.00088124216411501,2.0365125352929e-09,-1.3384469130126e-09,-0.0012533670113986,0.0012533676905672,-1.7821814296983e-09,2.5910637183702e-09,-0.0014636769461307,0.0014636772545067,-0.001463675506746,0.001463678685557,-0.0014636780741574,0.0014636761366348,-0.0014636766389603,0.0014636775650129,-0.0011746842574454,0.0011746830962502,-0.001174680945279,0.0011746864104355,0.62506143667078,131329,3014,0.0036551682143647,0.0036551682143932,0.0052064107935425,38.098571747699,6.4788573981595e-05,6.4788573981595e-05,6.4788573981595e-05,4797133.8648359,0.012596707087171
10619200,0.88442021985155,0.013043238248999,0.0039357988468436,0.0039357988468606,0.0051716405552952,-0.00088395588113295,0.00088395618062833,-1.563187020386e-09,1.863396567661e-09,-2.17467316111e-09,2.5604785025511e-09,-0.0010749735106082,0.0010749711107593,-0.0010749723784049,0.0010749722557685,-0.0010749720205848,0.0010749726709281,-0.0010749708748983,0.0010749738180666,-0.00097885785130579,0.00097885635888289,-0.00097885446070185,0.00097885970083204,2.2304732622143e-09,-2.5995384149704e-09,2.0399569490285e-09,-2.3262043437609e-09,-0.00088395617350342,0.00088395588832278,-0.0010749709959114,0.0010749737223104,-0.0010749723929444,0.0010749722710368,-0.0010749725259038,0.0010749721294855,-0.0010749739154086,0.0010749706864362,-0.00097885593280404,0.00097885832927928,-0.00097886013355161,0.00097885396736904,-0.00088670060905313,0.00088670358566215,-0.00088670533173824,0.00088669875874658,2.0850576564493e-09,-1.3829976158428e-09,-0.0012636099395087,0.0012636106222387,-1.7459997691997e-09,2.5584694676022e-09,-0.0014766031687673,0.0014766035400215,-0.0014766017583453,0.0014766049423446,-0.001476604333099,0.0014766023856052,-0.0014766029152901,0.0014766037960408,-0.0011837560341632,0.0011837547811279,-0.0011837526495354,0.0011837581706832,0.613951134262,131329,3014,0.0036785066415562,0.0036785066416923,0.0052488212504127,38.0293088055,6.4234470443999e-05,6.4234470443999e-05,6.4234470443999e-05,4799466.4172184,0.01268695138679
10819200,0.8922785322024,0.013132313852479,0.0039610883790525,0.0039610883790649,0.0052101370943613,-0.00088912276954052,0.00088912306731758,-1.6095367258461e-09,1.9083414020978e-09,-2.1467085557037e-09,2.5303251091577e-09,-0.0010824855204596,0.0010824831055984,-0.0010824843539098,0.0010824842848605,-0.0010824840471038,0.0010824846489403,-0.0010824828754655,0.0010824858223684,-0.00098457220289832,0.00098457061487611,-0.00098456873825018,0.00098457403344913,2.1565679694487e-09,-2.5207825240632e-09,1.9928150095201e-09,-2.2745425046869e-09,-0.00088912305907338,0.00088912277779515,-0.0010824830394826,0.0010824856828237,-0.0010824843993359,0.0010824842690987,-0.0010824845166869,0.0010824841438645,-0.0010824858771008,0.0010824827300922,-0.00098457024844177,0.00098457261954495,-0.00098457436899601,0.00098456834098905,-0.00089168804378036,0.00089169092199082,-0.00089169262869329,0.00089168623046731,2.124705251066e-09,-1.4231958998128e-09,-0.0012730920097756,0.0012730926923017,-1.6875993731152e-09,2.4991816735683e-09,-0.0014885967290124,0.001488597162469,-0.0014885953542444,0.0014885985299158,-0.0014885979168153,0.0014885959856112,-0.0014885965415695,0.0014885973529274,-0.0011921086461545,0.0011921072628007,-0.0011921051718475,0.0011921107418815,0.60386754826786,131329,3014,0.003699998160619,0.0036999981606408,0.0052880798547387,37.973566383088,6.3788531064708e-05,6.3788531064708e-05,6.3788531064708e-05,4803370.7826111,0.012770268244674
11019200,0.89961466011337,0.013213767072742,0.0039841598181066,0.0039841598181181,0.0052454474365171,-0.0008938492831919,0.00089384957824623,-1.6538742489534e-09,1.9499981174843e-09,-2.1012826426106e-09,2.4816572125168e-09,-0.0010894106802753,0.0010894082655781,-0.0010894094850769,0.0010894094734464,-0.001089409238121,0.0010894097772985,-0.0010894080379165,0.0010894109793387,-0.00098976039286514,0.00098975868690448,-0.00098975684444808,0.00098976218946061,2.1098067022507e-09,-2.4708718862052e-09,1.9347537942554e-09,-2.2138867109523e-09,-0.00089384957005554,0.0008938492913941,-0.0010894082336295,0.0010894108079532,-0.0010894095539847,0.0010894094339749,-0.0010894096790881,0.0010894093011291,-0.0010894110000354,0.0010894079270581,-0.000989758420162,0.00098976070965289,-0.00098976242461062,0.00098975654787952,-0.00089620650134816,0.0008962093277685,-0.00089621099224897,0.0008962047307335,2.1663583894147e-09,-1.466645304875e-09,-0.0012818329813094,0.0012818336620173,-1.6292199180087e-09,2.438469676337e-09,-0.0014996804079178,0.0014996809076613,-0.0014996790726678,0.0014996822355468,-0.0014996816241191,0.0014996797022998,-0.0014996802885087,0.0014996810300869,-0.0011997603772939,0.0011997588678294,-0.0011997568183611,0.0011997624313482,0.59320720762543,131329,3014,0.0037196578237747,0.003719657823799,0.0053242690145278,37.918293552748,6.3346348421986e-05,6.3346348421986e-05,6.3346348421986e-05,4808066.0416556,0.012846770040028
11219200,0.90645105445946,0.013289653373903,0.004005665610927,0.0040056656109389,0.0052783221520367,-0.00089819210431509,0.00089819239700246,-1.6979209849735e-09,1.9917949759425e-09,-2.0670482763882e-09,2.4446505418981e-09,-0.0010957744686723,0.0010957720465462,-0.0010957732446785,0.0010957732831165,-0.0010957730498935,0.0010957735345821,-0.0010957718212003,0.001095774765117,-0.00099455285974247,0.00099455104414719,-0.00099454922843881,0.00099455463109259,2.0745433966217e-09,-2.4327176826851e-09,1.8739438744967e-09,-2.1504844949437e-09,-0.000898192388789,0.00089819211252659,-0.0010957720498909,0.0010957745606338,-0.0010957733289309,0.0010957732282172,-0.0010957734710241,0.0010957730784394,-0.0010957747509148,0.0010957717456746,-0.00099455087914008,0.00099455307467699,-0.00099455476311038,0.0009945490352019,-0.00090034470908831,0.00090034750762195,-0.00090034912809938,0.00090034298275342,2.2071209342646e-09,-1.5111078359282e-09,-0.0012898999149542,0.0012899005921356,-1.569316155704e-09,2.3742901109492e-09,-0.0015099079685016,0.0015099085346857,-0.0015099066744768,0.0015099098213085,-0.0015099092129384,0.0015099073009616,-0.0015099079188575,0.0015099085873053,-0.0012068106377939,0.0012068089988049,-0.0012068069950786,0.0012068126465725,0.59263237300362,131329,3014,0.0037377211343598,0.003737721134356,0.0053576668103174,37.837453661295,6.2699629290357e-05,6.2699629290357e-05,6.2699629290357e-05,4812392.5412142,0.012917213834041
11419200,0.9127775286614,0.013360463892658,0.0040257640573882,0.0040257640574014,0.0053089357778688,-0.0009019912734627,0.00090199156413502,-1.7413245226429e-09,2.0333025727374e-09,-2.0488345625693e-09,2.4242023538704e-09,-0.001101415578271,0.001101413138727,-0.0011014143262887,0.0011014144031727,-0.0011014141724069,0.0011014146135477,-0.0011014129149331,0.0011014158728888,-0.00099880490343828,0.00099880298831527,-0.00099880118810275,0.00099880666018951,2.0609353997035e-09,-2.4170457971582e-09,1.8177434757609e-09,-2.0924603119898e-09,-0.00090199155607705,0.00090199128151342,-0.0011014131734964,0.0011014156384559,-0.0011014144151835,0.0011014143436625,-0.0011014145852877,0.0011014141657099,-0.0011014158269896,0.0011014128714534,-0.00099880292433747,0.00099880501791534,-0.00099880669519645,0.00099880109261289,-0.00090396755370361,0.00090397036183491,-0.00090397194256909,0.00090396586782935,2.2481203244673e-09,-1.5562797378399e-09,-0.0012971159817537,0.00129711665481,-1.5153628274117e-09,2.3155975386435e-09,-0.001519106210876,0.0015191068397868,-0.001519104954824,0.0015191080883595,-0.0015191074843307,0.001519105576858,-0.0015191062274175,0.0015191068260566,-0.001213106947877,0.0012131051837772,-0.0012131032225857,0.0012131089151184,0.59626239170913,131329,3014,0.0037535244853525,0.0037535244853376,0.005387540644183,37.630191558673,6.1041532469382e-05,6.1041532469382e-05,6.1041532469382e-05,4812567.7809361,0.012979512445504
11619200,0.91863240240612,0.013426387332245,0.0040444994029795,0.0040444994029949,0.0053373885262711,-0.00090548242393209,0.00090548271343782,-1.7850878098516e-09,2.0758356422049e-09,-2.0444522254467e-09,2.4184330994407e-09,-0.0011065921687784,0.001106589702698,-0.0011065908876966,0.0011065909961728,-0.0011065907659293,0.0011065911742368,-0.0011065894800779,0.0011065924620074,-0.001002751613176,0.0010027496104272,-0.0010027478141228,0.0010027533651862,2.0523664258061e-09,-2.4074477201909e-09,1.7629672399916e-09,-2.0368474248414e-09,-0.00090548270546856,0.00090548243190873,-0.0011065897713358,0.0011065921945782,-0.0011065909761775,0.0011065909370048,-0.0011065911771897,0.0011065907281561,-0.0011065923826634,0.0011065894704159,-0.0010027496396976,0.0010027516332753,-0.0010027533040271,0.0010027478148348,-0.00090731678293667,0.00090731961205124,-0.00090732115542382,0.0009073151346314,2.2880814895635e-09,-1.6010742292225e-09,-0.0013037577660276,0.0013037584341126,-1.4627274838559e-09,2.2574483047098e-09,-0.0015275781712642,0.0015275788601375,-0.0015275769518512,0.0015275800721264,-0.0015275794727345,0.0015275775693002,-0.0015275782530819,0.0015275787812737,-0.0012189174011102,0.0012189155115155,-0.001218913591279,0.0012189193263685,0.59873360150023,131329,3014,0.0037680469788657,0.0037680469788816,0.0054150356914766,37.420102864079,5.9360822912635e-05,5.9360822912635e-05,5.9360822912635e-05,4811129.2156881,0.013036808849997
11819200,0.92405215941725,0.013487895297477,0.0040620063341865,0.0040620063342028,0.0053638826290873,-0.00090870169145975,0.00090870198010056,-1.8283803771757e-09,2.1182561882863e-09,-2.0441614438299e-09,2.4171804807073e-09,-0.0011113557826999,0.0011113532876232,-0.0011113544729552,0.0011113546096772,-0.0011113543801675,0.001111354758638,-0.0011113530658005,0.0011113560749729,-0.00100642681883,0.0010064247310009,-0.0010064229360072,0.0010064285694299,2.0514874529429e-09,-2.4058105214451e-09,1.7101337769257e-09,-1.9833673414255e-09,-0.00090870197220761,0.00090870169936126,-0.001111353388265,0.0011113557761263,-0.0011113545579169,0.0011113545540678,-0.0011113547934196,0.0011113543105835,-0.0011113559637803,0.0011113530882728,-0.0010064248539703,0.0010064267449442,-0.0010064284145649,0.0010064230308125,-0.00091043283850483,0.00091043570130131,-0.00091043720881048,0.00091043122638613,2.3280520913714e-09,-1.6464324629125e-09,-0.0013098807160721,0.0013098813786972,-1.412778474705e-09,2.2014748350138e-09,-0.0015353936839306,0.0015353944311392,-0.0015353924997802,0.0015353956078673,-0.0015353950137908,0.001535393111893,-0.001535393829525,0.0015353942885335,-0.0012242947620608,0.0012242927479661,-0.0012242908683508,0.0012242966465904,0.60218093307532,131329,3014,0.0037814387647959,0.0037814387648142,0.0054403816931475,37.209915988976,5.7679327911806e-05,5.7679327911806e-05,5.7679327911806e-05,4808565.5879083,0.013089639140444
12019200,0.92907799396881,0.013546942618388,0.0040788951103875,0.0040788951104043,0.0053891523975958,-0.00091179777096524,0.000911798059173,-1.8714706519444e-09,2.1608917909156e-09,-2.0515468282997e-09,2.4241126649044e-09,-0.0011158468907313,0.001115844361787,-0.0011158455523278,0.0011158457124537,-0.0011158454832282,0.0011158458375791,-0.0011158441403583,0.0011158471824842,-0.0010100463291176,0.0010100441618622,-0.0010100423622829,0.0010100480837328,2.0582022103604e-09,-2.4123015199033e-09,1.6617440141432e-09,-1.9348295717872e-09,-0.0009117980513702,0.00091179777878369,-0.0011158444929315,0.0011158468533209,-0.0011158456305192,0.0011158456636756,-0.0011158459025608,0.0011158453834249,-0.0011158470409496,0.0011158441934212,-0.00101004437405,0.0010100461657338,-0.0010100478399409,0.0010100425464699,-0.00091350299905698,0.00091350590727447,-0.00091350738259071,0.00091350141941726,2.3679942324017e-09,-1.6917974891598e-09,-0.0013156692466297,0.0013156699037035,-1.3675156453357e-09,2.1501791223567e-09,-0.0015427374270881,0.0015427382293301,-0.0015427362750542,0.0015427393739059,-0.0015427387853129,0.0015427368816967,-0.0015427376333039,0.001542738026102,-0.0012294494984885,0.0012294473631733,-0.0012294455208975,0.0012294513454471,0.61929851348573,131329,3014,0.0037943175642025,0.0037943175642355,0.0054643425475685,37.027603536428,5.6220828291424e-05,5.6220828291424e-05,5.6220828291424e-05,4805028.9850015,0.01314002848468
12219200,0.93375660153388,0.013603929511152,0.0040952693567388,0.004095269356756,0.0054133907976573,-0.00091486190465375,0.00091486219271062,-1.9142161974797e-09,2.2034907839867e-09,-2.0624149553447e-09,2.4348722943816e-09,-0.0011202071842193,0.0011202046194935,-0.0011202058174383,0.0011202059984676,-0.0011202057694834,0.0011202061024023,-0.0011202043980434,0.0011202074759065,-0.0010137005162856,0.0010136982722449,-0.0010136964656564,0.0010137022781079,2.0711429280385e-09,-2.4253356514456e-09,1.6188933488445e-09,-1.8919895075406e-09,-0.00091486218499331,0.00091486191238591,-0.0011202047782501,0.0011202071189463,-0.0011202058876562,0.0011202059577701,-0.0011202061967078,0.0011202056403134,-0.0011202073066622,0.0011202044790102,-0.0010136985691961,0.0010137002678865,-0.0010137019510969,0.0010136967333186,-0.00091662501917258,0.0009166279809506,-0.00091662942790346,0.00091662346805741,2.4081564560615e-09,-1.7373299660562e-09,-0.0013212631782645,0.0013212638299399,-1.3279419516967e-09,2.1047076891837e-09,-0.0015497827691808,0.0015497836231483,-0.0015497816455988,0.0015497847392465,-0.0015497841560701,0.0015497822468428,-0.001549783032304,0.0015497833630163,-0.0012345217047446,0.001234519452051,-0.001234517643558,0.0012345235179593,0.637899820733,131329,3014,0.0038070636280838,0.0038070636281151,0.0054874960867862,36.91406895299,5.5312551623922e-05,5.5312551623922e-05,5.5312551623922e-05,4799561.355794,0.013189334048646
12419200,0.93811239670144,0.013655075682228,0.0041098995211893,0.004109899521207,0.005435276639832,-0.00091760143131814,0.00091760171958276,-1.9570816099414e-09,2.2465679153041e-09,-2.0792688961743e-09,2.4520445470164e-09,-0.0011242324435027,0.0011242298388517,-0.0011242310479034,0.0011242312465965,-0.00112423101726,0.001124231333196,-0.0011242296173302,0.0011242327352348,-0.0010169048090507,0.0010169024929319,-0.0010169006748003,0.001016906582488,2.0857544015514e-09,-2.4402104048336e-09,1.5832476806004e-09,-1.8565202331192e-09,-0.00091760171186018,0.00091760143905433,-0.0011242300244957,0.0011242323511433,-0.001124231110302,0.0011242312138512,-0.0011242314527436,0.0011242308627778,-0.0011242325393731,0.0011242297250688,-0.0010169028653968,0.0010169044848655,-0.0010169061783513,0.0010169010197966,-0.00091939942832305,0.00091940244294731,-0.00091940386634359,0.00091939790061934,2.4482612964156e-09,-1.7823061310652e-09,-0.0013263655459341,0.0013263661927023,-1.2951059380202e-09,2.0665416102488e-09,-0.0015562735007102,0.0015562744017335,-0.0015562724006401,0.0015562754942986,-0.0015562749158199,0.0015562729972221,-0.0015562738158535,0.0015562740895823,-0.0012391218447713,0.0012391194797461,-0.0012391176998192,0.0012391236294021,0.61826607443087,131329,3014,0.0038184619834741,0.0038184619835028,0.0055086121203203,36.802074904589,5.4416599236713e-05,5.4416599236713e-05,5.4416599236713e-05,4791847.4415735,0.013233847128628
12619200,0.94216781844379,0.013699893824105,0.0041226280637921,0.0041226280638103,0.0054546376965026,-0.00092001969784776,0.00092001998638578,-1.9997701037784e-09,2.2895358745742e-09,-2.0964530702684e-09,2.469631121288e-09,-0.0011278613071749,0.0011278586626019,-0.0011278598829784,0.0011278600988977,-0.0011278598692925,0.0011278601685489,-0.0011278584408315,0.001127861599157,-0.0010196265378426,0.001019624149846,-0.0010196223199469,0.0010196283233056,2.1027008955888e-09,-2.4575789039345e-09,1.5525265309574e-09,-1.8260670647955e-09,-0.00092001997868258,0.00092001970556314,-0.0011278588727223,0.0011278611901911,-0.0011278599383496,0.0011278600733313,-0.0011278603124334,0.0011278596903895,-0.0011278613789038,0.0011278585730847,-0.0010196245939244,0.0010196261418037,-0.0010196278473124,0.0010196227369755,-0.00092176885782327,0.00092177192620068,-0.0009217733295667,0.00092176735009939,2.4885853878952e-09,-1.8273245800766e-09,-0.0013309559972178,0.0013309566392884,-1.2672186645161e-09,2.0335467798065e-09,-0.0015621536617075,0.0015621546068724,-0.0015621525818909,0.0015621556791397,-0.0015621551052491,0.0015621531739273,-0.001562154025592,0.0015621542459767,-0.0012431729052501,0.0012431704314802,-0.0012431686765893,0.0012431746648112,0.58731203156365,131329,3014,0.0038285234854947,0.0038285234855204,0.0055276097452933,36.690134369037,5.3521074952293e-05,5.3521074952293e-05,5.3521074952293e-05,4788028.8543042,0.013273503431767
12819200,0.94590955931269,0.013741639507868,0.0041345100980955,0.0041345100981143,0.0054726193116584,-0.00092197041059861,0.00092197070018563,-2.0409786831787e-09,2.3321158626965e-09,-2.1155870711495e-09,2.4902176404428e-09,-0.0011308383495032,0.0011308356647604,-0.0011308368979844,0.0011308371283654,-0.001130836898793,0.0011308371836599,-0.0011308354417287,0.0011308386431516,-0.0010218590797179,0.0010218566216756,-0.0010218547787994,0.0010218608803407,2.1333338017618e-09,-2.4885992525764e-09,1.5396185591115e-09,-1.8131700695172e-09,-0.00092197069217671,0.00092197041859235,-0.0011308358890895,0.0011308382182165,-0.0011308369469625,0.0011308371092818,-0.0011308373498139,0.0011308366976035,-0.0011308384072408,0.0011308355897891,-0.001021857125105,0.0010218586249489,-0.0010218603516244,0.0010218552487382,-0.00092364734479868,0.00092365048002484,-0.00092365187506011,0.00092364584610864,2.5305943607264e-09,-1.8725459984169e-09,-0.0013348432429437,0.0013348438819282,-1.2564000175772e-09,2.0193309455022e-09,-0.0015671810930905,0.001567182073168,-0.0015671800222161,0.0015671831363439,-0.0015671825663719,0.0015671806106256,-0.0015671814945165,0.0015671816752685,-0.001246551814991,0.0012465492456442,-0.0012465475031862,0.0012465535622548,0.59134554505833,131329,3014,0.0038366393210815,0.0038366393210498,0.0055436986097798,36.406384142979,5.1251073143834e-05,5.1251073143834e-05,5.1251073143834e-05,4785011.0745215,0.013306266135032
13019200,0.9493186104493,0.013779837429809,0.0041453954962451,0.0041453954962671,0.0054890464372968,-0.00092326817229908,0.00092326846341464,-2.0823800670419e-09,2.3752571876704e-09,-2.1445143663817e-09,2.5211203175637e-09,-0.0011330459154676,0.0011330431843402,-0.0011330444361495,0.0011330446756896,-0.0011330444453392,0.0011330447229352,-0.0011330429596704,0.0011330462112419,-0.0010234026331785,0.001023400112829,-0.0010233982492108,0.0010234044564293,2.1693304301464e-09,-2.5254369852844e-09,1.5466270294662e-09,-1.8205176885366e-09,-0.00092326845501023,0.0009232681806634,-0.0011330434175898,0.0011330457752178,-0.0011330444807366,0.0011330446610649,-0.0011330449031427,0.0011330442301643,-0.0011330459649995,0.0011330431181625,-0.0010234006529169,0.0010234021414405,-0.0010234038931045,0.0010233987532422,-0.00092487760313254,0.00092488080396009,-0.00092488220438197,0.00092487609984691,2.5732036709236e-09,-1.9164229594764e-09,-0.0013378421079479,0.0013378427457632,-1.2642119673687e-09,2.0258662765582e-09,-0.0015712071060574,0.0015712081093388,-0.0015712060307935,0.0015712091768428,-0.0015712086087387,0.0015712066177475,-0.0015712075317713,0.0015712076879304,-0.0012491047476017,0.0012491020981751,-0.001249100352261,0.0012491064975641,0.59302697618979,131329,3014,0.0038420422755496,0.0038420422754659,0.0055561094042745,35.873228840921,4.698583072737e-05,4.698583072737e-05,4.698583072737e-05,4775603.7111871,0.01332980334265
13219200,0.95242819354944,0.013814865196652,0.0041553936884161,0.0041553936884433,0.0055040778197925,-0.00092436851173215,0.00092436880305676,-2.1264443710253e-09,2.4191362906939e-09,-2.1793233524911e-09,2.5561435129526e-09,-0.0011349642902966,0.0011349615067581,-0.0011349627807806,0.0011349630282893,-0.0011349627964041,0.0011349630689755,-0.0011349612823741,0.0011349645852595,-0.0010247345488521,0.00102473196915,-0.0010247300804808,0.0010247363943994,2.1883701839212e-09,-2.5466605813629e-09,1.5598529405331e-09,-1.835833955566e-09,-0.00092436879534296,0.00092436851945429,-0.0011349617556015,0.0011349641346201,-0.0011349628273421,0.0011349630119378,-0.0011349632538191,0.0011349625762755,-0.0011349643260778,0.0011349614535093,-0.0010247325310215,0.0010247340347749,-0.0010247358014857,0.0010247306143786,-0.0009259252279509,0.00092592845932147,-0.00092592987092486,0.00092592371151427,2.6144010469603e-09,-1.9582315041953e-09,-0.0013404721859914,0.0013404728230415,-1.2784305272661e-09,2.0394442487605e-09,-0.0015747659210863,0.0015747669413512,-0.0015747648356721,0.0015747680191709,-0.0015747674504711,0.0015747654227935,-0.0015747663648401,0.0015747665008526,-0.0012513430333624,0.0012513403092188,-0.0012513385542236,0.0012513447935781,0.59512404563367,131329,3014,0.0038466241345471,0.0038466241345651,0.0055669937331971,35.334470393226,4.2675763145806e-05,4.2675763145806e-05,4.2675763145806e-05,4765536.5637833,0.013350129273068
13419200,0.95526877926824,0.013846312649109,0.0041643580883562,0.0041643580883839,0.0055175964723685,-0.00092526660326893,0.00092526689527742,-2.1689707129924e-09,2.4622898953221e-09,-2.20001951112e-09,2.5776889026675e-09,-0.0011366174587392,0.0011366146332811,-0.0011366159207077,0.0011366161833383,-0.0011366159508554,0.0011366162095369,-0.0011366144082641,0.001136617754408,-0.0010258181919628,0.0010258155431063,-0.0010258136396102,0.0010258200521113,2.2087253829432e-09,-2.5680408396519e-09,1.5782088942046e-09,-1.8550257611726e-09,-0.00092526688760853,0.00092526661094914,-0.0011366148902277,0.0011366172950082,-0.0011366159745171,0.0011366161597846,-0.0011366164023758,0.0011366157226816,-0.0011366174871302,0.0011366145874278,-0.0010258161286459,0.0010258176542085,-0.001025819435706,0.0010258141970486,-0.0009267659206009,0.00092676917944167,-0.00092677060458765,0.00092676439064747,2.6572382438427e-09,-2.0006867305114e-09,-0.0013427464266221,0.0013427470640382,-1.2968552722557e-09,2.0583340879242e-09,-0.0015778894200906,0.0015778904566869,-0.0015778883222102,0.0015778915469585,-0.0015778909779659,0.0015778889096664,-0.0015778898798377,0.0015778900002085,-0.0012532568750123,0.0012532540800738,-0.0012532523119843,0.001253258648003,0.58608288501684,131329,3014,0.0038503651782698,0.0038503651782938,0.0055764049263816,34.795517404029,3.8364139232235e-05,3.8364139232235e-05,3.8364139232235e-05,4755122.751033,0.013367257989061
13619200,0.95788131191849,0.013874843000551,0.0041724853118582,0.0041724853118862,0.0055298723768071,-0.00092618031721911,0.00092618060939264,-2.2119818541492e-09,2.505429040892e-09,-2.2083293340547e-09,2.5862112269634e-09,-0.0011382159799372,0.0011382131201751,-0.0011382144130348,0.0011382146991641,-0.0011382144662838,0.0011382147021655,-0.0011382128951842,0.0011382162756029,-0.0010268918762947,0.0010268891493522,-0.0010268872398834,0.0010268937418571,2.2136428325939e-09,-2.5733760177339e-09,1.5980139293702e-09,-1.8752118039886e-09,-0.00092618060176703,0.00092618032486438,-0.0011382133860279,0.0011382158072733,-0.0011382144834795,0.0011382146589287,-0.0011382149014559,0.0011382142316696,-0.0011382159997335,0.0011382130829274,-0.0010268897561343,0.0010268913173575,-0.0010268931026701,0.0010268878202703,-0.00092761593137629,0.00092761918680762,-0.00092762062600033,0.00092761438761242,2.7000858921706e-09,-2.0426417759312e-09,-0.0013449187918582,0.001344919430086,-1.3162536932649e-09,2.0787192411423e-09,-0.0015808326420094,0.0015808336941428,-0.0015808315306264,0.001580834797869,-0.0015808342279712,0.0015808321190268,-0.0015808331167375,0.0015808332226852,-0.0012550866885974,0.0012550838243419,-0.0012550820417359,0.0012550884757593,0.57889844071682,131329,3014,0.0038541694460548,0.0038541694460961,0.0055853954444993,34.354995649338,3.4839965194706e-05,3.4839965194706e-05,3.4839965194706e-05,4748171.6217941,0.013384087477872
13819200,0.96029848723611,0.013901242282852,0.0041800125437177,0.0041800125437459,0.0055412171953885,-0.0009271316010656,0.00092713189300949,-2.2543137017344e-09,2.5476228804874e-09,-2.1996499659387e-09,2.577305396354e-09,-0.0011397880465479,0.0011397851643307,-0.0011397864517626,0.0011397867711555,-0.0011397865389253,0.0011397867402925,-0.0011397849392643,0.0011397883423249,-0.0010279991088402,0.0010279962920178,-0.0010279943887082,0.0010280009683916,2.2112924300852e-09,-2.5705772393596e-09,1.6185043940435e-09,-1.8952774684399e-09,-0.00092713188530479,0.00092713160878582,-0.001139785435203,0.0011397878687785,-0.0011397865464665,0.0011397867065446,-0.0011397869492075,0.0011397862948025,-0.0011397880606121,0.0011397851329257,-0.0010279969233925,0.0010279985253248,-0.0010280003086132,0.0010279949896118,-0.00092850826773975,0.00092851150394765,-0.00092851295656215,0.00092850671116324,2.743859867141e-09,-2.0853054246448e-09,-0.0013470322214122,0.0013470328607305,-1.3357429827335e-09,2.0994408538171e-09,-0.0015836487340884,0.0015836498028925,-0.0015836476096043,0.0015836509197018,-0.0015836503492214,0.0015836481986904,-0.0015836492242967,0.0015836493162498,-0.0012568811224446,0.0012568781890207,-0.0012568763916704,0.0012568829238076,0.57842148681168,131329,3014,0.0038581283812012,0.0038581283812339,0.005594142896392,34.002918308081,3.202334646465e-05,3.202334646465e-05,3.202334646465e-05,4743960.7251746,0.013400983389704
14019200,0.96253719338281,0.013925703944708,0.0041869925964907,0.0041869925965194,0.0055517187516981,-0.00092797397870691,0.00092797426991738,-2.297683101182e-09,2.5902141212366e-09,-2.1910477015261e-09,2.5678532067589e-09,-0.0011412002950257,0.0011411973894382,-0.0011411986715035,0.0011411990250498,-0.001141198793334,0.0011411989593763,-0.0011411971651124,0.0011412005899397,-0.0010289879946035,0.0010289850872331,-0.0010289831904854,0.0010289898472946,2.1998196910091e-09,-2.5585277992026e-09,1.6405570579839e-09,-1.9169216360645e-09,-0.00092797426234733,0.00092797398629376,-0.0011411976684097,0.0011412001091568,-0.00114119879412,0.0011411989324677,-0.001141199174549,0.0011411985430141,-0.0011412003005873,0.0011411973664356,-0.001028985738221,0.0010289873915165,-0.0010289891663187,0.0010289838125866,-0.00092929816666424,0.00092930136611312,-0.00092930283243344,0.00092929659599661,2.7870300102639e-09,-2.1271233220191e-09,-0.0013489385856513,0.0013489392263113,-1.3567023760266e-09,2.1219177343109e-09,-0.001586201038852,0.0015862021227624,-0.0015861998997709,0.0015862032541703,-0.0015862026821876,0.0015862004903022,-0.0015862015427954,0.0015862016221806,-0.0012584961950375,0.0012584931940981,-0.0012584913810359,0.0012584980126093,0.57820997708123,131329,3014,0.0038616343656801,0.0038616343657154,0.005602033286213,33.652834725275,2.9222677802198e-05,2.9222677802198e-05,2.9222677802198e-05,4739506.5746538,0.013416092467123
14219200,0.96461248918796,0.01394747390507,0.0041931759307297,0.0041931759307587,0.0055611220435812,-0.00092867007019206,0.00092867036066127,-2.3409684881078e-09,2.632766530672e-09,-2.1795073306648e-09,2.5554456849473e-09,-0.00114243556409,0.0011424326370353,-0.0011424339118354,0.0011424343014022,-0.001142434070234,0.0011424341990759,-0.0011424324135335,0.0011424358581146,-0.0010297817200477,0.0010297787204458,-0.0010297768326336,0.0010297835643453,2.1871391047821e-09,-2.5449428099941e-09,1.6633083703725e-09,-1.9388738803673e-09,-0.00092867035309025,0.00092867007777766,-0.0011424329233805,0.0011424353708347,-0.0011424340638152,0.0011424341793751,-0.0011424344207206,0.0011424338135552,-0.0011424355617411,0.0011424326219264,-0.0010297793906399,0.0010297810978168,-0.00102978286313,0.001029777474865,-0.00092992352416423,0.00092992668424403,-0.00092992816449642,0.00092992193948977,2.8303254988518e-09,-2.1689321282594e-09,-0.0013506062160944,0.0013506068583361,-1.3781000926646e-09,2.1449951267242e-09,-0.0015884703272324,0.001588471426207,-0.0015884691731612,0.0015884725725916,-0.0015884719987927,0.0015884697654903,-0.0015884708446708,0.0015884709120558,-0.0012598770446086,0.0012598739760669,-0.001259872146866,0.001259878878481,0.55856306729011,131329,3014,0.003864532299886,0.0038645322999168,0.005608935353257,33.302820339908,2.6422562719268e-05,2.6422562719268e-05,2.6422562719268e-05,4735003.0862601,0.013428967299455
14419200,0.96650598525508,0.013967588314889,0.0041989039715442,0.0041989039715736,0.0055697803717709,-0.00092874047878062,0.00092874076921011,-2.3843623415436e-09,2.6763171112023e-09,-2.1789213895355e-09,2.5548936395472e-09,-0.0011429235183624,0.0011429205622912,-0.001142921836743,0.0011429222560665,-0.0011429220246807,0.0011429221243508,-0.0011429203394811,0.0011429238119736,-0.0010299218251004,0.0010299187416533,-0.0010299168557862,0.0010299236711142,2.1798732944722e-09,-2.5363897608408e-09,1.6975846376026e-09,-1.9716877360175e-09,-0.00092874076121505,0.00092874048674169,-0.0011429208546069,0.0011429233192665,-0.0011429220168735,0.0011429221058681,-0.001142922346502,0.0011429217676554,-0.0011429235102435,0.0011429205532891,-0.0010299194162823,0.0010299211983517,-0.0010299229572058,0.0010299175098275,-0.0009298991798572,0.00092990230546578,-0.00092990380540306,0.00092989757450942,2.8734243542701e-09,-2.2097649374921e-09,-0.0013514728690082,0.0013514735140244,-1.4102577283297e-09,2.1798391864386e-09,-0.0015898433856185,0.0015898444929528,-0.0015898422087046,0.0015898456621054,-0.0015898450847724,0.0015898428046989,-0.0015898439087907,0.0015898439732963,-0.0012604763232537,0.0012604731947425,-0.0012604713421206,0.0012604781808947,0.56383119136015,131329,3014,0.0038648296111434,0.0038648296110726,0.0056125229985824,32.646683721143,2.1173469769144e-05,2.1173469769144e-05,2.1173469769144e-05,4726689.8987175,0.013433208946742
14619200,0.96822046224198,0.013985923059094,0.004204134780665,0.0042041347806956,0.0055776534977328,-0.00092840694746707,0.00092840723779639,-2.4267835986622e-09,2.7187043800944e-09,-2.176159359943e-09,2.5520713217965e-09,-0.0011429485384765,0.001142945555799,-0.0011429468286586,0.0011429472775962,-0.0011429470465925,0.0011429471159428,-0.0011429453327705,0.0011429488320592,-0.0010296407624747,0.0010296375931091,-0.0010296357087539,0.0010296426056484,2.1806146507376e-09,-2.5371399089832e-09,1.734804940348e-09,-2.0089731092174e-09,-0.00092840722982827,0.00092840695542195,-0.0011429458486703,0.0011429483388058,-0.0011429470356487,0.0011429471002182,-0.00114294734122,0.0011429467866538,-0.0011429485292705,0.0011429455475945,-0.0010296382752761,0.0010296401284943,-0.0010296418876702,0.0010296363670616,-0.00092947567295459,0.00092947877417165,-0.00092948029958447,0.00092947404296761,2.9183078317578e-09,-2.2508346900747e-09,-0.0013518066194995,0.0013518072680581,-1.4451943640983e-09,2.2188600165849e-09,-0.0015906215620346,0.0015906226767273,-0.0015906203605904,0.0015906238702975,-0.0015906232899594,0.0015906209595919,-0.0015906220891671,0.0015906221532182,-0.0012605801448942,0.001260576961493,-0.0012605750798462,0.0012605820308031,0.56645234537204,131329,3014,0.003863449195488,0.0038634491954608,0.0056139041504429,31.822022834878,1.4576182679023e-05,1.4576182679023e-05,1.4576182679023e-05,4713469.6868681,0.013431813582709
14819200,0.96977562708001,0.014002686073112,0.004208927486181,0.004208927486213,0.005584831100718,-0.00092797456626399,0.00092797485591392,-2.4697531240609e-09,2.7607913034855e-09,-2.1717722307903e-09,2.5468191116596e-09,-0.0011428282738838,0.0011428252655648,-0.0011428265358843,0.0011428270157411,-0.0011428267851957,0.0011428268223738,-0.0011428250429514,0.0011428285669142,-0.0010292557450222,0.0010292524882326,-0.0010292506070072,0.0010292575836083,2.1777495455382e-09,-2.5345917357693e-09,1.7682578774756e-09,-2.0428815269071e-09,-0.00092797484835072,0.00092797457383842,-0.0011428255608685,0.0011428280718055,-0.0011428267703448,0.0011428268107403,-0.001142827051657,0.0011428265213373,-0.0011428282619818,0.0011428252598592,-0.0010292531808295,0.001029255100698,-0.0010292568582857,0.0010292512728779,-0.00092896581946812,0.00092896889187494,-0.00092897044055814,0.00092896416634245,2.9627780223416e-09,-2.2920429037803e-09,-0.0013519525123016,0.0013519531640565,-1.4768386963563e-09,2.254031972194e-09,-0.0015911619178328,0.0015911630420365,-0.0015911606942233,0.0015911642578506,-0.0015911636743984,0.0015911612962359,-0.0015911624511248,0.0015911625120911,-0.0012605281801949,0.0012605249393155,-0.0012605230315833,0.0012605300924958,0.56961686220775,131329,3014,0.0038616578924784,0.0038616578925022,0.0056145075179607,30.993535899851,7.9482871988111e-06,7.9482871988111e-06,7.9482871988111e-06,4699498.7636562,0.013428796972333
15019200,0.97116731881543,0.014017634272746,0.0042132040161869,0.0042132040162193,0.0055912262403395,-0.00092694989510038,0.00092695018084996,-2.5180721548889e-09,2.8035027078284e-09,-2.1939301672041e-09,2.5641935695584e-09,-0.001142058623167,0.0011420555686218,-0.0011420568551778,0.0011420573517403,-0.0011420571208032,0.0011420571383434,-0.0011420553507627,0.0011420589119986,-0.0010282391284283,0.0010282357974713,-0.0010282339085586,0.0010282409810197,2.1644302055337e-09,-2.5223906756577e-09,1.8018336338089e-09,-2.0781472332842e-09,-0.00092695017597713,0.00092694989993919,-0.0011420558811023,0.0011420584046811,-0.0011420571136793,0.0011420571233138,-0.0011420573622797,0.0011420568620875,-0.0011420585980866,0.0011420555765994,-0.0010282364862629,0.0010282384875966,-0.0010282402375435,0.0010282345917114,-0.00092785631766404,0.00092785934743181,-0.00092786091211747,0.00092785463709847,3.0017158660525e-09,-2.332710295537e-09,-0.0013513838702441,0.0013513845223012,-1.5127546760595e-09,2.2889418493389e-09,-0.0015909267178252,0.0015909278474306,-0.0015909254694687,0.0015909290882022,-0.0015909284996808,0.0015909260759907,-0.001590927252583,0.0015909273116626,-0.0012597892262188,0.0012597859251961,-0.0012597840004851,0.0012597911665751,0.56737760898506,131329,3014,0.0038574066129165,0.0038574066128451,0.0056121522540723,29.890095209563,-8.7923832349606e-07,-8.7923832349606e-07,-8.7923832349606e-07,4679510.1088479,0.01341779510784
15219200,0.97239426055955,0.014030179536692,0.0042167752998828,0.0042167752999107,0.0055966289368985,-0.00092525948856419,0.00092525976943175,-2.5635580669725e-09,2.8421579373201e-09,-2.20359725344e-09,2.568042948786e-09,-0.0011405589624401,0.0011405558723718,-0.0011405571660647,0.0011405576822191,-0.0011405574557511,0.0011405574455396,-0.0011405556559512,0.0011405592451849,-0.0010264909768497,0.0010264875633914,-0.0010264856716751,0.0010264928290203,2.1766206668673e-09,-2.5382824218541e-09,1.8360083043619e-09,-2.1163101270306e-09,-0.00092525976859845,0.00092525948941909,-0.0011405561878176,0.0011405587428098,-0.0011405574440266,0.0011405574360119,-0.0011405576768061,0.001140557188155,-0.0011405589347532,0.0011405558764213,-0.0010264882631208,0.0010264903233513,-0.0010264920831112,0.0010264863562313,-0.00092605329645059,0.00092605632677184,-0.00092605791294336,0.00092605158388444,3.0436283144795e-09,-2.3771588104889e-09,-0.0013500218228436,0.0013500224734206,-1.5494834823432e-09,2.3236618541371e-09,-0.0015898302432492,0.0015898313791485,-0.0015898289717485,0.0015898326436356,-0.0015898320529128,0.0015898295766012,-0.00158983078002,0.0015898308338061,-0.0012582665452216,0.0012582631825283,-0.0012582612406664,0.0012582685140494,0.54391181523749,131329,3014,0.0038503898544214,0.0038503898544695,0.0056065122342738,28.483878350694,-1.2128973194447e-05,-1.2128973194447e-05,-1.2128973194447e-05,4654144.0398792,0.013397857906538
15419200,0.97347828097207,0.014043035474055,0.0042205068492779,0.0042205068492961,0.005602021775481,-0.0009235767369272,0.00092357702577447,-2.5990499406907e-09,2.8887519486109e-09,-2.1952551264922e-09,2.5693819938791e-09,-0.0011389387741,0.0011389356637604,-0.0011389369504214,0.001138937500268,-0.0011389372695861,0.0011389372362094,-0.001138935441904,0.0011389390662567,-0.001024819873585,0.0010248163801937,-0.0010248144856711,0.0010248217280368,2.1951023848237e-09,-2.5531670241121e-09,1.868450866769e-09,-2.1440944234255e-09,-0.00092357701912222,0.00092357674356486,-0.001138935971607,0.0011389385600321,-0.001138937247875,0.0011389372322617,-0.0011389374736595,0.0011389369976187,-0.0011389387510747,0.0011389356686737,-0.0010248170982307,0.0010248192038049,-0.0010248209744252,0.0010248151790765,-0.00092428111001822,0.00092428415082605,-0.00092428576585815,0.00092427938817816,3.0925902634315e-09,-2.4170289599538e-09,-0.001348575872913,0.0013485765304615,-1.5741856721789e-09,2.3572857745671e-09,-0.0015885562240436,0.0015885573726124,-0.0015885549332285,0.0015885586557213,-0.001588558065101,0.0015885555419804,-0.0015885567746164,0.001588556823723,-0.0012567010106596,0.0012566975906199,-0.0012566956125802,0.0012567029952705,0.61487581544777,131329,3014,0.003843402315024,0.0038434023149944,0.0056005271919734,27.070878953892,-2.3432968368867e-05,-2.3432968368867e-05,-2.3432968368867e-05,4631804.2822121,0.013377627917311
15619200,0.97445548858393,0.014054898950502,0.0042239602520414,0.0042239602520599,0.005606978446401,-0.00092232528063498,0.00092232557326606,-2.6256001190422e-09,2.922044072677e-09,-2.1005825438511e-09,2.4787265988098e-09,-0.0011378948603431,0.0011378917929168,-0.0011378930236174,0.0011378936535227,-0.0011378934170328,0.001137893304294,-0.0011378915736507,0.0011378951656762,-0.0010236073130797,0.0010236036910619,-0.0010236018625204,0.0010236091048586,2.2715523826213e-09,-2.6303756520647e-09,1.8886981829231e-09,-2.1642820323772e-09,-0.00092232556477531,0.00092232528908519,-0.0011378920449266,0.0011378946969686,-0.0011378933418079,0.0011378933594359,-0.0011378936026816,0.0011378930887276,-0.001137894898764,0.0011378917577545,-0.0010236044893123,0.0010236065683685,-0.0010236083976356,0.0010236025129135,-0.00092303933233125,0.00092304249802486,-0.00092304414019145,0.00092303760237176,3.1563830453705e-09,-2.4646537894009e-09,-0.0013476014127985,0.001347602083579,-1.575015790084e-09,2.3738140734036e-09,-0.0015878219851745,0.0015878231746416,-0.0015878206896204,0.0015878244611356,-0.001587823869235,0.0015878213115119,-0.0015878225728345,0.0015878226052193,-0.0012556978114093,0.0012556943106583,-0.0012556923063323,0.0012556998091804,0.62694798437213,131329,3014,0.0038382111418281,0.0038382111417321,0.0055964885851172,25.962452235353,-3.2300382117174e-05,-3.2300382117174e-05,-3.2300382117174e-05,4604451.872091,0.013363018925758
15819200,0.9753747135735,0.014066954461691,0.0042274997836007,0.0042274997836297,0.005611954894461,-0.00092230060501252,0.00092230089094294,-2.6814481059833e-09,2.9682143171489e-09,-2.1261374723126e-09,2.4964773728299e-09,-0.0011381251584654,0.0011381220390735,-0.0011381232812992,0.001138123929175,-0.0011381237012506,0.0011381235635242,-0.0011381218192449,0.001138125448015,-0.0010237017183082,0.0010236980148232,-0.0010236961666978,0.0010237035184334,2.1856593298181e-09,-2.5450294912541e-09,1.8746981352446e-09,-2.1515981458402e-09,-0.00092230088594888,0.00092230061011982,-0.001138122351247,0.0011381249395104,-0.001138123632568,0.0011381236067902,-0.0011381238479254,0.0011381233825753,-0.0011381251295071,0.0011381220494874,-0.0010236988307355,0.0010237009512493,-0.0010237027157435,0.001023696910695,-0.00092309087989166,0.00092309389400151,-0.00092309551971696,0.0009230891513235,3.1836159834229e-09,-2.5059000173569e-09,-0.0013479223574661,0.0013479230159853,-1.5757834208393e-09,2.3608483689676e-09,-0.0015884023365904,0.0015884035435829,-0.0015884010448069,0.0015884048282376,-0.001588404238361,0.0015884016529893,-0.0015884029453104,0.0015884029366276,-0.0012560268086263,0.0012560232198383,-0.0012560212364041,0.0012560288001726,0.66919701367684,131329,3014,0.0038381149883831,0.0038381149886193,0.0055978129864478,25.547375133438,-3.5620998932498e-05,-3.5620998932498e-05,-3.5620998932498e-05,4589796.0091242,0.013364173201675
16019200,0.97624085035266,0.014078279761347,0.0042308240352865,0.004230824035315,0.0056166316907453,-0.00092223066632858,0.00092223095205542,-2.7256563880095e-09,3.0125730264031e-09,-2.1079487722884e-09,2.4782015218799e-09,-0.0011383891740305,0.0011383860376852,-0.0011383872678826,0.0011383879573959,-0.0011383877298328,0.0011383875492782,-0.0011383858185843,0.0011383894640515,-0.0010237290787243,0.0010237252751491,-0.0010237234424008,0.0010237308684476,2.1455282833189e-09,-2.5009168096769e-09,1.8598283314862e-09,-2.1334612896398e-09,-0.00092223094579308,0.00092223067260796,-0.0011383863762855,0.001138388928283,-0.0011383876472339,0.0011383876066807,-0.0011383878462361,0.0011383873990352,-0.001138389117239,0.0011383860777698,-0.0010237261416524,0.0010237282610229,-0.0010237299957348,0.0010237242557703,-0.00092313101198775,0.00092313395922134,-0.00092313556772553,0.00092312929931753,3.2243817805264e-09,-2.5475841085248e-09,-0.0013482093399536,0.0013482099979757,-1.5619499036203e-09,2.3460070282721e-09,-0.0015889809672045,0.0015889822113479,-0.0015889796851837,0.0015889834861731,-0.0015889828969828,0.0015889802933499,-0.001588981613625,0.0015889815679593,-0.001256361626121,0.0012563579451377,-0.001256355973336,0.0012563636049654,0.66742794192729,131329,3014,0.0038378336265106,0.0038378336265458,0.0055989936270745,25.147687443607,-3.8818500451148e-05,-3.8818500451148e-05,-3.8818500451148e-05,4570783.2523379,0.013364809519338
16219200,0.97705758741877,0.014088907519222,0.0042339437290325,0.0042339437290611,0.0056210200611289,-0.00092212142374187,0.00092212170876826,-2.7702814958607e-09,3.0565156568389e-09,-2.0913444014523e-09,2.4607228654291e-09,-0.0011385945163746,0.0011385913610898,-0.0011385925804697,0.0011385933105655,-0.0011385930833826,0.0011385928614017,-0.0011385911428702,0.0011385948054538,-0.0010236968644864,0.0010236929629863,-0.0010236911423294,0.001023698642339,2.1099121323391e-09,-2.4633086980569e-09,1.8417225933453e-09,-2.113779999397e-09,-0.00092212170205825,0.00092212143046281,-0.0011385917268102,0.0011385942433054,-0.0011385929850359,0.0011385929345714,-0.0011385931724179,0.0011385927386263,-0.0011385944311671,0.0011385914297183,-0.0010236938835079,0.0010236959927328,-0.0010236977014959,0.0010236920239408,-0.00092312403277306,0.00092312692322882,-0.00092312851733714,0.00092312233463887,3.2650087729291e-09,-2.589372819379e-09,-0.0013484306304571,0.0013484312873183,-1.5448376990922e-09,2.327554049645e-09,-0.0015894692107486,0.0015894704929118,-0.0015894679403507,0.0015894717560782,-0.0015894711677509,0.0015894685476449,-0.0015894698965815,0.0015894698101939,-0.0012566311674839,0.001256627391961,-0.0012566254331464,0.0012566331331633,0.66425606666201,131329,3014,0.0038373883130858,0.0038373883131081,0.0055999026689964,24.748529024334,-4.2011767805328e-05,-4.2011767805328e-05,-4.2011767805328e-05,4553500.3409456,0.013364837136561
16419200,0.97783111635783,0.014097839968965,0.004236534465075,0.0042365344651036,0.0056247710387867,-0.00092203952661014,0.00092203980889621,-2.8099141332873e-09,3.0932920490218e-09,-2.0365544026021e-09,2.4025396587685e-09,-0.0011388284539032,0.0011388253079183,-0.001138826492765,0.0011388272831981,-0.0011388270580409,0.0011388267707149,-0.0011388250923191,0.0011388287405103,-0.0010236334459718,0.0010236294288963,-0.0010236276486022,0.0010236351822508,2.1210218731299e-09,-2.4756808413611e-09,1.8209088759998e-09,-2.0941923763944e-09,-0.00092203980402683,0.00092203953151998,-0.0011388256720943,0.0011388281820368,-0.0011388269172358,0.0011388268870926,-0.0011388271253355,0.0011388266698358,-0.0011388283710396,0.0011388253746561,-0.0010236304319983,0.0010236324918603,-0.0010236342098846,0.0010236285622411,-0.0009231115531649,0.00092311447816789,-0.00092311606071691,0.00092310986661943,3.3118423233139e-09,-2.6371127558979e-09,-0.0013486585423788,0.0013486591981147,-1.5206996089061e-09,2.3022086356359e-09,-0.0015899524775514,0.0015899538065151,-0.0015899512237501,0.0015899550532586,-0.0015899544662418,0.0015899518300316,-0.0015899532113593,0.0015899530757676,-0.0012568811237236,0.0012568772385465,-0.0012568752977547,0.0012568830736681,0.59981699670209,131329,3014,0.0038370558774565,0.0038370558775399,0.0056008395560203,24.411173593378,-4.4710611252978e-05,-4.4710611252978e-05,-4.4710611252978e-05,4539225.8524569,0.01336512079561
16619200,0.97856780747472,0.01410808707493,0.0042395663752004,0.0042395663752293,0.0056289543245007,-0.00092221253066332,0.00092221281389393,-2.8563666603122e-09,3.1408395688307e-09,-2.0511791873544e-09,2.4183301426742e-09,-0.0011391535896564,0.0011391504030789,-0.0011391515966836,0.0011391524094941,-0.0011391521838188,0.0011391518759728,-0.0011391501865739,0.0011391538766963,-0.001023896592738,0.0010238924955078,-0.0010238907040932,0.0010238983412033,2.0757973821639e-09,-2.427376074965e-09,1.7940954207708e-09,-2.0646090252561e-09,-0.00092221280729081,0.00092221253728426,-0.0011391508112952,0.0011391532737209,-0.0011391520372556,0.0011391519974175,-0.0011391522335663,0.0011391517925942,-0.0011391534603324,0.0011391505157963,-0.0010238935486123,0.0010238955882852,-0.0010238972723802,0.0010238917140245,-0.00092333203023458,0.00092333488570316,-0.000923336446678,0.00092333036607762,3.3493383816586e-09,-2.6766428295754e-09,-0.0013490888508158,0.0013490895046917,-1.4977581548694e-09,2.2770206489057e-09,-0.001590542360124,0.0015905437288313,-0.0015905411221998,0.0015905449597073,-0.0015905443741269,0.0015905417266677,-0.0015905431355954,0.0015905429564718,-0.0012573149417315,0.0012573109622431,-0.0012573090390749,0.0012573168721433,0.7023563379703,131329,3014,0.0038377769573609,0.0038377769573975,0.005602619629478,24.15748685458,-4.6740105163357e-05,-4.6740105163357e-05,-4.6740105163357e-05,4535276.7359489,0.013368388064611
16819200,0.97926980618341,0.014117894909397,0.0042424674701742,0.0042424674702031,0.0056329599690197,-0.00092229082462507,0.00092229110745733,-2.8991037831342e-09,3.183183561839e-09,-2.0403440687128e-09,2.4070076565095e-09,-0.0011395655600493,0.0011395623522343,-0.0011395635387347,0.0011395643869167,-0.0011395641616414,0.001139563817619,-0.0011395621360417,0.001139565846658,-0.0010240560008255,0.0010240518126941,-0.0010240500289961,0.0010240577416871,2.0689027105323e-09,-2.420083298701e-09,1.7680090232006e-09,-2.0382698500087e-09,-0.00092229110092708,0.0009222908311718,-0.0011395627819027,0.0011395652225345,-0.0011395639905261,0.0011395639636596,-0.0011395641995846,0.0011395637460367,-0.0011395654089735,0.0011395624866895,-0.0010240529342969,0.0010240549277353,-0.0010240566068809,0.0010240511049943,-0.00092354539098895,0.00092354825038268,-0.00092354979336747,0.00092354374464855,3.3914820316108e-09,-2.7204323346596e-09,-0.0013494801393798,0.0013494807916213,-1.4724470272246e-09,2.2497985889327e-09,-0.001591190436797,0.0015911918501717,-0.0015911892164235,0.0015911930634604,-0.0015911924794632,0.001591189819263,-0.0015911912584966,0.0015911910315518,-0.0012578043258637,0.0012578002429704,-0.0012577983389337,0.001257806237045,0.70571573585989,131329,3014,0.0038381115117793,0.0038381115118131,0.0056042310470601,23.905661446285,-4.8754708429721e-05,-4.8754708429721e-05,-4.8754708429721e-05,4518596.0520296,0.01337070959989
17019200,0.97993904394533,0.014127045969258,0.0042451700121217,0.0042451700121507,0.0056367059449853,-0.00092232413933913,0.00092232442218924,-2.942436493379e-09,3.2265554954444e-09,-2.0392834291734e-09,2.4059527865586e-09,-0.0011399344069504,0.0011399311708624,-0.0011399323566402,0.0011399332344376,-0.0011399330091611,0.0011399326356168,-0.0011399309546471,0.0011399346935122,-0.0010241512313642,0.0010241469577831,-0.0010241451748176,0.001024152971637,2.0605858889879e-09,-2.4112153487468e-09,1.742285873795e-09,-2.0121069771077e-09,-0.00092232441543725,0.00092232414610201,-0.0011399316259532,0.0011399340439251,-0.0011399328173311,0.0011399328023459,-0.0011399330378737,0.0011399325732345,-0.0011399342300777,0.001139931331126,-0.0010241481443161,0.0010241500932201,-0.0010241517663459,0.0010241463213856,-0.00092370967768002,0.00092371253812968,-0.00092371406332318,0.00092370804917656,3.432849708739e-09,-2.7633482840774e-09,-0.001349812591419,0.0013498132421127,-1.4480039907367e-09,2.2235521524492e-09,-0.001591768346869,0.0015917698037278,-0.0015917671433768,0.0015917710001153,-0.001591770417564,0.0015917677447068,-0.0015917692135972,0.0015917689400995,-0.0012582352742981,0.0012582310902143,-0.0012582292046371,0.0012582371669119,0.69245977796696,131329,3014,0.0038382593547613,0.0038382593547836,0.0056055983118021,23.653900016408,-5.0768799868736e-05,-5.0768799868736e-05,-5.0768799868736e-05,4502787.3952336,0.013372404625743
17219200,0.98056192994744,0.014135315358236,0.0042476067666284,0.0042476067666575,0.0056401018249506,-0.00092159514678074,0.00092159543155533,-2.9898976219447e-09,3.275568540953e-09,-2.1016006479546e-09,2.4706754116209e-09,-0.0011394706781588,0.0011394673709835,-0.0011394685962478,0.0011394694655443,-0.0011394692394411,0.0011394688771221,-0.0011394671515956,0.0011394709672129,-0.001023425270002,0.0010234209452194,-0.0010234191184722,0.0010234270570148,2.0276139287085e-09,-2.3758334819511e-09,1.7255373118932e-09,-1.99363448622e-09,-0.00092159542306123,0.00092159515523368,-0.0011394678779085,0.0011394702638212,-0.001139469058204,0.0011394690328637,-0.0011394692679512,0.0011394688145297,-0.0011394704472883,0.0011394675841989,-0.0010234221621166,0.0010234241006638,-0.0010234257488849,0.0010234203669251,-0.00092306475977782,0.00092306756662964,-0.00092306907451444,0.00092306314483746,3.4687747710177e-09,-2.8020186068432e-09,-0.0013492949095559,0.0013492955581501,-1.4370528226403e-09,2.2098848540346e-09,-0.0015914422279792,0.0015914437176801,-0.0015914410336138,0.0015914449050284,-0.0015914443241378,0.0015914416325025,-0.0015914431275352,0.0015914428201305,-0.0012577986030505,0.00125779433668,-0.0012577924627411,0.0012578004852359,0.67475989033653,131329,3014,0.0038352400303678,0.0038352400302821,0.0056034467015182,22.993395338189,-5.605283729449e-05,-5.605283729449e-05,-5.605283729449e-05,4481596.7485578,0.013364111524666
17419200,0.98113038278375,0.014142513152565,0.0042497196602794,0.0042497196603078,0.0056430738319773,-0.00092021841732754,0.00092021870146396,-3.0303100519021e-09,3.3151825199791e-09,-2.1017891461373e-09,2.4701107879286e-09,-0.0011382768257769,0.0011382734902951,-0.0011382747162347,0.001138275612811,-0.0011382753859254,0.0011382749973561,-0.0011382732727719,0.0011382771130621,-0.001021998141234,0.0010219937403135,-0.0010219919147067,0.001021999926848,2.0817189451734e-09,-2.4332597432744e-09,1.7202896453924e-09,-1.9911847519409e-09,-0.00092021869465852,0.00092021842410434,-0.0011382739960154,0.0011382764127369,-0.0011382751727934,0.001138275185647,-0.0011382754218279,0.0011382749272274,-0.0011382766000046,0.001138273698448,-0.0010219950177445,0.0010219969116972,-0.0010219986001309,0.0010219931821342,-0.0009217191714799,0.00092172209063612,-0.00092172359840987,0.00092171755549257,3.5140231404758e-09,-2.847650385706e-09,-0.0013480396304355,0.0013480402787102,-1.4295931842919e-09,2.2019465383389e-09,-0.0015903187208762,0.0015903202448819,-0.0015903175303526,0.0015903214279704,-0.0015903208461132,0.0015903181302759,-0.0015903196558237,0.0015903193114786,-0.0012565999003151,0.0012565955360133,-0.0012565936682068,0.0012566017774427,0.64747799970127,131329,3014,0.003829528743964,0.0038295287439044,0.0055982429132294,21.989629041558,-6.4082967667533e-05,-6.4082967667533e-05,-6.4082967667533e-05,4456661.1796608,0.013347266423912
17619200,0.98164959587974,0.014148815225863,0.0042515636836309,0.0042515636836587,0.0056456878585734,-0.00091880774900441,0.00091880803541765,-3.07056877032e-09,3.3582914261198e-09,-2.1220421434221e-09,2.4931456446707e-09,-0.0011369750087881,0.0011369716334617,-0.0011369728723229,0.0011369737825344,-0.0011369735553102,0.0011369731543625,-0.0011369714130513,0.0011369752994197,-0.0010205179478109,0.0010205134777311,-0.0010205116354493,0.0010205197493106,2.1144395665489e-09,-2.4672484532607e-09,1.7154151253911e-09,-1.986837745483e-09,-0.00091880802784245,0.00091880775656465,-0.0011369721494256,0.0011369745852605,-0.0011369733240568,0.0011369733599287,-0.0011369735984352,0.0011369730771057,-0.0011369747722964,0.0011369718529089,-0.0010205148078109,0.0010205166655306,-0.0010205183774121,0.0010205129481753,-0.00092030061791751,0.00092030359992236,-0.00092030510870902,0.00092029900508961,3.5582102501781e-09,-2.8910291218683e-09,-0.0013467001977634,0.0013467008464355,-1.4251593511836e-09,2.1981393960856e-09,-0.0015890609790158,0.0015890625355536,-0.0015890597922462,0.0015890637147517,-0.0015890631346227,0.001589060390944,-0.001589061946302,0.001589061571365,-0.0012552858225253,0.0012552813738386,-0.001255279506503,0.0012552876952534,0.62390235596795,131329,3014,0.0038236738604123,0.0038236738603812,0.0055926934160406,20.978193370939,-7.2174453032485e-05,-7.2174453032485e-05,-7.2174453032485e-05,4435540.313106,0.013329777331417
17819200,0.98212504939143,0.014154370152716,0.0042531842761699,0.0042531842761979,0.0056480016003482,-0.00091742002330312,0.00091742031167338,-3.1120869163515e-09,3.4021140801913e-09,-2.1427678186787e-09,2.5162045983826e-09,-0.0011356374705158,0.0011356340538454,-0.0011356353060349,0.0011356362314325,-0.0011356360024673,0.001135635589402,-0.0011356338319012,0.0011356377638332,-0.0010190491183786,0.0010190445801001,-0.0010190427204891,0.0010190509346542,2.1405592807263e-09,-2.4944346267491e-09,1.7114816230882e-09,-1.9837666745327e-09,-0.0009174203034571,0.00091742003155273,-0.001135634582715,0.0011356370335258,-0.0011356357555112,0.0011356358106327,-0.001135636049912,0.0011356355081145,-0.0011356372216298,0.0011356342871994,-0.0010190459583855,0.0010190477883409,-0.0010190495193919,0.0010190440774555,-0.00091887392061816,0.00091887695455658,-0.00091887846437034,0.00091887230966362,3.6020123073495e-09,-2.9328639029033e-09,-0.0013453451640212,0.0013453458137921,-1.4208123060123e-09,2.195593903084e-09,-0.0015877498549238,0.0015877514424698,-0.001587748670531,0.0015877526190298,-0.0015877520396039,0.0015877492695448,-0.0015877508536756,0.0015877504485746,-0.0012539288602623,0.0012539243289833,-0.0012539224596523,0.0012539307312914,0.60341630432984,131329,3014,0.0038179120667584,0.0038179120668274,0.0055870816466451,19.988530025503,-8.0091759795974e-05,-8.0091759795974e-05,-8.0091759795974e-05,4418075.2591157,0.013312411896328
18019200,0.98256141281319,0.014159467783834,0.0042546730209204,0.0042546730209491,0.005650121741965,-0.00091605966672015,0.00091605995293304,-3.1551304428425e-09,3.4420556124755e-09,-2.1544261622302e-09,2.5251969616132e-09,-0.0011342745416702,0.001134271087468,-0.0011342723487168,0.0011342732950294,-0.0011342730650061,0.0011342726310863,-0.0011342708688835,0.0011342748316944,-0.0010176095567777,0.0010176049471654,-0.0010176030821516,0.0010176113775609,2.168289294251e-09,-2.5254551557274e-09,1.7080108618041e-09,-1.9837033402915e-09,-0.00091605994720169,0.00091605967250881,-0.0011342716280215,0.0011342740933436,-0.0011342727988942,0.0011342728739001,-0.0011342731126992,0.001134272549286,-0.0011342742854635,0.0011342713280423,-0.0010176063717485,0.001017608180482,-0.0010176099334248,0.0010176044682947,-0.00091745503648474,0.00091745813103454,-0.00091745963992446,0.00091745342094247,3.6453762401405e-09,-2.9774310365256e-09,-0.0013439837187183,0.0013439843676836,-1.4179808761282e-09,2.1915873417464e-09,-0.0015864003482764,0.0015864019662335,-0.001586399164717,0.0015864031420815,-0.0015864025606988,0.0015863997654491,-0.0015864013776743,0.0015864009391904,-0.0012525458102854,0.0012525411854445,-0.0012525393217664,0.0012525476824712,0.6026570546467,131329,3014,0.0038122622070319,0.0038122622071501,0.0055814451310637,19.017172461513,-8.7862620307893e-05,-8.7862620307893e-05,-8.7862620307893e-05,4403527.1946157,0.013295246783055
18219200,0.98296232100115,0.014164255206563,0.0042560755418199,0.0042560755418484,0.0056521041228947,-0.00091468651472046,0.00091468680279756,-3.1974545714283e-09,3.4866656242585e-09,-2.1730144142836e-09,2.5461875150721e-09,-0.0011328836177314,0.00113288012326,-0.0011328813953888,0.0011328823585528,-0.0011328821285367,0.0011328816799339,-0.0011328799022261,0.0011328839093792,-0.0010161636380074,0.0010161589571432,-0.0010161570775508,0.0010161654747463,2.180243288334e-09,-2.5368558088828e-09,1.7066363232811e-09,-1.9813454505182e-09,-0.00091468679588947,0.00091468652164094,-0.0011328806805425,0.0011328831529215,-0.0011328818497646,0.0011328819335082,-0.0011328821734119,0.0011328816007152,-0.0011328833436479,0.0011328803805597,-0.0010161604226826,0.001016162220238,-0.0010161639802886,0.0010161585133623,-0.00091602482641375,0.00091602794510601,-0.00091602945262238,0.00091602321412519,3.6871024849618e-09,-3.019713332654e-09,-0.001342589837552,0.0013425904860071,-1.4169957013716e-09,2.1900068781167e-09,-0.0015850085945005,0.0015850102409016,-0.0015850074122124,0.0015850114155905,-0.0015850108351455,0.001585008011542,-0.001585009653004,0.0015850091854414,-0.0012511316469499,0.0012511269387867,-0.001251125076142,0.0012511335153434,0.61338753334308,131329,3014,0.0038065590184772,0.0038065590185028,0.0055756745046338,18.046223002932,-9.5630215976545e-05,-9.5630215976545e-05,-9.5630215976545e-05,4388983.5820587,0.013277838032565
18419200,0.98334036083638,0.014168808303037,0.0042574114554701,0.0042574114554987,0.0056539853920684,-0.00091400174199771,0.00091400203074186,-3.2413612033755e-09,3.5314291012356e-09,-2.1785336850854e-09,2.5523979909052e-09,-0.001132225377974,0.0011322218506208,-0.0011322231262568,0.0011322241159071,-0.0011322238848189,0.0011322234112173,-0.0011322216294937,0.001132225670645,-0.001015444075244,0.0010154393120545,-0.0010154374279411,0.0010154459158052,2.1690661355139e-09,-2.525460266597e-09,1.6983628524831e-09,-1.97263597224e-09,-0.00091400202324232,0.00091400174953857,-0.0011322224303406,0.0011322248902716,-0.0011322235941191,0.001132223676965,-0.0011322239160392,0.0011322233459252,-0.001132225081229,0.0011322221318943,-0.0010154408235502,0.0010154426119254,-0.0010154443644695,0.0010154389212557,-0.00091531689928897,0.00091532000061065,-0.00091532150476213,0.0009153152931009,3.7287614174865e-09,-3.0604754858688e-09,-0.001341931318987,0.0013419319679486,-1.40911776989e-09,2.1828450916396e-09,-0.0015843798623971,0.0015843815412067,-0.0015843786848751,0.0015843827108696,-0.0015843821305824,0.0015843792847856,-0.0015843809538153,0.0015843804539338,-0.0012504638877772,0.0012504590947232,-0.0012504572350218,0.0012504657510803,0.61738405258642,131329,3014,0.0038037153919185,0.0038037153920039,0.0055729480285559,17.474369419079,-0.00010020504464737,-0.00010020504464737,-0.00010020504464737,4380842.9031242,0.013269311314349
18619200,0.9837044928014,0.014173149746578,0.0042586845004962,0.0042586845005251,0.0056557807455571,-0.00091388414466611,0.00091388443221309,-3.2847602431234e-09,3.5734891411538e-09,-2.1625368380428e-09,2.5349973674235e-09,-0.0011321691820518,0.0011321656362241,-0.0011321669016332,0.0011321679297303,-0.0011321676999413,0.0011321671856419,-0.0011321654158237,0.0011321694731474,-0.0010153159831553,0.0010153111242103,-0.0010153092519972,0.0010153178114791,2.1535818056625e-09,-2.5093086308603e-09,1.6862454972399e-09,-1.9600531178431e-09,-0.00091388442505862,0.00091388415186432,-0.0011321662343701,0.0011321686760717,-0.0011321673897634,0.0011321674707509,-0.001132167709304,0.0011321671420356,-0.0011321688659779,0.0011321659358151,-0.0010153126899069,0.0010153144654097,-0.001015316206578,0.0010153107988349,-0.00091519571772332,0.00091519879696186,-0.00091520029158943,0.00091519411999586,3.7708258251536e-09,-3.1040320854211e-09,-0.0013418809934279,0.0013418816410307,-1.3975689677274e-09,2.1697038241846e-09,-0.001584381932376,0.0015843836469168,-0.0015843807631274,0.0015843848083399,-0.0015843842288817,0.0015843813616317,-0.0015843830602238,0.001584382522324,-0.0012504059419364,0.001250401055318,-0.0012503992057658,0.0012504077962074,0.61178642250798,131329,3014,0.0038032275683204,0.0038032275684112,0.0055727396267951,17.230164333609,-0.00010215868533113,-0.00010215868533113,-0.00010215868533113,4378591.3734417,0.013268111647704
18819200,0.98405549552452,0.014177638423052,0.0042600102484777,0.0042600102485069,0.0056576179260678,-0.0009137880668061,0.0009137883533829,-3.3268727079401e-09,3.6146771113602e-09,-2.1384784648626e-09,2.5098431294858e-09,-0.001132119789853,0.0011321162316391,-0.0011321174817384,0.0011321185526538,-0.0011321183241348,0.0011321177646409,-0.0011321160119238,0.0011321200800537,-0.0010152217491886,0.0010152167909213,-0.0010152149363514,0.0010152235606587,2.1435945187174e-09,-2.4981538833894e-09,1.6770292972963e-09,-1.9499883344389e-09,-0.00091378834634026,0.0009137880738702,-0.0011321168424061,0.0011321192712087,-0.0011321179915152,0.0011321180720355,-0.0011321183103657,0.0011321177442341,-0.0011321194603474,0.0011321165445516,-0.0010152184117777,0.0010152201760438,-0.0010152219094266,0.0010152165292611,-0.0009150968877737,0.00091509995395337,-0.0009151014400717,0.00091509529787407,3.8142356564248e-09,-3.1484379014421e-09,-0.0013418471356543,0.0013418477824002,-1.3879268829629e-09,2.1589941325642e-09,-0.0015843935326354,0.001584395282656,-0.0015843923704239,0.001584396437155,-0.0015843958585972,0.001584392967935,-0.0015843946965345,0.0015843941220476,-0.0012503651759764,0.0012503601959161,-0.0012503583544436,0.0012503670223882,0.64922939065787,131329,3014,0.003802828755822,0.0038028287558666,0.0055725998420289,16.99326238634,-0.00010405390090928,-0.00010405390090928,-0.00010405390090928,4376993.7521387,0.013267161529525
19019200,0.98439394489217,0.014182260572438,0.0042613834000827,0.0042613834001119,0.0056594937722433,-0.00091366826354052,0.00091366854937083,-3.3703352976878e-09,3.657381483065e-09,-2.1233630550691e-09,2.4938259570935e-09,-0.0011321091396795,0.0011321055623242,-0.0011321068027264,0.0011321079120987,-0.0011321076842428,0.0011321070849788,-0.0011321053433191,0.0011321094290167,-0.001015116446764,0.0010151113932728,-0.0010151095497676,0.0010151182471928,2.1253690306211e-09,-2.4788693758046e-09,1.6691131054205e-09,-1.9412538861808e-09,-0.00091366854228814,0.00091366827064099,-0.0011321061912986,0.0011321086028093,-0.0011321073348125,0.0011321074092205,-0.001132107646727,0.0011321070883523,-0.0011321087912027,0.0011321058940946,-0.0010151130630696,0.0010151148245958,-0.001015116544659,0.0010151111939904,-0.00091501523615256,0.00091501827223708,-0.0009150197516331,0.00091501365277102,3.8564432195421e-09,-3.1911701859413e-09,-0.0013418122984999,0.0013418129447307,-1.3800140847817e-09,2.1504789558735e-09,-0.0015844402813655,0.0015844420646432,-0.0015844391246004,0.0015844432137416,-0.0015844426355267,0.0015844397216054,-0.001584441478997,0.0015844408701578,-0.0012503642574295,0.0012503591879794,-0.001250357352604,0.0012503660979163,0.68719103166726,131329,3014,0.003802333976936,0.0038023339769729,0.0055724533526538,16.756610835032,-0.00010594711331974,-0.00010594711331974,-0.00010594711331974,4370487.5275195,0.013266013375704
19219200,0.9847308989512,0.014187013140126,0.0042627989989656,0.004262798998995,0.005661415142165,-0.00091441358888417,0.00091441387673784,-3.4227433657749e-09,3.7114179563761e-09,-2.1808360744843e-09,2.5533407462517e-09,-0.0011330685355272,0.0011330648878879,-0.0011330661647462,0.00113306727181,-0.0011330670428765,0.0011330664477298,-0.0011330646651771,0.0011330688285891,-0.0010159226502904,0.0010159175300793,-0.0010159156423711,0.0010159244895389,2.0132829177161e-09,-2.3630973050399e-09,1.6511579741378e-09,-1.9203524910137e-09,-0.00091441386675054,0.00091441359899622,-0.0011330655929784,0.0011330679221994,-0.0011330667252944,0.0011330667403048,-0.0011330669744761,0.0011330664819493,-0.0011330681047682,0.0011330653019995,-0.0010159192154246,0.0010159210128117,-0.0010159226527584,0.0010159174222071,-0.00091586297585606,0.0009158657975772,-0.00091586726477601,0.00091586140757312,3.8889564191685e-09,-3.2235557170562e-09,-0.0013427360168951,0.0013427366626647,-1.3703965057686e-09,2.1407316084718e-09,-0.0015855075822428,0.0015855093943383,-0.0015855064332816,0.0015855105353625,-0.0015855099592856,0.0015855070279212,-0.0015855088079538,0.0015855081714374,-0.0012513607951929,0.0012513556617827,-0.0012513538292779,0.0012513626301301,0.70677990024735,131329,3014,0.0038054345232844,0.0038054345235443,0.0055762733716346,17.022902762135,-0.00010381677790292,-0.00010381677790292,-0.00010381677790292,4369569.4832735,0.013276174766012
19419200,0.98507154162961,0.014191705868638,0.0042641936315011,0.0042641936315306,0.0056633186056061,-0.00091557978335641,0.00091558006327419,-3.4501231625468e-09,3.731130358764e-09,-1.9980137342284e-09,2.3612376394874e-09,-0.0011345092803114,0.0011345057305863,-0.0011345068900737,0.0011345081324337,-0.001134507908804,0.0011345071684102,-0.0011345055178159,0.0011345095611361,-0.0010171601820086,0.0010171548907472,-0.0010171531370075,0.0010171618878361,2.1409383110178e-09,-2.4972745522597e-09,1.641507269985e-09,-1.9161312834183e-09,-0.00091558006010015,0.00091557978662587,-0.0011345063500622,0.0011345087527144,-0.0011345074739795,0.0011345075777298,-0.0011345078149548,0.0011345072279496,-0.001134508942925,0.0011345060487987,-0.0010171567103002,0.0010171584098882,-0.0010171601433164,0.0010171548240932,-0.00091715482480105,0.00091715791222528,-0.00091715937929791,0.00091715325517928,3.9502176557386e-09,-3.286443344e-09,-0.0013441335910214,0.0013441342351832,-1.3476286885451e-09,2.1161199257535e-09,-0.001587083355428,0.0015870852199851,-0.0015870822192687,0.0015870863482744,-0.001587085770529,0.0015870828147897,-0.0015870846377837,0.0015870839392886,-0.001252844691761,0.001252839409715,-0.001252837597126,0.0012528465098617,0.69264760147986,131329,3014,0.0038102840886836,0.0038102840888831,0.0055820541269922,17.539976389586,-9.9680188883308e-05,-9.9680188883308e-05,-9.9680188883308e-05,4372074.8082831,0.01329186943193
19619200,0.98541573357685,0.014196318220469,0.0042655609482138,0.0042655609482435,0.0056651963240113,-0.00091675429343632,0.00091675457953673,-3.5095136740016e-09,3.7966832429037e-09,-2.1255312996837e-09,2.4961023520218e-09,-0.0011359390026221,0.0011359353325839,-0.0011359365743645,0.001135937773343,-0.0011359375469612,0.0011359368553243,-0.0011359351111423,0.0011359392939685,-0.0010183987453514,0.0010183934160709,-0.0010183915693084,0.0010184005468201,1.9701239985686e-09,-2.3161657378075e-09,1.6252826934945e-09,-1.8915131738504e-09,-0.0009167545691544,0.00091675430387286,-0.0011359360721968,0.0011359383546169,-0.0011359371863733,0.0011359371903613,-0.0011359374233927,0.0011359369448379,-0.0011359385348933,0.0011359357834801,-0.001018395216266,0.0010183969926779,-0.0010183986003025,0.0010183934582106,-0.00091843746688954,0.00091844022234239,-0.00091844166576225,0.00091843592166333,3.9734384912992e-09,-3.3097297132056e-09,-0.0013455363606512,0.001345537004984,-1.3436594741254e-09,2.1121202277063e-09,-0.001588651814355,0.0015886537005106,-0.001588650684337,0.0015886548230326,-0.0015886542485129,0.0015886512771543,-0.001588653115166,0.0015886524027179,-0.0012543183547195,0.0012543130338733,-0.0012543112232283,0.0012543201684473,0.67638955943273,131329,3014,0.0038151672830843,0.003815167283197,0.0055878571457478,18.062692861541,-9.5498457107672e-05,-9.5498457107672e-05,-9.5498457107672e-05,4376932.6729408,0.013307653484161
19819200,0.98576320006825,0.014200825588028,0.0042668931231378,0.0042668931231674,0.0056670393417232,-0.00091793027267751,0.00091793055648908,-3.5489433604811e-09,3.8339889671218e-09,-2.0722152867454e-09,2.4400986370145e-09,-0.0011373431667949,0.0011373395055338,-0.0011373407123976,0.0011373419724875,-0.0011373417475127,0.0011373409917344,-0.0011373392871979,0.0011373434549593,-0.0010196345376,0.0010196290970586,-0.0010196272896612,0.001019636301002,1.9893808666585e-09,-2.336144681367e-09,1.6171884194731e-09,-1.8839508543468e-09,-0.0009179305476228,0.00091793028157277,-0.0011373402371742,0.0011373425266553,-0.0011373413454679,0.0011373413683495,-0.0011373416015835,0.001137341103784,-0.0011373427088423,0.0011373399467715,-0.0010196309660425,0.0010196327161218,-0.001019634337672,0.0010196291952399,-0.00091970543417182,0.00091970823498567,-0.00091970967340079,0.00091970389349946,4.0203044999866e-09,-3.3574581734869e-09,-0.0013469329007614,0.0013469335443868,-1.3322902528297e-09,2.0997884875207e-09,-0.0015901992092566,0.001590201134016,-0.0015901980861436,0.0015902022488828,-0.0015902016742102,0.0015901986792842,-0.0015902005500478,0.0015901997964263,-0.0012557662809814,0.0012557608558699,-0.0012557590543809,0.0012557680853923,0.65786896928546,131329,3014,0.0038200555205203,0.0038200555205804,0.0055936352449476,18.585603135242,-9.1315174918065e-05,-9.1315174918065e-05,-9.1315174918065e-05,4383735.8528253,0.013323421135672
20019200,0.9861042965739,0.014205427497523,0.0042682582915163,0.004268258291546,0.005668910914461,-0.00091834613951276,0.0009183464210911,-3.5861182805187e-09,3.8688688091253e-09,-2.0293365606317e-09,2.394694816276e-09,-0.0011379130984409,0.0011379094388641,-0.0011379106188687,0.0011379119303374,-0.0011379117070928,0.0011379108969352,-0.001137909222976,0.0011379133830866,-0.0010200819519579,0.0010200764114158,-0.0010200746365507,0.0010200836845609,2.0429050985576e-09,-2.3918543162039e-09,1.6226803805329e-09,-1.8913940024764e-09,-0.00091834641444613,0.00091834614615042,-0.001137910151455,0.001137912477709,-0.0011379112629652,0.001137911315544,-0.0011379115504521,0.0011379110194588,-0.0011379126622641,0.0011379098569557,-0.0010200783417156,0.001020080068814,-0.0010200817290493,0.0010200765336488,-0.00092017529549151,0.00092017820101374,-0.00092017964296501,0.0009201737483266,4.069257748969e-09,-3.4076961639272e-09,-0.0013474999412354,0.0013475005840547,-1.3342980112293e-09,2.1006273411296e-09,-0.0015908723057996,0.0015908742615219,-0.0015908711810917,0.00159087537823,-0.0015908748028632,0.0015908717743026,-0.0015908736781603,0.0015908728912886,-0.0012563686967671,0.0012563631714215,-0.0012563613719273,0.0012563705016229,0.68048386044834,131329,3014,0.0038217857318457,0.0038217857318307,0.0055959799911271,18.671843547701,-9.0625251618394e-05,-9.0625251618394e-05,-9.0625251618394e-05,4383969.0723774,0.013329306668667
20219200,0.98643661267049,0.014210052098592,0.0042696338961348,0.0042696338961643,0.0056707843062932,-0.0009185338808266,0.00091853416461497,-3.6346935928116e-09,3.9193927118019e-09,-2.0921738391136e-09,2.4601423428401e-09,-0.0011382711496542,0.0011382674170953,-0.0011382686369956,0.0011382699408249,-0.0011382697161296,0.001138268917591,-0.0011382671981255,0.0011382714364312,-0.0010202995393543,0.0010202939465841,-0.0010202921261323,0.0010203013181468,2.0090383760309e-09,-2.3564653779036e-09,1.6311298754241e-09,-1.8984325251995e-09,-0.00091853415621572,0.00091853388922206,-0.0011382681744618,0.0011382704845713,-0.0011382692910845,0.0011382693165078,-0.0011382695505333,0.0011382690487062,-0.001138270666577,0.0011382678806662,-0.0010202958828262,0.0010202976497243,-0.0010202992848415,0.0010202941006054,-0.00092043022365517,0.00092043305690742,-0.00092043450198191,0.00092042867229043,4.1049594677766e-09,-3.4442263356614e-09,-0.0013478327486131,0.0013478333909822,-1.3457505735967e-09,2.1114071771954e-09,-0.0015913195138398,0.0015913214863866,-0.0015913183821185,0.0015913226103068,-0.0015913220349414,0.0015913189744562,-0.0015913209022865,0.0015913200989527,-0.0012567570947758,0.0012567515062769,-0.0012567497001966,0.0012567589066239,0.699086618855,131329,3014,0.0038225697291548,0.003822569729148,0.0055973536838012,18.638329078902,-9.0893367368781e-05,-9.0893367368781e-05,-9.0893367368781e-05,4379210.4118424,0.013332291879138
20419200,0.98676033133167,0.014214563353867,0.0042709759690961,0.0042709759691252,0.0056726114156461,-0.0009186959042722,0.00091869618796982,-3.6725183113218e-09,3.9573949198311e-09,-2.0741950776465e-09,2.4419527847539e-09,-0.0011386289866904,0.0011386252401998,-0.0011386264489056,0.0011386277902874,-0.0011386275647308,0.0011386267290148,-0.0011386250226574,0.0011386292736946,-0.0010204905491066,0.0010204848702214,-0.0010204830624334,0.0010204923140444,2.0623774441004e-09,-2.4128733183121e-09,1.6430484584616e-09,-1.9128409393874e-09,-0.00091869618076968,0.00091869591149627,-0.0011386259828747,0.0011386283357724,-0.0011386271083441,0.0011386271599632,-0.0011386273955333,0.0011386268641698,-0.0011386285215984,0.001138625687968,-0.001020486856757,0.0010204886100004,-0.0010204902849692,0.0010204850334239,-0.00092067306447688,0.00092067599407312,-0.00092067745301734,0.00092067150199492,4.1541500275094e-09,-3.4905608487033e-09,-0.0013481466340253,0.0013481472786983,-1.3548549954334e-09,2.1233299936086e-09,-0.0015917603558736,0.001591762354455,-0.0015917592165767,0.0015917634857254,-0.0015917629089015,0.001591759811715,-0.0015917617698953,0.0015917609431982,-0.0012571414855855,0.0012571358123045,-0.0012571339952945,0.0012571433062046,0.69998403086743,131329,3014,0.003823247935867,0.0038232479359169,0.0055986479132324,18.602067234773,-9.1183462121818e-05,-9.1183462121818e-05,-9.1183462121818e-05,4372622.1900785,0.01333498334059
20619200,0.98707568650998,0.014218456896383,0.0042721212849037,0.0042721212849329,0.0056742143265468,-0.00091882542440804,0.0009188257091798,-3.7157362245736e-09,4.0017062267099e-09,-2.0987310202668e-09,2.4678163270522e-09,-0.0011389594994497,0.0011389557078312,-0.0011389569325002,0.0011389582871002,-0.0011389580606005,0.0011389572136474,-0.0011389554892183,0.0011389597876442,-0.0010206261800216,0.0010206204330939,-0.0010206186073276,0.0010206279628687,2.0753197152206e-09,-2.4264991731729e-09,1.6553962376195e-09,-1.9256977438606e-09,-0.00091882570169558,0.00091882543191325,-0.0011389564648238,0.0011389588342988,-0.0011389575987138,0.0011389576500382,-0.0011389578861335,0.0011389573539993,-0.0011389590204891,0.0011389561694903,-0.0010206224460629,0.0010206242145134,-0.0010206258986703,0.0010206206133902,-0.00092087048904532,0.00092087343527058,-0.00092087490334797,0.00092086891754837,4.1964756800191e-09,-3.5320367674071e-09,-0.0013484234685128,0.0013484241139832,-1.3673346751584e-09,2.1367720904029e-09,-0.0015921634734374,0.001592165491999,-0.0015921623255245,0.0015921666318637,-0.0015921660543698,0.0015921629213924,-0.001592164906614,0.0015921640616353,-0.001257476688401,0.0012574709428119,-0.0012574691165219,0.0012574785187041,0.63099127004801,131329,3014,0.0038237910772038,0.0038237910772473,0.0055997887074084,18.565710691428,-9.1474314468572e-05,-9.1474314468572e-05,-9.1474314468572e-05,4366457.4127917,0.013337245272513
20819200,0.98736817956205,0.014222378131785,0.004273284819504,0.0042732848195333,0.0056758084927476,-0.00091760691822801,0.0009176072040179,-3.7532581713333e-09,4.0405923707649e-09,-2.1077660177538e-09,2.4785555335945e-09,-0.0011377421168955,0.0011377382940354,-0.0011377395246544,0.0011377408977655,-0.0011377406719924,0.0011377398064136,-0.0011377380740124,0.0011377424062004,-0.0010193594309299,0.001019353615458,-0.001019351785065,0.00101936122528,2.1451820897272e-09,-2.4964741712237e-09,1.6859397113756e-09,-1.9562677334765e-09,-0.0009176071966207,0.00091760692551241,-0.0011377390346518,0.0011377414688058,-0.001137740188995,0.0011377402630809,-0.0011377405025617,0.0011377399415979,-0.0011377416560547,0.0011377387369616,-0.0010193556558011,0.0010193574375915,-0.0010193591691498,0.0010193537811655,-0.00091961836131489,0.00091962142649174,-0.00091962290925702,0.00091961677101705,4.243565178232e-09,-3.5796620963096e-09,-0.0013471941335946,0.0013471947795733,-1.3961024988211e-09,2.1655601279187e-09,-0.0015909394717198,0.0015909415043664,-0.0015909383053672,0.0015909426629461,-0.001590942084838,0.0015909389015649,-0.0015909409172446,0.001590940061733,-0.0012562486867561,0.0012562428667211,-0.0012562410247612,0.00125625053433,0.67642720276641,131329,3014,0.0038187311357716,0.0038187311355366,0.0055946980084223,17.740810737107,-9.8073514103147e-05,-9.8073514103147e-05,-9.8073514103147e-05,4352672.2353058,0.013321828790426
21019200,0.98763823122763,0.014225872261962,0.0042743184050616,0.0042743184050908,0.0056772354518101,-0.00091619132136349,0.00091619160994655,-3.801937851526e-09,4.0916464206281e-09,-2.1889768710533e-09,2.5626897212646e-09,-0.0011363770188176,0.0011363731104345,-0.0011363743934927,0.0011363757496146,-0.0011363755184147,0.0011363746784018,-0.0011363728894688,0.0011363773114497,-0.0010178833862367,0.0010178775339095,-0.0010178756445476,0.0010178852367859,2.1343987069021e-09,-2.4873633236402e-09,1.7145891564658e-09,-1.986252196449e-09,-0.00091619160145998,0.00091619132982416,-0.0011363738872251,0.0011363763340915,-0.0011363750611449,0.0011363751110358,-0.0011363753484907,0.0011363748144569,-0.0011363765237944,0.0011363735903692,-0.0010178795608141,0.0010178814070437,-0.0010178831333894,0.0010178776891188,-0.00091819551612296,0.00091819854127193,-0.00091820004854282,0.00091819390332858,4.2809437922822e-09,-3.6136535427177e-09,-0.0013457674610841,0.0013457681100526,-1.4249396984233e-09,2.1979406809209e-09,-0.0015895442681696,0.0015895463059352,-0.0015895430802409,0.0015895474858608,-0.0015895469045684,0.0015895436810309,-0.0015895457175553,0.0015895448604424,-0.0012548575879364,0.0012548517206012,-0.001254849852306,0.0012548594604978,0.6560166771698,131329,3014,0.0038128549187681,0.003812854918713,0.0055887880402677,16.829921166688,-0.0001053606306665,-0.0001053606306665,-0.0001053606306665,4332178.413275,0.013303931428647
21219200,0.98788773867121,0.01422912518892,0.0042752820874608,0.0042752820874901,0.0056785610139694,-0.00091477774315066,0.00091477803149189,-3.8402145478169e-09,4.1297359989e-09,-2.1878353353088e-09,2.561412966945e-09,-0.0011349658880306,0.0011349619551895,-0.001134963237175,0.0011349646185096,-0.0011349643889259,0.0011349635217623,-0.0011349617332662,0.0011349661800826,-0.00101640901149,0.001016403081554,-0.001016401191752,0.0010164108592588,2.1913935501557e-09,-2.5479220228378e-09,1.7413123332644e-09,-2.0158737081238e-09,-0.0009147780244788,0.00091477775017438,-0.0011349627164254,0.0011349652193021,-0.0011349639088962,0.0011349639761926,-0.001134964216882,0.0011349636594659,-0.0011349654094792,0.0011349624164154,-0.00101640514172,0.0010164069989346,-0.0010164087664102,0.0010164032258504,-0.00091675368220666,0.00091675679884852,-0.00091675832897445,0.00091675204713637,4.3291613805033e-09,-3.660073339566e-09,-0.0013443156411719,0.0013443162914538,-1.4513166182441e-09,2.2262684162045e-09,-0.0015880938581003,0.0015880959106287,-0.0015880926524463,0.0015880971082317,-0.0015880965262136,0.0015880932531038,-0.0015880953203258,0.0015880944513172,-0.0012534219715279,0.0012534160332347,-0.0012534141447637,0.0012534238642739,0.65967104746305,131329,3014,0.0038069854403199,0.0038069854403421,0.005582775563218,15.91693128413,-0.00011266454972696,-0.00011266454972696,-0.00011266454972696,4314400.9045654,0.013285942179249
21419200,0.98812178171795,0.014232200909487,0.0042761944540577,0.0042761944540869,0.005679812001342,-0.00091375546308727,0.00091375575166082,-3.8830810511864e-09,4.1727851142791e-09,-2.1960739629773e-09,2.5699023876285e-09,-0.0011339611675486,0.0011339572002603,-0.0011339584876344,0.0011339598926455,-0.0011339596624283,0.0011339587728356,-0.0011339569784008,0.0011339614595063,-0.0010153450439977,0.0010153390364279,-0.0010153371402501,0.0010153468965524,2.2057562288952e-09,-2.5634733944599e-09,1.7606850261427e-09,-2.0361960774032e-09,-0.00091375574491039,0.00091375546987776,-0.0011339579676326,0.0011339604927187,-0.0011339591728893,0.0011339592367202,-0.0011339594775713,0.0011339589233139,-0.0011339606836721,0.0011339576666857,-0.0010153411212946,0.0010153430068592,-0.0010153447851081,0.0010153391931365,-0.00091571752197281,0.00091572065386886,-0.00091572219942401,0.00091571587238522,4.3724293263443e-09,-3.7018703944005e-09,-0.0013432758147959,0.0013432764663125,-1.4696524814196e-09,2.2461963708604e-09,-0.0015870648093122,0.0015870668780202,-0.0015870635905358,0.0015870680887327,-0.0015870675053878,0.0015870641925305,-0.0015870662870614,0.0015870654031583,-0.0012524003825478,0.0012523943746962,-0.0012523924714608,0.0012524022899483,0.66373456794194,131329,3014,0.0038027410555622,0.0038027410556458,0.0055784689505601,15.228891299064,-0.00011816886960749,-0.00011816886960749,-0.00011816886960749,4300871.0625933,0.013272975933764
21619200,0.98834179128048,0.014235121671753,0.0042770619991319,0.0042770619991612,0.0056809976734595,-0.00091276717370411,0.00091276746248077,-3.925656290395e-09,4.2158651357728e-09,-2.2128719870739e-09,2.5872392388819e-09,-0.0011329949278537,0.001132990922085,-0.0011329922198707,0.0011329936409887,-0.0011329934127542,0.0011329925047419,-0.0011329906981546,0.0011329952203426,-0.0010143151972039,0.0010143091134358,-0.0010143072053621,0.0010143170607812,2.1948468097836e-09,-2.5518885864341e-09,1.7744955788575e-09,-2.0493719539394e-09,-0.00091276745539649,0.00091276718083046,-0.0011329917073269,0.001132994235539,-0.0011329929220412,0.0011329929685596,-0.0011329932107242,0.0011329926718564,-0.0011329944237791,0.0011329914066737,-0.0010143112207945,0.0010143131372979,-0.0010143149068141,0.0010143093002444,-0.0009147180177879,0.00091472111548307,-0.00091472266803541,0.00091471635899162,4.4155318660619e-09,-3.7441139427715e-09,-0.0013422685632825,0.0013422692153442,-1.4869582930919e-09,2.2644656591579e-09,-0.0015860701697631,0.0015860722568982,-0.0015860689403733,0.001586073478194,-0.0015860728950777,0.0015860695412919,-0.0015860716636058,0.0015860707649414,-0.0012514137319953,0.0012514076562906,-0.0012514057416598,0.0012514156517698,0.66920858188668,131329,3014,0.0037986379474973,0.0037986379475873,0.0055742971090626,14.564629406267,-0.00012348296474986,-0.00012348296474986,-0.00012348296474986,4287590.0127353,0.013260433037504
21819200,0.98854873613808,0.014237826008043,0.0042778643910836,0.004277864391113,0.0056820972258465,-0.00091176684739818,0.00091176713665239,-3.9687055189471e-09,4.2591355162747e-09,-2.2153081040051e-09,2.5900273786179e-09,-0.001132021215853,0.0011320171804555,-0.0011320184801032,0.0011320199286816,-0.0011320196993479,0.0011320187645075,-0.0011320169565286,0.0011320215099682,-0.0010132698826693,0.0010132637162341,-0.0010132618064512,0.0010132717493914,2.1889522083472e-09,-2.5452151447774e-09,1.7877071749278e-09,-2.0620379259078e-09,-0.00091176712902898,0.00091176685504897,-0.0011320179776766,0.001132020511249,-0.0011320192019621,0.0011320192361082,-0.0011320194776602,0.0011320189518983,-0.0011320206998483,0.0011320176790921,-0.0010132658503673,0.0010132677964024,-0.0010132695616407,0.001013263935457,-0.00091370818066518,0.00091371125790815,-0.000913712818902,0.0009137065149908,4.4582259737273e-09,-3.7861187266718e-09,-0.0013412457226608,0.0013412463758023,-1.4999097512573e-09,2.2783157743699e-09,-0.0015850611544936,0.0015850632622217,-0.0015850599163583,0.0015850644921886,-0.0015850639086887,0.0015850605185392,-0.001585062668161,0.001585061751493,-0.0012504141795038,0.0012504080317233,-0.0012504061062472,0.0012504161088981,0.65988857707044,131329,3014,0.003794485034679,0.0037944850347363,0.0055700605054417,13.900950111536,-0.00012879239910771,-0.00012879239910771,-0.00012879239910771,4273931.6942061,0.013247724074307
22019200,0.98875537978636,0.01424048053294,0.004278651175183,0.0042786511752124,0.0056831781825449,-0.00091239410994208,0.00091239439729148,-4.0126333280121e-09,4.301237252478e-09,-2.1721285388465e-09,2.5444898451701e-09,-0.0011327305312877,0.00113272649357,-0.0011327277655376,0.0011327292716096,-0.001132729042906,0.0011327280492882,-0.0011327262725344,0.0011327308221389,-0.0010139302758257,0.0010139239972609,-0.0010139221187972,0.0010139321109467,2.1648206253611e-09,-2.5202406178368e-09,1.7800240605773e-09,-2.0534169920194e-09,-0.00091239439014631,0.00091239411712913,-0.0011327273028655,0.001132729814444,-0.0011327285204267,0.0011327285458807,-0.0011327287852382,0.001132728272739,-0.0011327300031331,0.0011327270040733,-0.0010139261850294,0.0010139281360184,-0.0010139298838703,0.0010139242873393,-0.00091436830105465,0.00091437133908412,-0.00091437289524446,0.0009143666415103,4.5004570273035e-09,-3.8290954331747e-09,-0.0013419623819544,0.0013419630342968,-1.4885871343613e-09,2.2661007167669e-09,-0.0015858308868372,0.001585833028751,-0.0015858296553672,0.0015858342521301,-0.0015858336681629,0.0015858302578456,-0.0015858324366843,0.0015858314817524,-0.0012511446330551,0.0012511383895842,-0.0012511364728467,0.0012511465539277,0.64982381598371,131329,3014,0.0037970909994568,0.0037970909995444,0.0055730272407205,14.153851747752,-0.00012676918601799,-0.00012676918601799,-0.00012676918601799,4279491.8258506,0.013256012693566
22219200,0.98896290062998,0.014243122907456,0.0042794336785176,0.004279433678547,0.0056842555503916,-0.00091319184447236,0.00091319213038519,-4.0565818416211e-09,4.343757877355e-09,-2.1383367505154e-09,2.508990571825e-09,-0.0011336129779045,0.0011336089328491,-0.0011336101830885,0.0011336117397289,-0.0011336115123515,0.0011336104655861,-0.0011336087131769,0.0011336132670256,-0.0010147632529016,0.0010147568656732,-0.0010147550117015,0.0010147650634926,2.1275169875983e-09,-2.4807100358476e-09,1.7668645025675e-09,-2.0386039312508e-09,-0.00091319212309741,0.00091319185178958,-0.0011336097624847,0.0011336122405858,-0.0011336109705168,0.0011336109814102,-0.0011336112191657,0.0011336107246438,-0.0011336124277649,0.0011336094650899,-0.0010147591074935,0.0010147610588403,-0.0010147627794693,0.0010147572371592,-0.00091519178592827,0.00091519476047589,-0.00091519630492506,0.00091519013792762,4.5423629374009e-09,-3.8719953789049e-09,-0.0013428635668946,0.0013428642182418,-1.4748451294937e-09,2.2512356693838e-09,-0.001586790019521,0.0015867921981378,-0.0015867887974848,0.001586793412165,-0.0015867928289287,0.0015867893990125,-0.0015867916071223,0.0015867906132616,-0.0012520471100825,0.0012520407724127,-0.001252038866313,0.0012520490203855,0.64497438034454,131329,3014,0.0038004044747029,0.0038004044747645,0.0055767586265622,14.500550116764,-0.00012399559906589,-0.00012399559906589,-0.00012399559906589,4288033.9580579,0.013266509641104
22419200,0.98917123295368,0.014245902067786,0.0042802601042924,0.0042802601043219,0.0056853818591723,-0.00091399915897936,0.00091399944346224,-4.0998351328215e-09,4.3855997281152e-09,-2.1048344403703e-09,2.4737376855412e-09,-0.0011344983912261,0.001134494339428,-0.0011344955682574,0.0011344971746733,-0.0011344969485874,0.0011344958490986,-0.0011344941210736,0.0011344986791228,-0.0010156139674056,0.0010156074722989,-0.0010156056429636,0.0010156157539555,2.0981134273631e-09,-2.4495801875766e-09,1.7519993000004e-09,-2.0223992373284e-09,-0.00091399943622525,0.00091399916623602,-0.0011344951868878,0.0011344976358396,-0.0011344963848487,0.0011344963870472,-0.0011344966236685,0.0011344961400732,-0.001134497822009,0.0011344948911144,-0.0010156097726304,0.0010156117148309,-0.0010156134141843,0.0010156079242206,-0.00091602482734985,0.00091602775429759,-0.00091602928659163,0.00091602319141843,4.5849871942591e-09,-3.9155666038927e-09,-0.0013437765239307,0.0013437771743818,-1.460160059289e-09,2.2354726534332e-09,-0.0015877603234933,0.0015877625402997,-0.0015877591117409,0.0015877637440835,-0.0015877631617962,0.0015877597124301,-0.0015877619500535,0.0015877609166123,-0.0012529592754011,0.0012529528423774,-0.0012529509474886,0.00125296117457,0.67139356700793,131329,3014,0.0038037575531667,0.0038037575532078,0.0055805389615568,14.849554649645,-0.00012120356280284,-0.00012120356280284,-0.00012120356280284,4296791.0936351,0.013277136373472
22619200,0.9893801320759,0.014248722895099,0.0042810995110893,0.0042810995111188,0.0056865238728907,-0.00091476627559781,0.00091476655911366,-4.1432906840784e-09,4.4281240589084e-09,-2.0806237057563e-09,2.4483411695638e-09,-0.0011353917108648,0.0011353876459051,-0.0011353888591189,0.0011353905098251,-0.0011353902846264,0.0011353891390742,-0.0011353874284606,0.0011353919976717,-0.0010164268291404,0.0010164202325493,-0.001016418420818,0.0010164285983531,2.0725497548402e-09,-2.4226262931356e-09,1.7371125465934e-09,-2.0063860394622e-09,-0.00091476655181057,0.00091476628291522,-0.0011353885132656,0.0011353909354351,-0.0011353897008976,0.0011353896969668,-0.0011353899325666,0.0011353894572515,-0.0011353911206933,0.0011353882185059,-0.0010164225892765,0.0010164245201092,-0.0010164262009101,0.0010164207597786,-0.0009168422959198,0.00091684518304149,-0.00091684670374796,0.00091684067167407,4.6271381337533e-09,-3.9587163709911e-09,-0.0013446693238024,0.0013446699732762,-1.4452662059918e-09,2.219431069169e-09,-0.0015887395412634,0.0015887417958407,-0.0015887383397945,0.0015887429893682,-0.0015887424079104,0.0015887389395849,-0.0015887412065668,0.0015887401334069,-0.001253875616593,0.0012538690884313,-0.0012538672050305,0.0012538775043815,0.67880270436512,131329,3014,0.0038069455187692,0.0038069455187992,0.0055842339506171,15.187710095072,-0.00011849831923942,-0.00011849831923942,-0.00011849831923942,4301943.6737344,0.013287344441971
22819200,0.98958655738024,0.014251500476494,0.0042819256262688,0.0042819256262983,0.0056876492239265,-0.00091512750906616,0.00091512779239112,-4.1880204730552e-09,4.4725101291209e-09,-2.0852192263369e-09,2.4527126820171e-09,-0.0011358755462033,0.0011358714488241,-0.0011358726651546,0.0011358743424828,-0.0011358741173168,0.0011358729446968,-0.0011358712315037,0.001135875833203,-0.0010168150830617,0.0010168084019616,-0.0010168065884648,0.0010168168565782,2.0460296893418e-09,-2.3942897628302e-09,1.7266228149304e-09,-1.994554255844e-09,-0.00091512778459666,0.00091512751683002,-0.0011358723446538,0.0011358747423257,-0.0011358735253083,0.0011358735113614,-0.0011358737460356,0.0011358732821388,-0.0011358749268601,0.0011358720510712,-0.001016810801818,0.0010168127308592,-0.0010168143921622,0.0010168089940897,-0.0009172477775338,0.00091725062045904,-0.00091725212992648,0.00091724616232534,4.667516367226e-09,-4.000535318098e-09,-0.0013451341815888,0.0013451348300912,-1.4356201313493e-09,2.2083436045305e-09,-0.0015892869448816,0.0015892892335739,-0.0015892857505342,0.0015892904200224,-0.0015892898391431,0.0015892863498038,-0.0015892886444652,0.0015892875366198,-0.0012543706111084,0.0012543639940069,-0.0012543621201377,0.0012543724909378,0.67691805579015,131329,3014,0.0038084483592895,0.0038084483592256,0.0055861563904399,15.303780788774,-0.00011756975368981,-0.00011756975368981,-0.00011756975368981,4301865.3389477,0.013292341323376
23019200,0.98979044210987,0.014254035492402,0.0042826740981869,0.0042826740982164,0.0056886872959985,-0.00091546640950137,0.00091546669291843,-4.2300634240249e-09,4.514816862591e-09,-2.0726336282889e-09,2.4401728929814e-09,-0.001136333379107,0.0011363292618305,-0.0011363304697353,0.0011363321835487,-0.0011363319584333,0.0011363307493874,-0.0011363290444761,0.0011363336660207,-0.0010171738016955,0.0010171670296229,-0.0010171652236343,0.0010171755657418,2.048602140288e-09,-2.3973494657316e-09,1.7164486995496e-09,-1.9846660589931e-09,-0.00091546668515587,0.00091546641727324,-0.0011363301698808,0.0011363325627466,-0.001136331343678,0.0011363313384031,-0.0011363315731882,0.0011363311008873,-0.0011363327473239,0.0011363298765098,-0.0010171694861886,0.0010171713928398,-0.0010171730563428,0.0010171676746825,-0.00091762435863811,0.00091762721245924,-0.00091762871792305,0.00091762274995649,4.7110766477834e-09,-4.043905096181e-09,-0.0013455736940945,0.0013455743423877,-1.4255698796128e-09,2.1982821360485e-09,-0.0015898055840014,0.0015898079075832,-0.0015898043962289,0.0015898090873319,-0.0015898085071796,0.0015898049949221,-0.0015898073194745,0.0015898061753049,-0.0012548339730319,0.0012548272644907,-0.0012548253958599,0.0012548358456096,0.63260005647021,131329,3014,0.0038098583068729,0.0038098583068923,0.0055879739334924,15.414971116526,-0.00011668023106779,-0.00011668023106779,-0.00011668023106779,4301972.0706564,0.013297043336618
23219200,0.98999178453472,0.014256662872687,0.0042834536973518,0.0042834536973813,0.0056897554779535,-0.00091583932294876,0.00091583960581993,-4.2722515392363e-09,4.5564409723854e-09,-2.0639174748849e-09,2.4308092524459e-09,-0.0011367421796787,0.0011367380397519,-0.0011367392421856,0.0011367409894746,-0.0011367407647612,0.001136739521447,-0.0011367378229033,0.0011367424658399,-0.001017573498958,0.0010175666386012,-0.001017564839038,0.0010175752563067,2.0552203279238e-09,-2.4044943326042e-09,1.7071689428123e-09,-1.975828365496e-09,-0.00091583959853077,0.00091583933025472,-0.0011367389601205,0.001136741351004,-0.001136740127763,0.0011367401327873,-0.0011367403677168,0.0011367398846672,-0.001136741535883,0.0011367386661392,-0.001017569150524,0.0010175710346744,-0.0010175727032068,0.0010175673338262,-0.00091799836752843,0.00091800124061695,-0.00091800274060495,0.00091799676418892,4.7545134604068e-09,-4.0879414673119e-09,-0.0013460181349618,0.0013460187826103,-1.4162207180174e-09,2.188235786987e-09,-0.0015902831880763,0.0015902855465204,-0.0015902820066813,0.0015902867199226,-0.00159028614022,0.0015902826047486,-0.001590284959039,0.0015902837784751,-0.0012552639623679,0.0012552571607503,-0.0012552552993543,0.0012552658281281,0.65900012628178,131329,3014,0.0038114065873101,0.0038114065873452,0.0055898148579521,15.525994554309,-0.00011579204356553,-0.00011579204356553,-0.00011579204356553,4307082.4146869,0.013302045659535
23419200,0.99019144382576,0.014259237766504,0.0042842167307376,0.0042842167307672,0.0056908043049994,-0.00091631194492346,0.0009163122280591,-4.3131903927001e-09,4.5979461529012e-09,-2.0522821359248e-09,2.4194755491534e-09,-0.001137302035706,0.0011372978759678,-0.0011372990710433,0.0011373008532893,-0.0011373006283824,0.0011372993500751,-0.0011372976591441,0.0011373023227597,-0.0010180782469902,0.0010180712973248,-0.0010180695055814,0.0010180799961179,2.0722194339249e-09,-2.4222422587628e-09,1.6979093187371e-09,-1.9670859506638e-09,-0.00091631222089243,0.00091631195211245,-0.001137298803498,0.0011373011994299,-0.0011372999655342,0.0011372999872617,-0.0011373002230036,0.0011372997218975,-0.0011373013854157,0.0011372985101708,-0.0010180738695825,0.0010180757226166,-0.0010180774037526,0.0010180720399138,-0.00091849728649653,0.0009185001977543,-0.00091850169408023,0.00091849568918463,4.7995822505862e-09,-4.1318148327166e-09,-0.0013465888452769,0.0013465894936071,-1.4063715802254e-09,2.1793876152338e-09,-0.0015909188484241,0.0015909212429273,-0.0015909176733665,0.0015909224098829,-0.00159092183063,0.0015909182718507,-0.0015909206557107,0.001590919439954,-0.0012558409973752,0.0012558341041813,-0.0012558322472909,0.0012558428570437,0.65256371038691,131329,3014,0.0038133706444463,0.0038133706444925,0.0055921769922734,15.704792871914,-0.00011436165702469,-0.00011436165702469,-0.00011436165702469,4310173.6027019,0.01330842137927
23619200,0.99039364847368,0.014261911458034,0.004285010891661,0.0042850108916908,0.0056918896746821,-0.00091738632406191,0.00091738660718608,-4.3607242311328e-09,4.6447424549533e-09,-2.0864958704246e-09,2.4534548805787e-09,-0.0011384817353078,0.0011384775221949,-0.0011384787387753,0.0011384805309997,-0.0011384803053686,0.0011384790188676,-0.0011384773046857,0.0011384820217501,-0.0010192173616638,0.0010192103444463,-0.0010192085269955,0.0010192191323697,2.0369024573478e-09,-2.3870233576411e-09,1.683370159494e-09,-1.9528745525981e-09,-0.00091738659986883,0.00091738633146351,-0.0011384784925389,0.0011384808565958,-0.001138479644626,0.001138479654182,-0.0011384798882107,0.0011384794020135,-0.001138481040957,0.0011384781986103,-0.0010192129517966,0.0010192148012206,-0.0010192164577854,0.0010192111436981,-0.00091961451273982,0.00091961736456837,-0.00091961885143013,0.00091961292241883,4.8369545080071e-09,-4.1714458590748e-09,-0.0013478048505324,0.0013478054966229,-1.3945735467942e-09,2.1651862516933e-09,-0.0015922140799222,0.0015922165067895,-0.0015922129133759,0.0015922176654873,-0.0015922170871857,0.0015922135097763,-0.0015922159208656,0.0015922146680455,-0.0012570600903507,0.0012570531113245,-0.0012570512639192,0.0012570619418652,0.66669036648342,131329,3014,0.0038178335056006,0.0038178335057768,0.0055972113021555,16.220040120146,-0.00011023967903883,-0.00011023967903883,-0.00011023967903883,4320490.6998128,0.013322569617883
23819200,0.99059835921633,0.014264777676116,0.0042858662032149,0.0042858662032447,0.0056930452696561,-0.00091846881375922,0.00091846909746338,-4.4023837892266e-09,4.6873212343773e-09,-2.0824367931913e-09,2.4502662682827e-09,-0.0011397003725115,0.0011396961338064,-0.0011396973478098,0.0011396991706492,-0.0011396989449965,0.0011396976281597,-0.0011396959162917,0.0011397006593543,-0.0010203712440168,0.001020364142333,-0.001020362328554,0.0010203730143382,2.0486235704621e-09,-2.3977881689049e-09,1.6727755560361e-09,-1.9414049796959e-09,-0.00091846908965855,0.00091846882158459,-0.0011396971170137,0.0011396994809268,-0.0011396982616815,0.0011396982858092,-0.0011396985202293,0.0011396980189813,-0.0011396996657296,0.0011396968231806,-0.0010203668060462,0.0010203686276366,-0.0010203702915463,0.0010203649933139,-0.000920757370644,0.00092076025387631,-0.00092076173142797,0.0009207557900759,4.8802243586722e-09,-4.2153639101732e-09,-0.0013490454300254,0.0013490460757778,-1.383250970897e-09,2.1531688677867e-09,-0.0015935534601325,0.0015935559235188,-0.0015935523012635,0.0015935570743799,-0.0015935564964559,0.0015935528974598,-0.0015935553381956,0.0015935540483534,-0.0012583201740505,0.0012583130997996,-0.0012583112620927,0.0012583220154282,0.70079157131004,131329,3014,0.0038223311594644,0.0038223311595069,0.0056023461862575,16.742694760481,-0.00010605844191615,-0.00010605844191615,-0.00010605844191615,4329066.794699,0.013336891862556
24019200,0.99080543374742,0.014267712367745,0.0042867424218303,0.0042867424218601,0.0056942275240547,-0.00091952442285558,0.00091952470629945,-4.4434857839712e-09,4.7282157332255e-09,-2.0750120647469e-09,2.442568923549e-09,-0.0011409555252356,0.0011409512638949,-0.0011409524732972,0.0011409543279958,-0.0011409541027197,0.0011409527532322,-0.0011409510465392,0.0011409558119667,-0.0010215001598195,0.0010214929720134,-0.0010214911636306,0.0010215019246118,2.0676921775188e-09,-2.4178173600673e-09,1.6626444096772e-09,-1.9321174555933e-09,-0.00091952469904691,0.00091952443012583,-0.0011409522555673,0.0011409546251648,-0.0011409533939325,0.0011409534364063,-0.001140953671772,0.0011409531502299,-0.0011409548107402,0.0011409519610789,-0.0010214956954915,0.0010214974836544,-0.0010214991615167,0.001021493868712,-0.00092190610306934,0.00092190903001118,-0.00092191050166976,0.0009219045281871,4.9247645541763e-09,-4.2602132104696e-09,-0.0013502857988249,0.0013502864441568,-1.3735995845638e-09,2.1431052928985e-09,-0.0015949282849577,0.0015949307843196,-0.001594927132788,0.0015949319284775,-0.0015949313512304,0.001594927728427,-0.0015949301993986,0.0015949288728816,-0.0012596127913412,0.0012596056229763,-0.0012596037923327,0.0012596146258758,0.70866202862536,131329,3014,0.0038267195025494,0.0038267195025862,0.0056074776738323,17.265602789559,-0.00010187517768352,-0.00010187517768352,-0.00010187517768352,4333679.5853229,0.013350992118457
24219200,0.99101347499588,0.01427052272383,0.0042875778693351,0.004287577869365,0.0056953669851296,-0.00092039269159633,0.00092039297589931,-4.4884571130986e-09,4.7738188390819e-09,-2.1108689045804e-09,2.4796298314225e-09,-0.0011420338389645,0.0011420295243069,-0.0011420307560698,0.001142032617138,-0.0011420323924701,0.0011420310377459,-0.0011420293044956,0.0011420341254207,-0.0010224274151751,0.0010224201640654,-0.0010224183300426,0.001022429207008,2.0543402334063e-09,-2.4034510675542e-09,1.6580732787545e-09,-1.9265735123039e-09,-0.00092039296791938,0.00092039269956886,-0.001142030549084,0.0011420329066706,-0.0011420316833801,0.0011420317198786,-0.0011420319554864,0.0011420314399951,-0.0011420330893804,0.0011420302528929,-0.0010224229181552,0.0010224247074899,-0.0010224263743836,0.0010224211037528,-0.00092286812558579,0.00092287103032905,-0.00092287249506028,0.00092286655431802,4.9634857885633e-09,-4.3021989495988e-09,-0.0013513340297268,0.0013513346725428,-1.3699332150395e-09,2.1362550007585e-09,-0.0015961134040106,0.0015961159324648,-0.001596112255803,0.0015961170728883,-0.0015961164967663,0.0015961128483779,-0.0015961153478394,0.0015961139891115,-0.0012607187098175,0.0012607114559029,-0.0012607096333483,0.0012607205384665,0.68010065587643,131329,3014,0.0038303304059882,0.0038303304059747,0.0056118127840023,17.693272019471,-9.8453823844228e-05,-9.8453823844228e-05,-9.8453823844228e-05,4335804.4092594,0.013362709945337
24419200,0.99121929319116,0.014273299767396,0.0042884034626528,0.0042884034626824,0.0056964928420605,-0.00092085887695851,0.00092085916199351,-4.5278699531516e-09,4.8145019458586e-09,-2.0953860606883e-09,2.4649918056041e-09,-0.0011426377805576,0.0011426334493639,-0.0011426346717144,0.0011426365702147,-0.0011426363439669,0.001142634953043,-0.0011426332308011,0.0011426380689625,-0.0010229329794122,0.0010229256401592,-0.0010229238181162,0.0010229347624237,2.1064499114596e-09,-2.4570341969334e-09,1.6599757041712e-09,-1.9294539917791e-09,-0.0009208591543282,0.00092085888458661,-0.0011426344645699,0.0011426368570156,-0.0011426356011574,0.0011426356698715,-0.0011426359068793,0.0011426353562062,-0.0011426370440254,0.0011426341691479,-0.0010229284545952,0.0010229302121691,-0.0010229319170053,0.0010229266047465,-0.00092338918606339,0.00092339219215832,-0.00092339366102256,0.00092338761384312,5.010515382018e-09,-4.346462127742e-09,-0.0013519326453494,0.0013519332907028,-1.3707876828772e-09,2.1398478457348e-09,-0.0015968039037383,0.0015968064627018,-0.0015968027535642,0.0015968076047062,-0.0015968070274602,0.0015968033495386,-0.0015968058777917,0.0015968044924617,-0.0012613485136588,0.0012613411733315,-0.0012613393462617,0.0012613503437984,0.67934591864757,131329,3014,0.00383226954003,0.0038322695399526,0.0056142881287187,17.885253795709,-9.691796963433e-05,-9.691796963433e-05,-9.691796963433e-05,4336733.2961598,0.013369151647763
24619200,0.99142278380203,0.014276186525501,0.0042892654531713,0.004289265453201,0.0056976556191289,-0.00092132269316771,0.00092132297991058,-4.5724135792861e-09,4.8606074942775e-09,-2.1435089065096e-09,2.5151285243147e-09,-0.0011432267910721,0.0011432223986335,-0.0011432236519379,0.0011432255497709,-0.0011432253216834,0.0011432239352111,-0.0011432221782487,0.001143227081114,-0.0010234412762111,0.0010234338828493,-0.0010234320248824,0.0010234430923279,2.0932346755233e-09,-2.4440854144749e-09,1.6641721752168e-09,-1.9339315688479e-09,-0.00092132297134559,0.00092132270173571,-0.0011432234472283,0.0011432258342386,-0.0011432245866654,0.0011432246442548,-0.0011432248805933,0.0011432243421932,-0.0011432260206013,0.0011432231519788,-0.0010234367160002,0.0010234384902291,-0.0010234401859696,0.0010234348728989,-0.00092390736067474,0.00092391033708618,-0.00092391181010294,0.00092390578446833,5.0509076256509e-09,-4.3867058094428e-09,-0.0013525287766249,0.001352529421898,-1.3748523301168e-09,2.1440385896222e-09,-0.0015974838086962,0.0015974863916137,-0.0015974826557605,0.0015974875364256,-0.0015974869591619,0.0015974832516112,-0.0015974858066657,0.0015974843970043,-0.0012619768090403,0.0012619693932769,-0.0012619675624266,0.0012619786430087,0.70944460511168,131329,3014,0.0038341984855161,0.0038341984855227,0.0056167536027551,18.072033754133,-9.5423729966935e-05,-9.5423729966935e-05,-9.5423729966935e-05,4337731.3094039,0.013375562487272
24819200,0.99162391076524,0.014278814446641,0.0042900442790527,0.0042900442790824,0.0056987258885063,-0.00092175194321707,0.0009217522291659,-4.6134788704462e-09,4.900741096547e-09,-2.1346509886717e-09,2.5053202555977e-09,-0.0011438346180346,0.0011438302042368,-0.0011438314518176,0.0011438333824759,-0.0011438331549557,0.0011438317343631,-0.0011438299845377,0.0011438349071751,-0.0010239032176346,0.0010238957380394,-0.0010238938869001,0.0010239050265103,2.1343206036989e-09,-2.4876579006209e-09,1.6682457821368e-09,-1.9401331509e-09,-0.00092175222200481,0.0009217519503931,-0.0011438312486147,0.0011438336655259,-0.0011438323914243,0.0011438324722066,-0.0011438327101308,0.0011438321449416,-0.0011438338535846,0.0011438309511676,-0.0010238986244369,0.0010239003784707,-0.0010239021044543,0.0010238967506741,-0.00092440969922081,0.00092441275331737,-0.00092441423178547,0.00092440811678654,5.096146901975e-09,-4.4315371630522e-09,-0.0013531090332742,0.001353109678909,-1.3800089936725e-09,2.1496470101124e-09,-0.0015981760198893,0.0015981786295996,-0.0015981748632877,0.0015981797780442,-0.0015981792002904,0.0015981754594832,-0.0015981780441445,0.0015981766082268,-0.0012626100699183,0.0012626025697694,-0.0012626007351609,0.0012626119085461,0.66112229559351,131329,3014,0.003835985675169,0.0038359856752003,0.0056191514970333,18.258635695687,-9.3930914434503e-05,-9.3930914434503e-05,-9.3930914434503e-05,4335600.0846953,0.013381619903196
25019200,0.99182493876491,0.014281407706237,0.0042908122609547,0.0042908122609844,0.0056997831842981,-0.00092253936564783,0.00092253964952299,-4.658981252909e-09,4.9429948388419e-09,-2.1542082700337e-09,2.5222413854923e-09,-0.001144731772562,0.0011447273161854,-0.001144728576217,0.0011447305229503,-0.0011447302972351,0.0011447288581763,-0.001144727096564,0.0011447320582263,-0.0010247405550774,0.0010247330006922,-0.0010247311351143,0.0010247423708901,2.1301537773308e-09,-2.4864784624092e-09,1.6698446881929e-09,-1.945076346542e-09,-0.00092253964443416,0.00092253937084708,-0.0011447283825999,0.001144730799045,-0.0011447295267498,0.0011447296028413,-0.0011447298411948,0.0011447292789239,-0.0011447309856869,0.0011447280808197,-0.0010247359215931,0.0010247376806633,-0.0010247394056084,0.0010247340426824,-0.00092523891569698,0.00092524195920453,-0.00092524344176375,0.00092523732478002,5.1368243313663e-09,-4.4742486555395e-09,-0.0013540438646048,0.0013540445081568,-1.3842354051468e-09,2.1518235511793e-09,-0.001599183281969,0.0015991859159065,-0.0015991821235057,0.0015991870668678,-0.0015991864893258,0.0015991827170086,-0.0015991853301942,0.0015991838660787,-0.0012635528200612,0.0012635452399162,-0.0012635434052223,0.001263554664265,0.65362539437371,131329,3014,0.0038392572913909,0.0038392572916231,0.0056230204792105,18.630495677823,-9.0956034577419e-05,-9.0956034577419e-05,-9.0956034577419e-05,4342687.1501614,0.013392173085399
25219200,0.99202910883956,0.014284139843952,0.0042916241054939,0.0042916241055232,0.0057008916329348,-0.00092381696955471,0.0009238172561218,-4.6980977344568e-09,4.9860162893896e-09,-2.1341610249045e-09,2.5053881324947e-09,-0.001146126091278,0.0011461216211969,-0.0011461228683356,0.0011461248558094,-0.0011461246281511,0.0011461231514109,-0.0011461214008059,0.0011461263810614,-0.0010260943890378,0.0010260867429317,-0.0010260848902055,0.0010260961968605,2.1436332307824e-09,-2.497557294192e-09,1.6710234694219e-09,-1.9433626458976e-09,-0.00092381724872207,0.00092381697700483,-0.0011461226894614,0.0011461251147212,-0.0011461238342062,0.0011461239191047,-0.0011461241573452,0.0011461235880589,-0.0011461253024758,0.0011461223924121,-0.0010260897137021,0.0010260914653172,-0.0010260931984131,0.0010260878307501,-0.00092656729518393,0.00092657036398328,-0.00092657184768603,0.00092656571032402,5.1827905935991e-09,-4.5174617416447e-09,-0.0013555104265039,0.0013555110724363,-1.3826003809192e-09,2.1528589933414e-09,-0.0016007284758101,0.0016007311407252,-0.001600727317461,0.0016007322911214,-0.0016007317138411,0.0016007279131109,-0.001600730555794,0.0016007290642588,-0.0012650213133775,0.0012650136479545,-0.0012650118086162,0.0012650231538669,0.67454675514083,131329,3014,0.0038445640381854,0.0038445640382903,0.0056290917410135,19.271934593687,-8.5824523250502e-05,-8.5824523250502e-05,-8.5824523250502e-05,4355795.8771291,0.013409083362181
25419200,0.99223629469064,0.014287164976509,0.0042925292948065,0.0042925292948361,0.0057021063868665,-0.00092510073640657,0.00092510102183165,-4.7408850594216e-09,5.0274826875608e-09,-2.1260854679013e-09,2.4960692927082e-09,-0.001147565952409,0.0011475614592572,-0.0011475627016311,0.0011475647220229,-0.001147564495163,0.0011475629834447,-0.0011475612397016,0.0011475662412531,-0.0010274653369826,0.0010274576011594,-0.0010274557555131,0.0010274671379783,2.142993478351e-09,-2.4971054270367e-09,1.6719495928845e-09,-1.944699546357e-09,-0.00092510101516231,0.00092510074311011,-0.0011475625389897,0.0011475649644719,-0.0011475636847741,0.0011475637681382,-0.0011475640065197,0.0011475634378805,-0.0011475651524497,0.0011475622415522,-0.0010274606157199,0.0010274623696082,-0.0010274641021846,0.0010274587334041,-0.00092792604054975,0.00092792910788508,-0.00092793059066325,0.000927924454661,5.2255991261808e-09,-4.5615992837437e-09,-0.0013570091764272,0.0013570098210808,-1.3836402918859e-09,2.1526158247701e-09,-0.0016023295175817,0.0016023322103945,-0.0016023283591077,0.0016023333609064,-0.0016023327846996,0.0016023289537317,-0.0016023316259945,0.0016023301048126,-0.0012665463235762,0.0012665385723146,-0.0012665367353764,0.00126654816446,0.7278919192493,131329,3014,0.003849897852154,0.0038498978522252,0.0056352947347386,19.919343824053,-8.0645249407574e-05,-8.0645249407574e-05,-8.0645249407574e-05,4366347.444905,0.013426184349196
25619200,0.99244627794053,0.014290249681929,0.0042934520764713,0.0042934520765009,0.0057033455289572,-0.00092634086604904,0.00092634115157161,-4.7849216601043e-09,5.0716541608291e-09,-2.1301592353917e-09,2.5002936985085e-09,-0.0011490591313921,0.0011490546059748,-0.0011490558509706,0.0011490578983316,-0.0011490576712359,0.0011490561331267,-0.0011490543865611,0.0011490594200624,-0.0010287952841725,0.0010287874656112,-0.0010287856175321,0.0010287970887124,2.1288711195887e-09,-2.4820188671873e-09,1.6738166615371e-09,-1.9456635104844e-09,-0.00092634114448911,0.00092634087315222,-0.0011490557060659,0.0011490581231669,-0.001149056852557,0.0011490569260908,-0.0011490571636723,0.0011490566064473,-0.0011490583107255,0.0011490554088984,-0.001028790514338,0.001028792282603,-0.0010287940046889,0.0010287886434924,-0.00092929028721505,0.00092929332659721,-0.00092929480895762,0.00092928870115988,5.2669679794495e-09,-4.6032178844416e-09,-0.001358513673619,0.0013585143182394,-1.3855818102797e-09,2.1543602170095e-09,-0.00160399148371,0.0016039942028776,-0.001603990323805,0.0016039953548715,-0.0016039947782097,0.0016039909187611,-0.0016039936184633,0.0016039920708109,-0.0012681269213435,0.0012681190888335,-0.0012681172514394,0.0012681287630782,0.73243475807751,131329,3014,0.0038550540593872,0.0038550540594302,0.0056415176673375,20.566950162322,-7.5464398701427e-05,-7.5464398701427e-05,-7.5464398701427e-05,4371068.6514186,0.013442950250178
25819200,0.99265360310829,0.014293205414535,0.0042943337915113,0.0042943337915409,0.0057045378314825,-0.00092684101292884,0.00092684129924561,-4.827181821703e-09,5.1148007679063e-09,-2.1449974717408e-09,2.5161646609556e-09,-0.0011497906717509,0.0011497861087775,-0.0011497873633016,0.0011497894291533,-0.0011497892018772,0.001149787645786,-0.0011497858882957,0.0011497909616793,-0.0010293462518638,0.0010293383595144,-0.0010293365010187,0.0010293480681945,2.1240721562562e-09,-2.4762604115747e-09,1.6870932262436e-09,-1.9581037926133e-09,-0.00092684129146934,0.00092684102070622,-0.0011497872247762,0.0011497896476893,-0.0011497883802306,0.0011497884415669,-0.0011497886793494,0.0011497881340992,-0.0011497898345195,0.001149786928477,-0.0010293414307821,0.0010293432277235,-0.0010293449454778,0.0010293395652907,-0.00092989532553546,0.00092989834626034,-0.00092989983536257,0.00092989373224269,5.3102443775029e-09,-4.6457071202482e-09,-0.0013592151981161,0.0013592158437024,-1.3966881616648e-09,2.1664037046774e-09,-0.0016048328934768,0.0016048356350281,-0.0016048317262641,0.0016048367942617,-0.0016048362170233,0.0016048323218781,-0.0016048350491898,0.0016048334822079,-0.0012689061615885,0.0012688982543593,-0.0012688964090264,0.0012689080113324,0.71386320062866,131329,3014,0.003857137592901,0.0038571375929032,0.0056444152883918,20.805455015375,-7.3556359877e-05,-7.3556359877e-05,-7.3556359877e-05,4367476.2358261,0.013450117006172
26019200,0.99285367931139,0.014295933794899,0.0042951446674997,0.0042951446675294,0.0057056444598694,-0.00092669366065598,0.00092669394820896,-4.8706231180718e-09,5.1594918135079e-09,-2.1762952945844e-09,2.5489893612718e-09,-0.0011498028485524,0.0011497982363932,-0.0011497995110652,0.001149801586165,-0.001149801357785,0.001149799794579,-0.0011497980148234,0.0011498031401044,-0.001029214717805,0.0010292067618444,-0.0010292048818502,0.0010292165586091,2.1179347083178e-09,-2.4689927008685e-09,1.7070064544095e-09,-1.9769760464223e-09,-0.00092669393947255,0.00092669366934578,-0.0011497993725321,0.0011498018045103,-0.0011498005411925,0.001149800585487,-0.0011498008230144,0.001149800295178,-0.0011498019910667,0.0011497990768966,-0.001029209842918,0.0010292116838314,-0.0010292133963192,0.0010292079851184,-0.00092980981474749,0.0009298128112763,-0.0009298143103295,0.0009298082097203,5.3517195517589e-09,-4.6871539440173e-09,-0.0013591867802937,0.0013591874264383,-1.4137322348036e-09,2.183748863383e-09,-0.0016049007509977,0.001604903509899,-0.001604899572447,0.00160490468046,-0.0016049041024053,0.0016049001690492,-0.0016049029229478,0.0016049013409857,-0.0012689318510583,0.0012689238739379,-0.0012689220179684,0.0012689337120496,0.68688292618123,131329,3014,0.0038565305942799,0.0038565305941825,0.0056442921756178,20.675562750626,-7.4595497994989e-05,-7.4595497994989e-05,-7.4595497994989e-05,4358954.3746067,0.013448765772143
26219200,0.99304670247118,0.014298738327171,0.0042959831688095,0.004295983168839,0.0057067719895227,-0.00092656074866771,0.0009265610357599,-4.9131713951041e-09,5.2015089422076e-09,-2.1676853457301e-09,2.5397936287833e-09,-0.0011497628512576,0.0011497582161821,-0.0011497594850103,0.0011497615944693,-0.0011497613661088,0.0011497597685665,-0.0011497579952601,0.0011497631417407,-0.00102910515325,0.0010290971089444,-0.0010290952341606,0.0010291069857135,2.1449872542618e-09,-2.4984522031399e-09,1.7221939496207e-09,-1.9941776009368e-09,-0.00092656102806926,0.00092656075636835,-0.0011497593496721,0.0011497618098603,-0.0011497605284651,0.0011497605803594,-0.0011497608186451,0.0011497602817903,-0.0011497619976975,0.0011497590521689,-0.0010291002287543,0.0010291020807349,-0.0010291038137983,0.0010290983476195,-0.00092971256571473,0.00092971560483762,-0.00092971711891757,0.00092971094739711,5.3958257274632e-09,-4.7294948961774e-09,-0.0013591446697445,0.001359145317173,-1.4312436609886e-09,2.2030857747418e-09,-0.0016049183175502,0.0016049210932938,-0.0016049171261434,0.0016049222765767,-0.0016049216972324,0.0016049177239182,-0.0016049205059041,0.0016049189078128,-0.0012689192303556,0.0012689111821324,-0.0012689093107731,0.0012689211056158,0.7252466206,131329,3014,0.0038559813027143,0.0038559813027354,0.005644114783041,20.537463963569,-7.5700288291444e-05,-7.5700288291444e-05,-7.5700288291444e-05,4353591.0537652,0.013447473844356
26419200,0.99323295827534,0.014301528622604,0.004296819388236,0.0042968193882656,0.005707889846102,-0.00092640509140248,0.0009264053783668,-4.9556560093753e-09,5.2438608009756e-09,-2.1665275431295e-09,2.5384602148123e-09,-0.0011497547464178,0.0011497500834117,-0.0011497513517119,0.0011497534901948,-0.0011497532617208,0.0011497516353053,-0.0011497498627785,0.0011497550365709,-0.0010289706860652,0.0010289625582352,-0.0010289606845792,0.0010289725175943,2.1610946245781e-09,-2.5155694433542e-09,1.7377958479199e-09,-2.0105470529854e-09,-0.00092640537112827,0.00092640509865929,-0.0011497512205559,0.0011497537013942,-0.0011497524097894,0.0011497524614304,-0.0011497527001846,0.0011497521625748,-0.0011497538900589,0.0011497509221123,-0.0010289657098453,0.0010289675818413,-0.0010289693268323,0.0010289638168711,-0.00092962118939779,0.00092962424985731,-0.00092962577577248,0.00092961955933866,5.4393193757621e-09,-4.7721923218003e-09,-0.0013590969403699,0.0013590975886417,-1.4476035080889e-09,2.2203939358423e-09,-0.0016049607450309,0.0016049635389535,-0.0016049595422369,0.0016049647336337,-0.0016049641532552,0.0016049601410544,-0.001604962950838,0.0016049613359231,-0.0012689343334908,0.0012689262122199,-0.0012689243289766,0.0012689362208786,0.74502756375153,131329,3014,0.0038553395626387,0.0038553395626769,0.0056439122104529,20.399083704206,-7.6807330366351e-05,-7.6807330366351e-05,-7.6807330366351e-05,4344425.4115069,0.013445971981632
26619200,0.99341682254235,0.014304255499053,0.0042976359942943,0.0042976359943239,0.0057089835104347,-0.00092688354790346,0.00092688383368074,-5.0022405932777e-09,5.2894205126871e-09,-2.1287024719242e-09,2.4992360021733e-09,-0.0011504421626863,0.0011504374908818,-0.0011504387352183,0.0011504409310872,-0.0011504407011637,0.0011504390192109,-0.0011504372741784,0.0011504424497283,-0.0010294977328776,0.0010294894932907,-0.0010294876459975,0.0010294995350555,2.1865865716449e-09,-2.5430339661627e-09,1.7381150496827e-09,-2.0125746769551e-09,-0.00092688382767299,0.00092688355397336,-0.0011504386245935,0.0011504411205851,-0.0011504398125602,0.0011504398824797,-0.0011504401198543,0.0011504395666101,-0.0011504413132381,0.0011504383238854,-0.0010294927072389,0.0010294945668776,-0.0010294963316852,0.0010294907918211,-0.0009302014686315,0.00093020458324206,-0.00093020611464131,0.00093019983648089,5.480863892135e-09,-4.8098136037313e-09,-0.0013597475417787,0.0013597481931635,-1.4549558909492e-09,2.2315700557431e-09,-0.001605733139545,0.0016057359534942,-0.0016057319281027,0.0016057371565447,-0.0016057365719659,0.001605732531897,-0.0016057353658329,0.0016057337311588,-0.0012696662876958,0.0012696580931316,-0.0012696561980653,0.0012696681839964,0.7384844093279,131329,3014,0.0038573323674111,0.0038573323675402,0.0056465996441006,20.630227405179,-7.4958180758564e-05,-7.4958180758564e-05,-7.4958180758564e-05,4341068.9513908,0.013452741273194
26819200,0.99360051064666,0.014306906658473,0.0042984282105964,0.0042984282106263,0.0057100502372502,-0.000927718566984,0.00092771885228399,-5.0465246499301e-09,5.3328974746134e-09,-2.124927588009e-09,2.4946818507995e-09,-0.0011514950597004,0.0011514903614476,-0.0011514916030052,0.0011514938303767,-0.0011514936010276,0.0011514918870559,-0.0011514901442306,0.0011514953463001,-0.0010303954836638,0.0010303871558342,-0.0010303853097007,0.0010303972821951,2.1648261632104e-09,-2.5204180553611e-09,1.738568866336e-09,-2.01268159247e-09,-0.00092771884612179,0.00092771857321969,-0.0011514915151452,0.0011514939978133,-0.0011514927034237,0.0011514927590607,-0.001151492995501,0.0011514924585264,-0.0011514941884157,0.0011514912149547,-0.0010303904056848,0.0010303922808196,-0.0010303940299939,0.0010303885042112,-0.00093114174383935,0.00093114481511748,-0.00093114634548526,0.00093114011059048,5.5218970758935e-09,-4.8522943906783e-09,-0.0013607944390412,0.0013607950889979,-1.4535067375434e-09,2.2286788911544e-09,-0.0016069058588711,0.0016069087014198,-0.0016069046496687,0.0016069099029453,-0.0016069093195766,0.0016069052514811,-0.0016069081144954,0.0016069064487882,-0.0012707860449958,0.001270777766749,-0.0012707758729596,0.0012707879405032,0.72121906067973,131329,3014,0.0038608055755777,0.0038608055757307,0.005650928095995,21.065262332339,-7.1477901341291e-05,-7.1477901341291e-05,-7.1477901341291e-05,4343143.8098057,0.013464174140056
27019200,0.99378391726831,0.0143094733646,0.0042991931567174,0.0042991931567473,0.0057110870511356,-0.00092856804390037,0.00092856832945346,-5.0833326885287e-09,5.370000464966e-09,-2.1344877943042e-09,2.5046537257832e-09,-0.0011525352495834,0.0011525305227773,-0.0011525317707776,0.0011525340136381,-0.0011525337868163,0.0011525320524944,-0.0011525303028244,0.0011525355388126,-0.0010313041090585,0.0010312957081929,-0.0010312938564682,0.00103130591577,2.1300939198732e-09,-2.4831872450897e-09,1.7402685393505e-09,-2.0122074464383e-09,-0.00092856832228283,0.00092856805110788,-0.001152531700705,0.0011525341635645,-0.0011525328918747,0.0011525329217314,-0.0011525331594411,0.0011525326457181,-0.0011525343502348,0.0011525314042858,-0.0010312989842602,0.0010313008803315,-0.0010313026029549,0.0010312971112937,-0.00093207850921844,0.00093208150492103,-0.00093208303197442,0.00093207687854786,5.5702800461211e-09,-4.9013296916247e-09,-0.001361848678471,0.0013618493281276,-1.4494169926881e-09,2.2239573046015e-09,-0.0016080701600135,0.0016080730406319,-0.001608068956292,0.0016080742366365,-0.001608073655685,0.0016080695554917,-0.0016080724509705,0.0016080707523562,-0.0012718947872755,0.0012718864162758,-0.0012718845284685,0.0012718966790395,0.7022850664589,131329,3014,0.0038643376705774,0.0038643376706539,0.0056552880545488,21.50487672178,-6.7960986225761e-05,-6.7960986225761e-05,-6.7960986225761e-05,4347315.3934054,0.013475756844748
27219200,0.99396688323692,0.014311947552949,0.0042999282656864,0.0042999282657163,0.0057120910215465,-0.00092942747401854,0.00092942775933418,-5.1260274966727e-09,5.4125744392721e-09,-2.1260568122473e-09,2.4959556105341e-09,-0.001153550569096,0.0011535458195018,-0.0011535470619736,0.0011535493387825,-0.0011535491123655,0.0011535473431885,-0.0011535455997879,0.0011535508582681,-0.0010322215588047,0.0010322130678441,-0.0010322112226348,0.0010322233601056,2.114659487188e-09,-2.4664940352801e-09,1.7390864616506e-09,-2.0098620534722e-09,-0.00092942775179386,0.00092942748158109,-0.0011535470142067,0.0011535494662359,-0.0011535482043446,0.001153548225485,-0.001153548462705,0.0011535479588725,-0.0011535496522408,0.0011535467188948,-0.0010322163849645,0.0010322182891011,-0.0010322200000685,0.0010322145245799,-0.00093300406085391,0.00093300702729526,-0.00093300855180849,0.0009330024330922,5.613187426036e-09,-4.944554072973e-09,-0.0013629030616164,0.0013629037110634,-1.446588566124e-09,2.2208061642785e-09,-0.001609217126761,0.0016092200377966,-0.0016092159249739,0.0016092212316833,-0.0016092206510422,0.0016092165240756,-0.0016092194482292,0.0016092177192717,-0.0012729815754682,0.0012729731186032,-0.001272971233332,0.0012729834643595,0.68191773415185,131329,3014,0.0038679097461708,0.0038679097462169,0.0056596500189769,21.944648475619,-6.4442812195047e-05,-6.4442812195047e-05,-6.4442812195047e-05,4353565.9629006,0.013487421122014
27419200,0.9941478087508,0.014314478660738,0.0043006825512837,0.0043006825513136,0.0057131135581409,-0.00093007379159314,0.00093007407633566,-5.1702553056318e-09,5.4563829955978e-09,-2.1093097952395e-09,2.4786000826159e-09,-0.0011543012105509,0.0011542964417834,-0.0011542976733933,0.001154299990803,-0.0011542997646736,0.0011542979546609,-0.0011542962231168,0.0011543014984516,-0.0010329213939056,0.0010329128065459,-0.00103291097415,0.001032923184509,2.1200064565749e-09,-2.4715785343437e-09,1.7385016519941e-09,-2.0088034038359e-09,-0.00093007406905341,0.00093007379887247,-0.001154297645016,0.0011543000992267,-0.0011542988339373,0.0011542988594211,-0.0011542990964375,0.001154298588888,-0.0011543002857915,0.0011542973488214,-0.0010329161729358,0.0010329180747397,-0.001032919788894,0.0010329143111476,-0.00093368971224117,0.00093369269189727,-0.00093369421475534,0.00093368808566557,5.6546348889033e-09,-4.9864719321171e-09,-0.0013637092027507,0.0013637098520413,-1.4474669346434e-09,2.2212825065795e-09,-0.0016100901941709,0.0016100931319767,-0.0016100889913478,0.0016100943268729,-0.0016100937455748,0.0016100895909706,-0.0016100925428704,0.001610090786196,-0.0012737985521402,0.0012737900115466,-0.0012737881271581,0.0012738004405561,0.70214879208349,131329,3014,0.0038705953482834,0.0038705953482772,0.0056629857795375,22.252705632813,-6.1978354937496e-05,-6.1978354937496e-05,-6.1978354937496e-05,4359244.0719478,0.01349624654344
27619200,0.99432616474688,0.014317015567021,0.0043014394458091,0.0043014394458391,0.005714136675373,-0.00093063573907465,0.00093063602358612,-5.2141182410022e-09,5.4997700458297e-09,-2.1167914008287e-09,2.4857218504332e-09,-0.0011549935938694,0.0011549887910053,-0.0011549900274756,0.0011549923692156,-0.001154992142945,0.0011549903088553,-0.0011549885724183,0.0011549938812912,-0.0010335354455345,0.0010335267782028,-0.0010335249406507,0.0010335372406184,2.1076330418359e-09,-2.4591354307311e-09,1.7391780717587e-09,-2.0095518464019e-09,-0.00093063601636569,0.00093063574630737,-0.0011549900151425,0.0011549924617292,-0.0011549912043939,0.0011549912216013,-0.0011549914580181,0.0011549909596618,-0.0011549926479406,0.0011549897186943,-0.0010335301794037,0.0010335320914564,-0.0010335337971087,0.0010335283256509,-0.00093430513190274,0.00093430808724438,-0.00093430961021304,0.00093430350422646,5.6963982820603e-09,-5.0288083165931e-09,-0.0013644348964428,0.0013644355452735,-1.4473223122086e-09,2.2205673694264e-09,-0.0016108988172945,0.0016109017830959,-0.0016108976147031,0.0016109029779041,-0.0016109023965615,0.0016108982140794,-0.0016109011941206,0.00161089940848,-0.0012745522245064,0.0012745436003524,-0.0012745417169726,0.0012745541131921,0.71252807924877,131329,3014,0.0038729317021559,0.0038729317021818,0.0056659874503536,22.519630601015,-5.9842955191877e-05,-5.9842955191877e-05,-5.9842955191877e-05,4361769.617903,0.013504027190889
27819200,0.99450188233944,0.014319560234652,0.0043021996904986,0.0043021996905285,0.0057151608536248,-0.00093118791422058,0.00093118819873466,-5.2568049640697e-09,5.5426040451334e-09,-2.1074928143941e-09,2.4764121534851e-09,-0.0011556924606293,0.0011556876352787,-0.0011556888657903,0.0011556912422172,-0.0011556910158523,0.0011556891469475,-0.0011556874170535,0.0011556927481843,-0.0010341419141749,0.0010341331567115,-0.0010341313255948,0.0010341437026525,2.1147215637796e-09,-2.4665480774067e-09,1.7381673200625e-09,-2.0087901652596e-09,-0.00093118819161353,0.00093118792135943,-0.0011556888685499,0.0011556913191467,-0.001155690057268,0.0011556900798032,-0.0011556903164114,0.0011556898124361,-0.0011556915060071,0.001155688572359,-0.001034136606711,0.0010341385115484,-0.0010341402226589,0.0010341347473532,-0.00093492125188907,0.00093492422154075,-0.00093492574515044,0.00093491962493985,5.7396642715493e-09,-5.0713950153634e-09,-0.0013651559860085,0.0013651566353334,-1.4472063985144e-09,2.2210795603382e-09,-0.0016117120552566,0.0016117150497003,-0.0016117108523947,0.0016117162446674,-0.0016117156631864,0.0016117114522865,-0.0016117144607938,0.0016117126470552,-0.0012753117509978,0.0012753030433821,-0.0012753011586763,0.001275313639721,0.7238335722834,131329,3014,0.0038752281437045,0.0038752281437414,0.0056689693562271,22.785615000951,-5.7715079992395e-05,-5.7715079992395e-05,-5.7715079992395e-05,4363144.1484187,0.013511707827979
28019200,0.99467490534399,0.014322114390776,0.0043029638564879,0.0043029638565178,0.0057161866777701,-0.00093173110149767,0.00093173138619739,-5.2997741555081e-09,5.5857462389631e-09,-2.1114397552001e-09,2.4805867503363e-09,-0.0011563997344789,0.0011563948778115,-0.0011563961109096,0.0011563985134836,-0.0011563982868976,0.0011563963922869,-0.0011563946594044,0.0011564000222134,-0.001034741030416,0.0010347321916069,-0.0010347303573923,0.0010347428215758,2.1107721670819e-09,-2.4624775571241e-09,1.7377866756835e-09,-2.0083525625721e-09,-0.00093173137892595,0.00093173110878926,-0.0011563961281719,0.0011563985758895,-0.0011563973166182,0.0011563973368457,-0.001156397573264,0.0011563970719509,-0.0011563987626204,0.001156395832123,-0.0010347356813165,0.0010347375880709,-0.0010347392963618,0.0010347338244469,-0.00093553986735878,0.00093554282944675,-0.00093554435277823,0.00093553824074011,5.7823004259264e-09,-5.114003186066e-09,-0.0013658739296342,0.0013658745788964,-1.4462672094119e-09,2.2201424522897e-09,-0.0016125313622502,0.0016125343856086,-0.0016125301600286,0.0016125355799615,-0.001612534998578,0.0016125307598177,-0.0016125337968338,0.0016125319539087,-0.0012760792511522,0.0012760704594176,-0.0012760685752704,0.0012760811393951,0.73612510528178,131329,3014,0.0038774879563409,0.0038774879563828,0.005671937469933,23.051566932771,-5.5587464537834e-05,-5.5587464537834e-05,-5.5587464537834e-05,4363398.7341735,0.013519301141479
28219200,0.99484451035527,0.014324669750796,0.0043037295113597,0.0043037295113896,0.0057172107280469,-0.00093214727605082,0.00093214756031537,-5.344418315189e-09,5.6298814761619e-09,-2.1043681659382e-09,2.4729775569685e-09,-0.0011569927489138,0.0011569878666911,-0.0011569890953017,0.0011569915330164,-0.0011569913056903,0.0011569893768507,-0.0011569876496704,0.0011569930358879,-0.0010352079729019,0.0010351990441265,-0.0010351972166158,0.001035209759929,2.1246048822188e-09,-2.4767890653034e-09,1.7362576781222e-09,-2.0071239806383e-09,-0.00093214755353234,0.00093214728282309,-0.0011569891261673,0.001156991581082,-0.0011569903132695,0.0011569903440091,-0.0011569905802513,0.0011569900684942,-0.0011569917698386,0.0011569888291377,-0.0010352025836338,0.0010352044808623,-0.0010352061990677,0.0010352007189385,-0.00093603920417388,0.00093604219720431,-0.00093604371912419,0.00093603757829968,5.8235616947171e-09,-5.1553371602238e-09,-0.001366458942594,0.0013664595920884,-1.4482877551562e-09,2.2221642539368e-09,-0.001613223063594,0.0016132261128929,-0.0016132218592787,0.001613227309332,-0.0016132267269344,0.001613222460632,-0.0016132255245292,0.0016132236552101,-0.0012767254265926,0.0012767165525736,-0.0012767146681292,0.0012767273163382,0.74948918009235,131329,3014,0.0038792209943192,0.003879220994296,0.005674354445225,23.251282345905,-5.3989741232763e-05,-5.3989741232763e-05,-5.3989741232763e-05,4361198.0624171,0.013525268720392
28419200,0.99501060550759,0.014327227360515,0.0043044970521401,0.0043044970521699,0.0057182332562048,-0.00093253630853454,0.00093253659395794,-5.3835924348289e-09,5.6702880616802e-09,-2.1269757461745e-09,2.4970158916727e-09,-0.001157575392822,0.0011575704706428,-0.0011575717137812,0.0011575741617408,-0.0011575739351641,0.0011575719952838,-0.0011575702509034,0.0011575756819161,-0.0010356475074343,0.0010356385134967,-0.0010356366680122,0.0010356493102943,2.110331157793e-09,-2.4618780233549e-09,1.7399180006194e-09,-2.0102870530754e-09,-0.00093253658627541,0.00093253631622921,-0.0011575717529872,0.0011575742023045,-0.0011575729434655,0.0011575729612114,-0.0011575731982389,0.0011575726981788,-0.0011575743883262,0.0011575714575794,-0.0010356420792582,0.0010356439889881,-0.0010356456966444,0.001035640223401,-0.00093652266992331,0.00093652562806282,-0.00093652715232312,0.00093652104209844,5.8693192306793e-09,-5.2012795873613e-09,-0.0013670209318995,0.0013670215809697,-1.4451065588984e-09,2.2187190570676e-09,-0.0016138988861702,0.0016139019691674,-0.0016138976855742,0.0016139031619583,-0.0016139025813325,0.001613898284592,-0.0016139013798341,0.0016138994783569,-0.0012773610687903,0.0012773521066642,-0.001277350223995,0.0012773629559547,0.76402417573075,131329,3014,0.0038808419961253,0.0038808419961505,0.0056766753114482,23.441882232344,-5.2464942141245e-05,-5.2464942141245e-05,-5.2464942141245e-05,4357734.4071108,0.013530912555811
28619200,0.99517319609089,0.014329748995647,0.0043052541190074,0.0043052541190372,0.0057192407576028,-0.00093291084304807,0.00093291112857788,-5.4266788392747e-09,5.7134762908389e-09,-2.1290221694224e-09,2.4991703104743e-09,-0.0011581632023712,0.0011581582500628,-0.0011581594943723,0.0011581619702096,-0.0011581617432826,0.0011581597761416,-0.0011581580304668,0.0011581634914327,-0.0010360705759152,0.0010360614994451,-0.0010360596525214,0.0010360723802311,2.1170314565239e-09,-2.4689821269305e-09,1.7391320768467e-09,-2.0098462075187e-09,-0.00093291112099957,0.00093291085063953,-0.0011581595455367,0.0011581619986905,-0.0011581607354187,0.0011581607582939,-0.001158160995382,0.0011581604900257,-0.0011581621852776,0.001158159249733,-0.0010360651093844,0.0010360670133251,-0.0010360687260329,0.0010360632485129,-0.00093700264149355,0.00093700561385374,-0.00093700713819759,0.00093700101374771,5.9118845705139e-09,-5.2437889233773e-09,-0.0013675749832701,0.0013675756323882,-1.445182421169e-09,2.2188360130829e-09,-0.0016145747995774,0.0016145779104399,-0.0016145735985352,0.0016145791035807,-0.0016145785227502,0.0016145741978406,-0.0016145773213464,0.0016145753916306,-0.001278001222979,0.0012779921774524,-0.0012779902944609,0.0012780031101549,0.76896080461598,131329,3014,0.0038824034942768,0.0038824034943041,0.0056789624743622,23.632263482333,-5.0941892141336e-05,-5.0941892141336e-05,-5.0941892141336e-05,4353206.9772673,0.013536402394318
28819200,0.9953323126226,0.014332146166027,0.0043059721469573,0.0043059721469872,0.0057202018720827,-0.00093327809200888,0.00093327837736784,-5.4709172758209e-09,5.7575237795418e-09,-2.1261954118955e-09,2.496141086662e-09,-0.0011587482107285,0.0011587432303686,-0.0011587444728141,0.0011587469804382,-0.0011587467531778,0.001158744754866,-0.0011587430113791,0.0011587484991466,-0.0010364817520877,0.0010364725883242,-0.0010364707433992,0.0010364835539279,2.1280777057382e-09,-2.4807059822141e-09,1.7368934588236e-09,-2.0082278215747e-09,-0.00093327837015196,0.00093327809924275,-0.0011587445371586,0.0011587469957142,-0.0011587457253012,0.0011587457570973,-0.0011587459941739,0.0011587454798326,-0.0011587471832554,0.0011587442403788,-0.0010364762473218,0.0010364781404317,-0.0010364798613765,0.0010364743778442,-0.00093747550840083,0.00093747850506435,-0.0009374800287525,0.00093747388128189,5.9534655011862e-09,-5.2852687163157e-09,-0.0013681222360897,0.0013681228852225,-1.4458146185911e-09,2.2195516126336e-09,-0.0016152436120519,0.0016152467495794,-0.0016152424100616,0.0016152479436434,-0.0016152473624053,0.0016152430097908,-0.0016152461609805,0.0016152442035721,-0.0012786356706328,0.0012786265430946,-0.0012786246593531,0.0012786375584334,0.74978435858302,131329,3014,0.0038839348213089,0.0038839348213462,0.0056812212890746,23.824863285627,-4.9401093714985e-05,-4.9401093714985e-05,-4.9401093714985e-05,4348753.4601408,0.013541802283995
29019200,0.99548910497627,0.01433436919269,0.0043066347180024,0.0043066347180323,0.0057210997566557,-0.00093386904402822,0.00093386933012177,-5.5138452110195e-09,5.8014474163225e-09,-2.1221974060025e-09,2.4929494188418e-09,-0.0011595308875668,0.0011595258807196,-0.0011595271212805,0.0011595296608798,-0.0011595294319518,0.0011595274032138,-0.001159525662403,0.0011595311776295,-0.0010371232269345,0.0010371139760575,-0.0010371121328885,0.001037125025197,2.1319964658633e-09,-2.4850688946213e-09,1.7316097805788e-09,-2.0035302505361e-09,-0.0009338693225974,0.00093386905159943,-0.0011595272007805,0.0011595296584873,-0.001159528386204,0.0011595284242525,-0.0011595286608461,0.0011595281409069,-0.0011595298479452,0.0011595269059757,-0.0010371176862515,0.0010371195649726,-0.0010371212901063,0.0010371158109962,-0.00093815634032968,0.00093815934687769,-0.00093816087069361,0.0009381547169851,5.9971060582324e-09,-5.3262329241226e-09,-0.0013689006513342,0.0013689013023278,-1.4416747405028e-09,2.2178803049262e-09,-0.0016161296796909,0.0016161328481475,-0.0016161284792978,0.0016161340403409,-0.0016161334585587,0.0016161290811543,-0.0016161322596756,0.0016161302734098,-0.0012794776118347,0.0012794684020962,-0.0012794665158342,0.0012794794989043,0.7113025469363,131329,3014,0.0038863937469335,0.0038863937470295,0.0056844385318304,24.140900703765,-4.6872794369879e-05,-4.6872794369879e-05,-4.6872794369879e-05,4349266.7280883,0.013550052379973
29219200,0.99564352354575,0.014336501393675,0.0043072688529272,0.0043072688529574,0.0057219636877905,-0.00093449153727308,0.00093449182279917,-5.556163045827e-09,5.8429911152205e-09,-2.1283524288237e-09,2.4985641834028e-09,-0.001160275939902,0.0011602709013131,-0.00116027214532,0.0011602747082164,-0.0011602744808513,0.0011602724273069,-0.0011602706820814,0.0011602762287832,-0.0010377967868048,0.0010377874571748,-0.0010377856102986,0.0010377985899966,2.1264649199495e-09,-2.4790221364192e-09,1.7294818476776e-09,-2.0007874904668e-09,-0.00093449181543998,0.00093449154464519,-0.0011602722400754,0.0011602746928109,-0.0011602734235821,0.0011602734590629,-0.001160273696084,0.0011602731780583,-0.0011602748802144,0.0011602719438239,-0.0010377912060993,0.0010377930852633,-0.0010377948049544,0.0010377893373942,-0.00093882942026474,0.00093883241777246,-0.00093883393686914,0.00093882779811031,6.0394762486757e-09,-5.3713246191317e-09,-0.001369685596414,0.001369686245251,-1.437468041691e-09,2.2110412847653e-09,-0.0016169871724989,0.0016169903729106,-0.001616985976387,0.0016169915610808,-0.0016169909804884,0.0016169865756464,-0.0016169897846224,0.0016169877639307,-0.0012802844815877,0.0012802751801175,-0.0012802733020466,0.0012802863637408,0.69516968401232,131329,3014,0.0038889810374512,0.0038889810374775,0.0056876855424419,24.459658505288,-4.4322731957695e-05,-4.4322731957695e-05,-4.4322731957695e-05,4354026.9743907,0.013558589609904
29419200,0.99579549573807,0.014338443958336,0.004307842390508,0.0043078423905381,0.0057227591772897,-0.00093512199139726,0.00093512227680185,-5.5995159938359e-09,5.8862145973022e-09,-2.1261096319866e-09,2.4961417425244e-09,-0.0011609975283875,0.0011609924622081,-0.0011609937047483,0.0011609962981248,-0.0011609960707611,0.0011609939867704,-0.0011609922432743,0.001160997816942,-0.0010384741523704,0.0010384647367724,-0.0010384628917589,0.0010384759540749,2.1287519534964e-09,-2.4812968954544e-09,1.7250444647173e-09,-1.9963152756616e-09,-0.00093512226952413,0.00093512199868971,-0.0011609938156026,0.0011609962666675,-0.0011609949959517,0.0011609950360469,-0.0011609952730132,0.0011609947505156,-0.0011609964543234,0.001160993519088,-0.0010384685335475,0.0010384704029405,-0.0010384721242911,0.0010384666635607,-0.00093948774242566,0.00093949074807821,-0.00093949226402473,0.00093948612335897,6.0816378676083e-09,-5.4139880262056e-09,-0.0013704668365309,0.0013704674849966,-1.4344478209272e-09,2.2074991745626e-09,-0.0016178267799947,0.0016178300102889,-0.0016178255858657,0.0016178311964964,-0.0016178306160492,0.0016178261849535,-0.0016178294224947,0.0016178273709145,-0.0012810637506201,0.00128105436295,-0.0012810524875339,0.0012810656299673,0.65089858959905,131329,3014,0.0038916001393838,0.0038916001394141,0.0056909186848129,24.778509654102,-4.1771922767186e-05,-4.1771922767186e-05,-4.1771922767186e-05,4360481.7458111,0.013567176077415
29619200,0.99594487013968,0.014340322832305,0.0043083963473266,0.0043083963473567,0.0057235301376221,-0.00093576913798968,0.00093576942338597,-5.6423403216115e-09,5.9290485949e-09,-2.1264304233926e-09,2.4964551510088e-09,-0.0011616536067469,0.0011616485117795,-0.0011616497545639,0.0011616523762059,-0.0011616521489055,0.00116165003655,-0.0011616482928273,0.0011616538952872,-0.0010391727556401,0.0010391632563746,-0.0010391614113314,0.0010391745577927,2.1288681625849e-09,-2.4813700073128e-09,1.7218900606538e-09,-1.9930684628081e-09,-0.00093576941609636,0.00093576914529055,-0.0011616498805901,0.001161652329593,-0.0011616510588335,0.0011616511010689,-0.0011616513380656,0.0011616508133845,-0.00116165251722,0.0011616495841066,-0.0010391670980599,0.0010391689612831,-0.0010391706826782,0.0010391652284281,-0.00094011881767958,0.000940121825631,-0.00094012333935084,0.00094011720081494,6.1243111223226e-09,-5.4570669551739e-09,-0.0013712343262662,0.0013712349743949,-1.4313118358471e-09,2.2039352905544e-09,-0.0016186127392001,0.0016186160000671,-0.0016186115473391,0.0016186171840042,-0.0016186166038615,0.0016186121461148,-0.0016186154125242,0.0016186133298569,-0.0012817815187149,0.001281772044319,-0.0012817701717094,0.0012817833953624,0.64191387603821,131329,3014,0.003894285578884,0.0038942855789072,0.0056940981340321,25.088116093864,-3.9295071249084e-05,-3.9295071249084e-05,-3.9295071249084e-05,4371396.9023701,0.013575839073249
29819200,0.99609109381619,0.014342285062843,0.0043089783961201,0.0043089783961502,0.005724328270573,-0.00093633010268188,0.00093633038719445,-5.6859756531409e-09,5.9715011245926e-09,-2.1305857048633e-09,2.4995682556703e-09,-0.0011621982249864,0.0011621930983114,-0.0011621943437696,0.0011621969911958,-0.0011621967647696,0.0011621946253832,-0.0011621928797218,0.0011621985120428,-0.0010397883143717,0.0010397787331864,-0.0010397768865265,0.0010397901190856,2.1287875346167e-09,-2.4816330938566e-09,1.7206076577936e-09,-1.9920003390111e-09,-0.00093633038053613,0.00093633010933591,-0.0011621944837553,0.0011621969316577,-0.0011621956608726,0.0011621957037256,-0.001162195940897,0.0011621954148641,-0.0011621971189605,0.0011621941856161,-0.0010397826161848,0.0010397844782563,-0.0010397861992839,0.0010397807478011,-0.00094065311085894,0.00094065612057613,-0.0009406576318179,0.00094065149371863,6.1660833371513e-09,-5.5005839569947e-09,-0.0013718978018582,0.0013718984488039,-1.4306748221604e-09,2.2016338113336e-09,-0.0016192859822193,0.0016192892720016,-0.0016192847913402,0.0016192904551012,-0.001619289874958,0.001619285389282,-0.0016192886843318,0.0016192865713528,-0.0012823857287912,0.0012823761674986,-0.0012823742992818,0.0012823876041438,0.67837705046257,131329,3014,0.0038966125460458,0.0038966125460372,0.0056968477449062,25.340266485415,-3.7277868116682e-05,-3.7277868116682e-05,-3.7277868116682e-05,4381712.2019327,0.013583339308979
30019200,0.99623413853289,0.014344237701673,0.0043095582377534,0.0043095582377834,0.0057251212261361,-0.000936860325576,0.00093686061095518,-5.7281733667356e-09,6.0148279885749e-09,-2.1303277462732e-09,2.5003266088266e-09,-0.0011627826096614,0.0011627774548874,-0.0011627787002292,0.0011627813765088,-0.0011627811492387,0.0011627789822492,-0.0011627772359292,0.0011627828981264,-0.0010403746748007,0.0010403650102372,-0.0010403631627458,0.0010403764797781,2.1318875205612e-09,-2.4845342303042e-09,1.7195877123006e-09,-1.9908422614909e-09,-0.00093686060372978,0.00093686033281055,-0.001162778853419,0.0011627813028342,-0.001162780030117,0.0011627800758137,-0.0011627803129174,0.0011627797845277,-0.0011627814905358,0.0011627785566909,-0.0010403689377373,0.0010403707945749,-0.0010403725181504,0.0010403670663076,-0.00094119580480059,0.00094119882034852,-0.00094120033252994,0.00094119418928182,6.2096782715325e-09,-5.5429092069285e-09,-0.0013725545294658,0.0013725551772547,-1.4291479210708e-09,2.2012921737704e-09,-0.0016199927886275,0.0016199961079034,-0.0016199915983669,0.0016199972902739,-0.0016199967103065,0.001619992196876,-0.0016199955205435,0.0016199933789392,-0.0012830221599783,0.001283012515628,-0.00128301064533,0.0012830240346249,0.68873091658156,131329,3014,0.0038988145711223,0.0038988145711412,0.0056995667512114,25.591147027416,-3.5270823780671e-05,-3.5270823780671e-05,-3.5270823780671e-05,4387140.710952,0.01359055915413
30219200,0.99637399032805,0.014346054078513,0.004310095017504,0.004310095017534,0.0057258640434748,-0.00093737489637326,0.0009373751817934,-5.7710386036438e-09,6.0577342851111e-09,-2.1315932602597e-09,2.5016563750561e-09,-0.0011633746221295,0.0011633694379395,-0.0011633706840991,0.0011633733881589,-0.0011633731608311,0.0011633709661547,-0.0011633692189236,0.0011633749106328,-0.001040940978336,0.0010409312306881,-0.0010409293821325,0.0010409427840044,2.1332701122296e-09,-2.4860607053994e-09,1.7187077094956e-09,-1.9901078692565e-09,-0.00093737517459799,0.00093737490358131,-0.0011633708509746,0.0011633733007728,-0.001163372027149,0.001163372074298,-0.0011633723114357,0.0011633717814949,-0.0011633734885256,0.0011633705542037,-0.0010409352011245,0.0010409370551683,-0.001040938779809,0.0010409333283373,-0.00094173284183974,0.00094173586054982,-0.00094173737242664,0.00094173122668018,6.2525118988181e-09,-5.5857060476909e-09,-0.0013732028025801,0.0013732034503182,-1.4283258316851e-09,2.2004808402326e-09,-0.0016207036624267,0.0016207070106838,-0.0016207024727012,0.0016207081924949,-0.0016207076126391,0.0016207030711172,-0.0016207064234161,0.0016207042526402,-0.0012836610447728,0.0012836513161189,-0.0012836494462157,0.0012836629189608,0.66008314229202,131329,3014,0.0039009523947993,0.0039009523948254,0.0057022499502434,25.841983929431,-3.3264128564551e-05,-3.3264128564551e-05,-3.3264128564551e-05,4391167.3037763,0.013597613788646
30419200,0.99651093388198,0.014347723331058,0.0043105852936757,0.0043105852937057,0.0057265527436768,-0.00093796864658793,0.00093796893197787,-5.8140970314737e-09,6.1006833865455e-09,-2.1327103206048e-09,2.5027145369065e-09,-0.0011639987725194,0.0011639935589178,-0.0011639948057669,0.0011639975378445,-0.0011639973104518,0.0011639950878634,-0.0011639933398983,0.0011639990609549,-0.0010415923012914,0.0010415824701652,-0.0010415806202365,0.0010415941067402,2.1316412635106e-09,-2.4846627627949e-09,1.7171111511747e-09,-1.9888906242096e-09,-0.0009379689248492,0.00093796865374992,-0.0011639949875788,0.001163997435498,-0.0011639961627704,0.0011639962100032,-0.0011639964470037,0.0011639959172396,-0.0011639976231729,0.0011639946908185,-0.0010415864835889,0.0010415883351465,-0.0010415900590285,0.0010415846102591,-0.0009423251409306,0.000942328157166,-0.00094232966885545,0.00094232352634521,6.2953023659516e-09,-5.628312284629e-09,-0.0013739181931313,0.0013739188408189,-1.4267261132907e-09,2.1990068298802e-09,-0.0016214581593649,0.0016214615368309,-0.0016214569706302,0.0016214627176723,-0.0016214621379847,0.0016214575688277,-0.0016214609498281,0.0016214587492834,-0.0012843364562711,0.0012843266434299,-0.0012843247736931,0.0012843383298444,0.6252652898834,131329,3014,0.0039034171578091,0.0039034171578784,0.0057052129773684,26.129998436922,-3.0960012504621e-05,-3.0960012504621e-05,-3.0960012504621e-05,4399165.4133946,0.013605612621035
30619200,0.99664576332032,0.014349485096723,0.0043111063276002,0.0043111063276302,0.0057272724414929,-0.00093878351587376,0.00093878380046838,-5.8575321936181e-09,6.1431117977984e-09,-2.1293280397841e-09,2.4983451761816e-09,-0.0011647842270017,0.0011647789866874,-0.0011647802316786,0.0011647829943865,-0.0011647827674169,0.0011647805129258,-0.0011647787683605,0.0011647845145631,-0.0010424810608908,0.0010424711423355,-0.0010424692951982,0.0010424828621128,2.1278212136164e-09,-2.4814830128808e-09,1.7127742040924e-09,-1.9853605896218e-09,-0.0009387837939467,0.00093878352244641,-0.001164780431271,0.0011647828740739,-0.0011647816039127,0.001164781651346,-0.0011647818882229,0.0011647813579557,-0.0011647830619221,0.0011647801340822,-0.001042475202812,0.0010424770478938,-0.0010424787699882,0.0010424733301257,-0.00094311169130401,0.00094311470246798,-0.00094311621232043,0.0009431100781697,6.338010499424e-09,-5.671162049951e-09,-0.001374850746966,0.0013748513943679,-1.4229302575456e-09,2.1949895802515e-09,-0.001622402178325,0.0016224055866641,-0.0016224009921608,0.0016224067649424,-0.0016224061853467,0.001622401590113,-0.0016224049996548,0.0016224027676212,-0.0012851952841238,0.001285185385025,-0.0012851835181022,0.0012851971559667,0.66318231810382,131329,3014,0.0039067978478143,0.0039067978479204,0.0057090774820475,26.524422814645,-2.7804617482843e-05,-2.7804617482843e-05,-2.7804617482843e-05,4413241.519949,0.013616379541468
30819200,0.9967783974076,0.014351306064958,0.0043116469827482,0.0043116469827782,0.0057280120994318,-0.00093957376538974,0.00093957405036762,-5.8999892673484e-09,6.1862063543187e-09,-2.1246865640192e-09,2.4942126516332e-09,-0.0011656247757975,0.0011656195101301,-0.00116562075194,0.0011656235461903,-0.0011656233192278,0.0011656210335429,-0.0011656192915207,0.0011656250638351,-0.0010433471441654,0.0010433371393321,-0.0010433352957673,0.0010433489442965,2.1261270692435e-09,-2.478635167943e-09,1.7100753193522e-09,-1.9813349234643e-09,-0.00093957404325578,0.00093957377251642,-0.0011656209690307,0.0011656234084987,-0.0011656221394347,0.0011656221878636,-0.0011656224246506,0.0011656218940865,-0.0011656235959817,0.0011656206725898,-0.0010433412444311,0.0010433430863111,-0.0010433448059246,0.0010433393763208,-0.00094391681017939,0.00094391982052892,-0.00094392132654515,0.00094391520104469,6.3805901938788e-09,-5.7144628587293e-09,-0.0013757888285627,0.0013757894755272,-1.4199993582296e-09,2.1913734241343e-09,-0.0016233963164714,0.0016233997553089,-0.0016233951325478,0.0016234009313262,-0.0016234003522474,0.0016233957301528,-0.0016233991688378,0.0016233969058276,-0.0012861032691535,0.0012860932824954,-0.0012860914189098,0.001286105136989,0.69236329734164,131329,3014,0.0039100793213789,0.0039100793214095,0.0057129618492792,26.921206540554,-2.4630347675567e-05,-2.4630347675567e-05,-2.4630347675567e-05,4421959.5877603,0.013626969749335
31019200,0.99690873950238,0.014353154035333,0.0043121969370212,0.0043121969370512,0.0057287601612601,-0.00094033912503577,0.00094033940990236,-5.9429339141248e-09,6.2290591773415e-09,-2.121811856016e-09,2.4912161279985e-09,-0.0011664990181349,0.0011664937257005,-0.0011664949656594,0.0011664977903621,-0.0011664975635155,0.0011664952471573,-0.0011664935071984,0.0011664993060532,-0.0010441888557512,0.0010441787648864,-0.0010441769234384,0.0010441906538835,2.1233543272436e-09,-2.4756288663956e-09,1.7072995707137e-09,-1.9783481268628e-09,-0.00094033940276203,0.00094033913218926,-0.0011664951998273,0.0011664976355923,-0.0011664963683185,0.0011664964168761,-0.0011664966535309,0.0011664961231159,-0.0011664978229555,0.0011664949035365,-0.0010441829147318,0.0010441847531255,-0.0010441864706458,0.0010441810488324,-0.00094473017177384,0.00094473317864529,-0.00094473468243579,0.00094472856481385,6.4232599249949e-09,-5.7574070726366e-09,-0.0013767243608583,0.001376725007565,-1.4172787646948e-09,2.188355257249e-09,-0.0016244188189118,0.0016244222879458,-0.0016244176369016,0.0016244234620506,-0.0016244228832126,0.0016244182342641,-0.0016244217017242,0.0016244194080283,-0.0012870439719263,0.0012870338991721,-0.0012870320378297,0.0012870458375647,0.71215833683434,131329,3014,0.0039132596197487,0.0039132596197759,0.0057168333713083,27.318071452633,-2.1455428378938e-05,-2.1455428378938e-05,-2.1455428378938e-05,4426772.9842495,0.013637344852019
31219200,0.99703781947733,0.014355082219007,0.0043127730408927,0.0043127730409227,0.0057295361371913,-0.00094135791529575,0.00094135819803431,-5.9874366986247e-09,6.270134426109e-09,-2.1419079117424e-09,2.5086155651635e-09,-0.0011676753242335,0.0011676699901997,-0.0011676712418832,0.0011676740811761,-0.0011676738576622,0.0011676715233359,-0.0011676697703454,0.0011676756079709,-0.0010452998607822,0.0010452896966522,-0.0010452878392245,0.0010453016656544,2.0908990939499e-09,-2.4446366151471e-09,1.7016585959125e-09,-1.9749920083831e-09,-0.00094135819239394,0.00094135792107196,-0.0011676714974381,0.0011676739101075,-0.0011676726616154,0.0011676726922909,-0.0011676729289232,0.001167672416329,-0.001167674092637,0.0011676711968518,-0.0010452938779342,0.0010452957253784,-0.0010452974210275,0.0010452920265283,-0.00094583027152358,0.00094583321639544,-0.00094583471730193,0.00094582866226075,6.4641867283562e-09,-5.8020766094835e-09,-0.0013779572791452,0.0013779579219811,-1.4116855544165e-09,2.1789062125285e-09,-0.0016257640609364,0.0016257675607175,-0.0016257628848073,0.001625768729849,-0.0016257681528654,0.001625763476245,-0.0016257669751316,0.0016257646436023,-0.0012883060413391,0.0012882958789356,-0.001288294025952,0.0012883079040357,0.74546031289102,131329,3014,0.0039174937670571,0.0039174937673439,0.0057219343943093,27.867835758027,-1.705731393578e-05,-1.705731393578e-05,-1.705731393578e-05,4432414.2330414,0.013651104987963
31419200,0.99716558974513,0.014356893014163,0.0043133114069789,0.0043133114070086,0.005730270200175,-0.00094237008081887,0.00094237036231593,-6.0307393862573e-09,6.3133474595982e-09,-2.058016886085e-09,2.4231771945412e-09,-0.0011689125995287,0.0011689072901569,-0.0011689084890124,0.0011689114129811,-0.001168911188337,0.0011689087676209,-0.001168907075455,0.0011689128831452,-0.0010463949781574,0.0010463846731422,-0.0010463828786492,0.0010463967275557,2.1636942260869e-09,-2.5190205238488e-09,1.690597506209e-09,-1.9645449683361e-09,-0.00094237035810986,0.0009423700850682,-0.0011689087650295,0.0011689112160913,-0.0011689099227006,0.0011689100083676,-0.0011689102462845,0.0011689096756989,-0.0011689114063601,0.0011689084655681,-0.001046388959999,0.0010463907387384,-0.0010463924875034,0.0010463870615615,-0.00094695567220645,0.00094695877012152,-0.00094696026682463,0.00094695407176856,6.50820026342e-09,-5.8431315668121e-09,-0.0013792145479744,0.0013792151938338,-1.410157856469e-09,2.1803230142168e-09,-0.0016271653611329,0.0016271688903279,-0.0016271641833712,0.0016271700601958,-0.0016271694814755,0.0016271647804391,-0.0016271683054951,0.0016271659481707,-0.0012896262935555,0.0012896160463588,-0.0012896141902382,0.0012896281541583,0.71242631809338,131329,3014,0.00392170265839,0.0039217026584796,0.0057271337253754,28.43597732596,-1.2512181392323e-05,-1.2512181392323e-05,-1.2512181392323e-05,4434884.9500515,0.013664916499313
31619200,0.99729186341102,0.014358590513007,0.0043138137030764,0.0043138137031061,0.005730963106825,-0.00094339770643994,0.0009433979891181,-6.0728709521081e-09,6.356711455799e-09,-2.0773831094014e-09,2.4440907876747e-09,-0.0011701057843913,0.0011701004334621,-0.0011701016455374,0.0011701045842655,-0.0011701043591132,0.0011701019252903,-0.0011701002171683,0.0011701060695133,-0.0010475024799191,0.0010474921052682,-0.001047490295887,0.0010475042445293,2.1358055035169e-09,-2.4890188021768e-09,1.6885899562392e-09,-1.96061014595e-09,-0.00094339798343553,0.00094339771214546,-0.0011701019393818,0.0011701043700268,-0.001170103095351,0.0011701031636868,-0.0011701034005658,0.0011701028497841,-0.001170104558179,0.0011701016417334,-0.0010474964191845,0.0010474982131573,-0.0010474999401561,0.0010474945427693,-0.00094806422250152,0.00094806726625776,-0.00094806875874395,0.00094806262642,6.5508764120459e-09,-5.8863445484499e-09,-0.0013804677006998,0.0013804683458906,-1.4040647401683e-09,2.1736487353467e-09,-0.001628528155802,0.0016285317178085,-0.0016285269829924,0.0016285328829758,-0.0016285323052345,0.0016285275789558,-0.0016285311332751,0.0016285287426221,-0.001290909682499,0.0012908993469142,-0.0012908974963496,0.0012909115385101,0.68057768603593,131329,3014,0.0039259734534432,0.0039259734534908,0.0057323181655014,29.004566808253,-7.9634655339757e-06,-7.9634655339757e-06,-7.9634655339757e-06,4441643.9219053,0.013678835223285
31819200,0.9974143176433,0.014360173374339,0.0043142803099584,0.0043142803099881,0.005731612754392,-0.00094390565295732,0.00094390593680355,-6.1155810833723e-09,6.4004741289971e-09,-2.1159639156372e-09,2.4840841435816e-09,-0.0011706931805107,0.0011706877763892,-0.0011706890131881,0.0011706919560439,-0.0011706917296949,0.0011706892939302,-0.0011706875589767,0.00117069346714,-0.0010480622581279,0.0010480518262174,-0.0010480499911229,0.0010480640524822,2.1118403081722e-09,-2.4634933005644e-09,1.6963859293643e-09,-1.9669167656607e-09,-0.00094390593003415,0.00094390565971021,-0.0011706893142745,0.0011706917343375,-0.0011706904752913,0.0011706905233528,-0.001170690759485,0.0011706902300265,-0.0011706919218978,0.0011706890175051,-0.0010480561524072,0.0010480579791466,-0.0010480596881456,0.0010480542972636,-0.00094860084557318,0.00094860383862731,-0.00094860533211049,0.00094859924621266,6.5929659147698e-09,-5.9291079668215e-09,-0.0013811219561607,0.0013811226014287,-1.4071525785135e-09,2.176224626655e-09,-0.001629243022657,0.0016292466120486,-0.0016292418480655,0.0016292477789398,-0.0016292472005375,0.001629242444806,-0.0016292460264253,0.0016292436102608,-0.0012915565761354,0.0012915461581643,-0.0012915443082462,0.0012915584335645,0.65805654857834,131329,3014,0.0039280838505069,0.0039280838504719,0.0057350256074534,29.266305951191,-5.8695523904681e-06,-5.8695523904681e-06,-5.8695523904681e-06,4445916.6988645,0.013685859271005
32019200,0.99753134103943,0.014361846885154,0.0043147782977746,0.0043147782978042,0.0057322902895752,-0.0009440073616572,0.0009440076469668,-6.1573642528957e-09,6.4441388365408e-09,-2.1249788807656e-09,2.4949249205798e-09,-0.0011707982162991,0.0011707927783206,-0.001170794020701,0.0011707969866908,-0.001170796759081,0.0011707943024065,-0.0011707925601526,0.0011707985047829,-0.0010482014276456,0.0010481909196578,-0.0010481890770932,0.0010482032299556,2.1318091640379e-09,-2.4837984964954e-09,1.7083222967197e-09,-1.9788966357985e-09,-0.00094400763958301,0.00094400736902219,-0.0011707943224132,0.0011707967635996,-0.0011707954915488,0.0011707955448605,-0.0011707957815723,0.0011707952461448,-0.001170796952194,0.0011707940263457,-0.001048195279524,0.0010481971154158,-0.0010481988385858,0.0010481934104817,-0.00094869281185797,0.00094869583601576,-0.00094869733908862,0.00094869120531622,6.6370633165657e-09,-5.9709685191869e-09,-0.0013813023142999,0.001381302961514,-1.4184365731775e-09,2.1898147994551e-09,-0.0016294430305677,0.0016294466415973,-0.0016294418474361,0.0016294478166982,-0.0016294472372919,0.0016294424460159,-0.00162944605519,0.0016294436205508,-0.0012917064602912,0.0012916959686087,-0.0012916941069973,0.0012917083262449,0.71766340596411,131329,3014,0.0039285054164095,0.0039285054163694,0.0057357732292736,29.281043659361,-5.751650725112e-06,-5.751650725112e-06,-5.751650725112e-06,4447787.2571911,0.013687469964666
32219200,0.99764313408301,0.014363485106196,0.0043152666095663,0.004315266609596,0.0057329518870335,-0.0009440540428646,0.00094405432845551,-6.1999308971904e-09,6.486815674028e-09,-2.139317908277e-09,2.5096179065133e-09,-0.0011709531513164,0.0011709476758456,-0.0011709489270189,0.0011709519120092,-0.0011709516846829,0.0011709492094594,-0.0011709474566314,0.0011709534397493,-0.0010482814938156,0.0010482709120818,-0.0010482690584594,0.0010482833055255,2.1442621181674e-09,-2.4974365950557e-09,1.7202699836511e-09,-1.9918227805853e-09,-0.00094405432133442,0.00094405404998936,-0.0011709492305679,0.0011709516883792,-0.0011709504076773,0.0011709504607342,-0.0011709506982546,0.0011709501617094,-0.0011709518763738,0.0011709489330858,-0.0010482753013661,0.0010482771515912,-0.0010482788839335,0.0010482734218484,-0.0009487867361485,0.00094878977579773,-0.00094879128855551,0.00094878511963979,6.6802130181954e-09,-6.0138722840357e-09,-0.0013814595827285,0.0013814602302004,-1.4300233520329e-09,2.2017227781452e-09,-0.0016296748896858,0.0016296785220773,-0.0016296736990042,0.0016296797049573,-0.001629679125016,0.0016296742972996,-0.0016296779348235,0.0016296754796474,-0.0012918958199361,0.0012918852527331,-0.0012918833827591,0.0012918976945355,0.7334085378417,131329,3014,0.0039287024429667,0.0039287024429744,0.0057364212896836,29.290229617065,-5.6781630634827e-06,-5.6781630634827e-06,-5.6781630634827e-06,4442334.7541044,0.013688530058245
32419200,0.99774992605348,0.014365093422613,0.004315747085552,0.0043157470855816,0.0057335992514794,-0.0009440840016474,0.0009440842874508,-6.2428527827798e-09,6.5298487601027e-09,-2.1485024475191e-09,2.5190400097039e-09,-0.0011711180443913,0.0011711125342327,-0.0011711137914271,0.0011711167992399,-0.00117111657143,0.0011711140741052,-0.001171112314911,0.0011711183330059,-0.0010483433149752,0.0010483326557638,-0.0010483307954214,0.0010483451326447,2.1587596369944e-09,-2.5129089439247e-09,1.7309679271543e-09,-2.003442944288e-09,-0.00094408428060253,0.0009440840085123,-0.0011711140979464,0.0011711165724464,-0.0011711152824454,0.0011711153375655,-0.0011711155754853,0.0011711150358676,-0.001171116761197,0.0011711137997741,-0.0010483370783808,0.0010483389395803,-0.0010483406827405,0.0010483351873603,-0.00094888117560321,0.00094888423644629,-0.0009488857576955,0.00094887955050811,6.7235122654332e-09,-6.0559591924272e-09,-0.0013816068439,0.0013816074924797,-1.4414996710863e-09,2.2144968978752e-09,-0.0016299071113675,0.0016299107650099,-0.0016299059124498,0.0016299119560818,-0.0016299113750568,0.001629906511913,-0.0016299101768179,0.001629907702193,-0.0012920932975111,0.0012920826559795,-0.0012920807764846,0.0012920951818151,0.75109427423114,131329,3014,0.0039288310158303,0.0039288310158649,0.005737026780754,29.299223650522,-5.6062107958248e-06,-5.6062107958248e-06,-5.6062107958248e-06,4435517.9735645,0.013689409287453
32619200,0.99785167695318,0.01436649817655,0.0043161636210218,0.0043161636210515,0.005734170934477,-0.00094400739949518,0.000944007685823,-6.2846395688104e-09,6.5721144235039e-09,-2.1660867220081e-09,2.5373190738205e-09,-0.0011712039332458,0.0011711983840485,-0.0011711996523359,0.0011712026762637,-0.0011712024487999,0.0011711999355488,-0.0011711981634149,0.0011712042223673,-0.0010482849192027,0.0010482741894053,-0.0010482723164934,0.0010482867501313,2.160966110849e-09,-2.5148051437637e-09,1.7437469583e-09,-2.015853980482e-09,-0.00094400767863652,0.00094400740668046,-0.0011711999624055,0.0011712024470365,-0.0011712011553559,0.0011712012029488,-0.0011712014414313,0.0011712009084759,-0.0011712026346239,0.0011711996638503,-0.0010482786355299,0.0010482805198929,-0.0010482822637496,0.0010482767444049,-0.00094888066294983,0.00094888371923174,-0.00094888524741782,0.00094887902956538,6.7668704572819e-09,-6.0998441291843e-09,-0.0013816470570636,0.0013816477053792,-1.4514665559872e-09,2.2240784332247e-09,-0.0016300420656375,0.0016300457422984,-0.0016300408607266,0.0016300469395031,-0.0016300463586419,0.0016300414593964,-0.0016300451533868,0.0016300426564254,-0.0012922004237187,0.0012921897036143,-0.0012921878187351,0.0012922023143387,0.69653888262068,131329,3014,0.0039285180889423,0.0039285180889404,0.0057371879004987,29.262842891558,-5.8972568675386e-06,-5.8972568675386e-06,-5.8972568675386e-06,4426344.4491032,0.013688943916363
32819200,0.99794851250519,0.014367719944935,0.0043165230210891,0.0043165230211187,0.0057346739027273,-0.00094392737351119,0.00094392766004896,-6.327931070873e-09,6.6156708324443e-09,-2.1670101735032e-09,2.5384635630336e-09,-0.0011711815997877,0.0011711760209041,-0.0011711772899624,0.0011711803427021,-0.0011711801144708,0.001171177573236,-0.0011711758007661,0.001171181889254,-0.0010482180215832,0.0010482072079919,-0.0010482053343947,0.0010482198528362,2.1725144847817e-09,-2.5270483780023e-09,1.7524681124602e-09,-2.0252254853316e-09,-0.00094392765301779,0.00094392738055351,-0.0011711776073297,0.0011711801052711,-0.0011711788062939,0.001171178855766,-0.0011711790943417,0.0011711785591639,-0.0011711802941987,0.0011711773087807,-0.001048211691622,0.0010482135851868,-0.0010482153379293,0.0010482097911765,-0.00094881962855479,0.0009488227020225,-0.00094882423759878,0.00094881798883793,6.8098788642281e-09,-6.141360615237e-09,-0.0013816366023631,0.0013816372519806,-1.4614189080379e-09,2.2355808626274e-09,-0.0016300687724606,0.0016300724707796,-0.0016300675599808,0.0016300736754033,-0.0016300730934972,0.0016300681602983,-0.0016300718813986,0.0016300693644539,-0.0012921990886024,0.0012921882939057,-0.0012921863998185,0.001292200987423,0.64446137307457,131329,3014,0.0039281870786183,0.0039281870786417,0.0057371431438159,29.204329666349,-6.3653626692066e-06,-6.3653626692066e-06,-6.3653626692066e-06,4423450.4545662,0.013688227849454
33019200,0.99804068120124,0.014368991648051,0.0043169005384395,0.0043169005384691,0.0057351905711424,-0.00094390093777335,0.00094390122443611,-6.3708319684271e-09,6.6587037065548e-09,-2.1708474098076e-09,2.542466711446e-09,-0.0011711024796153,0.0011710968695301,-0.0011710981411267,0.0011711012200171,-0.0011711009916008,0.0011710984245425,-0.0011710966492804,0.0011711027691686,-0.0010482109457088,0.0010482000508376,-0.0010481981746651,0.0010482127798274,2.1765004308272e-09,-2.5314035797664e-09,1.761026042474e-09,-2.0340554909698e-09,-0.00094390121746716,0.00094390094474961,-0.0011710984673955,0.0011711009736399,-0.0011710996721238,0.0011710997183704,-0.0011710999570949,0.0011710994248327,-0.0011711011627626,0.001171098168618,-0.0010482045680791,0.0010482064757908,-0.0010482082316151,0.0010482026647139,-0.00094875585213708,0.00094875892754782,-0.00094876046945728,0.00094875420621375,6.8532503896696e-09,-6.1834156258383e-09,-0.0013816365877214,0.0013816372386809,-1.4695162626104e-09,2.2450751723475e-09,-0.0016300493580128,0.001630053080303,-0.0016300481396448,0.0016300542907896,-0.0016300537075,0.0016300487413716,-0.0016300524895704,0.0016300499513365,-0.0012921515320344,0.0012921406606059,-0.0012921387594404,0.0012921534379525,0.69524137098555,131329,3014,0.0039280747184102,0.0039280747184255,0.0057371457624209,29.145314088756,-6.8374872899528e-06,-6.8374872899528e-06,-6.8374872899528e-06,4426835.6828941,0.013687998310307
33219200,0.99812842098328,0.014370270234212,0.004317281789992,0.0043172817900216,0.0057357066541987,-0.00094383933380698,0.00094383962049225,-6.4137262810059e-09,6.7016082538504e-09,-2.1722546017012e-09,2.5439140812299e-09,-0.0011710806533695,0.0011710750137421,-0.0011710762862751,0.0011710793928477,-0.0011710791644195,0.0011710765697307,-0.0011710747935087,0.0011710809429709,-0.0010481692986129,0.0010481583207108,-0.0010481564432673,0.0010481711332957,2.1782491397747e-09,-2.5331903779548e-09,1.768410485405e-09,-2.0415010854616e-09,-0.00094383961351925,0.00094383934079596,-0.0011710766233596,0.0011710791356949,-0.0011710778329876,0.0011710778754959,-0.001171078114229,0.0011710775857234,-0.0011710793248172,0.001171076324567,-0.0010481628728927,0.0010481647937308,-0.0010481665506775,0.001048160967777,-0.0009487068640104,0.00094870993793151,-0.00094871148485153,0.00094870521312133,6.8964383396015e-09,-6.2257676388957e-09,-0.0013816304371422,0.0013816310888299,-1.4765084000054e-09,2.252962380134e-09,-0.0016300751636817,0.0016300789101237,-0.0016300739403434,0.0016300801255937,-0.0016300795416749,0.001630074542709,-0.0016300783187975,0.0016300757576476,-0.0012921491486721,0.0012921381994102,-0.001292136292198,0.001292151060529,0.72922792400788,131329,3014,0.0039278198532806,0.003927819853314,0.0057371195063131,29.086281116407,-7.3097510687406e-06,-7.3097510687406e-06,-7.3097510687406e-06,4423910.6164626,0.013687455631159
33419200,0.99821331153729,0.014371533534847,0.0043176590908745,0.0043176590909042,0.0057362153530679,-0.00094425158800784,0.00094425187538784,-6.4547679554462e-09,6.7432048747786e-09,-2.1912965724821e-09,2.5636551425363e-09,-0.0011716175176791,0.0011716118391043,-0.0011716131240039,0.0011716162450934,-0.0011716160165079,0.0011716134072933,-0.0011716116173958,0.0011716178089898,-0.0010486215336046,0.0010486104859812,-0.0010486085939653,0.0010486233807018,2.1377659713084e-09,-2.4913109007724e-09,1.7688082163612e-09,-2.0408944373699e-09,-0.00094425186735141,0.00094425159609636,-0.0011716134805971,0.0011716159679384,-0.001171614691151,0.001171614707151,-0.0011716149448888,0.0011716144447878,-0.0011716161547839,0.0011716131846089,-0.0010486150605184,0.0010486170066237,-0.0010486187348171,0.0010486131823704,-0.00094918220725067,0.00094918519825247,-0.00094918674544727,0.000949180557216,6.9408765749262e-09,-6.270048300446e-09,-0.0013821660653265,0.0013821667168656,-1.4709404473084e-09,2.2474139464584e-09,-0.0016306876369329,0.00163069141716,-0.0016306864181543,0.00163069262812,-0.0016306920453713,0.0016306870194529,-0.0016306908254216,0.0016306882314454,-0.0012927277238951,0.001292716687115,-0.0012927147825834,0.0012927296326011,0.74278654226888,131329,3014,0.0039295350007578,0.0039295350008662,0.0057393338115911,29.312243408807,-5.5020527295475e-06,-5.5020527295475e-06,-5.5020527295475e-06,4422925.9558514,0.013693182045305
33619200,0.99829574480515,0.014372760568355,0.0043180255205907,0.0043180255206204,0.0057367095271437,-0.00094477899779297,0.00094477928355274,-6.4992884595812e-09,6.7859990943269e-09,-2.159746522491e-09,2.5301945002948e-09,-0.0011723035680916,0.001172297880511,-0.0011722991446369,0.001172302315932,-0.0011723020884932,0.0011722994270191,-0.0011722976605468,0.0011723038570943,-0.0010491941363273,0.0010491829816642,-0.001049181113027,0.0010491959608833,2.1412056559909e-09,-2.4947853981859e-09,1.7609448502278e-09,-2.0331488699082e-09,-0.00094477927641647,0.00094477900496383,-0.0011722995281453,0.0011723020122718,-0.0011723007328672,0.0011723007570441,-0.0011723009946039,0.0011723004867172,-0.001172302199585,0.0011722992310205,-0.0010491876174541,0.001049189547809,-0.0010491912782209,0.0010491857379155,-0.00094979063302108,0.00094979363840024,-0.00094979517945973,0.00094978898825229,6.9823949836262e-09,-6.3125994287147e-09,-0.0013828469531301,0.0013828476038077,-1.466493424956e-09,2.2419194461057e-09,-0.0016314617131563,0.0016314655234218,-0.0016314604971385,0.0016314667316327,-0.0016314661489473,0.0016314610980697,-0.0016314649326935,0.0016314623062227,-0.001293466256953,0.0012934551320695,-0.001293453232308,0.0012934681617255,0.74303043855546,131329,3014,0.0039317292539952,0.0039317292540671,0.005742148446921,29.614159944281,-3.0867204457542e-06,-3.0867204457542e-06,-3.0867204457542e-06,4422473.6167703,0.013700489577566
33819200,0.9983757304794,0.014373955088754,0.0043183823069304,0.0043183823069601,0.0057371904748638,-0.00094530129715178,0.00094530158221776,-6.5430571100378e-09,6.8292992062147e-09,-2.1356312536076e-09,2.5052850992599e-09,-0.0011729868459668,0.0011729811443776,-0.0011729823932118,0.0011729856091467,-0.0011729853822123,0.0011729826749616,-0.0011729809255738,0.001172987133967,-0.0010497602966444,0.0010497490402806,-0.0010497471893275,0.0010497621044036,2.1378133325059e-09,-2.4907737935777e-09,1.752932700959e-09,-2.0244935957178e-09,-0.00094530157522488,0.00094530130416357,-0.0011729828030659,0.0011729852789391,-0.0011729840019983,0.0011729840295785,-0.001172984266738,0.0011729837563871,-0.0011729854665447,0.0011729825061499,-0.0010497537331679,0.0010497556510439,-0.0010497573788607,0.0010497518570286,-0.00095039701939378,0.00095040002434928,-0.00095040155920036,0.00095039538120767,7.0243332073246e-09,-6.3550125776104e-09,-0.0013835237655522,0.0013835244158085,-1.4604871515318e-09,2.2353836766513e-09,-0.0016322304127245,0.0016322342545422,-0.0016322292005811,0.0016322354588184,-0.0016322348763719,0.0016322298014305,-0.0016322336646683,0.0016322310052916,-0.0012942037133864,0.0012941925000241,-0.001294190605157,0.0012942056127766,0.74517770549932,131329,3014,0.0039339023252571,0.0039339023252962,0.005744945965227,29.917835722183,-6.5731422253804e-07,-6.5731422253804e-07,-6.5731422253804e-07,4422263.1188041,0.013707736577948
34019200,0.99845327287263,0.014375075699605,0.0043187160641918,0.0043187160642215,0.0057376435711914,-0.00094581622289024,0.00094581650759907,-6.5859935388006e-09,6.871905776378e-09,-2.125986541747e-09,2.4952084314776e-09,-0.0011736637078921,0.001173657983963,-0.0011736592267042,0.0011736624771565,-0.0011736622506388,0.001173659508011,-0.0011736577653984,0.0011736639956214,-0.0010503165291098,0.0010503051818445,-0.001050303337846,0.0010503183299338,2.1218932029494e-09,-2.4739859954279e-09,1.7458638195243e-09,-2.016720365012e-09,-0.00094581650043755,0.00094581623006832,-0.0011736596613789,0.0011736621220621,-0.0011736608554982,0.001173660877556,-0.0011736611141603,0.00117366061048,-0.0011736623089806,0.0011736593652697,-0.0010503099217473,0.0010503118364695,-0.0010503135527307,0.0010503080572417,-0.00095099634454226,0.00095099932276209,-0.00095100085190383,0.00095099471214426,7.0669393386189e-09,-6.3982561767246e-09,-0.0013841938558192,0.0013841945054207,-1.4531196246635e-09,2.2272996524657e-09,-0.0016329909639673,0.0016329948390475,-0.0016329897571315,0.0016329960380595,-0.001632995456348,0.0016329903572289,-0.001632994249743,0.0016329915559896,-0.0012949346632265,0.0012949233601157,-0.0012949214711149,0.001294936556834,0.72426546583515,131329,3014,0.0039360447719831,0.0039360447720174,0.005747715552419,30.22157265693,1.7725812554392e-06,1.7725812554392e-06,1.7725812554392e-06,4422146.0600518,0.013714893046438
34219200,0.99852967874316,0.014376147817159,0.0043190345879245,0.0043190345879542,0.0057380786412799,-0.00094688619635891,0.0009468864793056,-6.6310747397185e-09,6.9151319889351e-09,-2.0871491410852e-09,2.4541911388806e-09,-0.0011748801823896,0.0011748744535327,-0.0011748756711302,0.0011748789763832,-0.0011748787511759,0.0011748759511564,-0.0011748742366704,0.0011748804676276,-0.0010514568091574,0.0010514453478115,-0.0010514435308654,0.0010514585796269,2.1230945248873e-09,-2.4762833801543e-09,1.7272550099596e-09,-1.9992985346331e-09,-0.00094688647334956,0.00094688620238655,-0.0011748761390196,0.0011748785883441,-0.0011748773205872,0.0011748773560807,-0.0011748775924804,0.0011748770757493,-0.0011748787755024,0.0011748758419486,-0.001051450163568,0.001051452040715,-0.001051453759222,0.0010514482942728,-0.00095214691692174,0.00095214990948538,-0.00095215142966962,0.00095214529526857,7.1081807974265e-09,-6.4401202942163e-09,-0.0013854620532685,0.0013854627017444,-1.4405153452744e-09,2.2138138168605e-09,-0.0016343440511296,0.0016343479606498,-0.0016343428525731,0.0016343491513689,-0.0016343485705985,0.0016343434513286,-0.0016343473730727,0.001634344640996,-0.00129624168413,0.0012962302898883,-0.0012962284090365,0.0012962435687711,0.70594350096377,131329,3014,0.0039404906654411,0.0039404906655907,0.0057529625868197,30.833642324391,6.6691385951323e-06,6.6691385951323e-06,6.6691385951323e-06,4430901.1353049,0.013729230053925
34419200,0.99860495108939,0.014377208642438,0.004319349820869,0.0043193498208988,0.0057385090006699,-0.00094802540635973,0.00094802569033811,-6.6718687881648e-09,6.9572533981549e-09,-2.0933221350339e-09,2.4615988155224e-09,-0.0011761371279345,0.0011761313679056,-0.0011761325897654,0.001176135918178,-0.0011761356924087,0.001176132870068,-0.0011761311501277,0.0011761374151225,-0.0010526695931528,0.0010526580549672,-0.0010526562336088,0.0010526713704129,2.0870107790121e-09,-2.4373165975775e-09,1.7157949573748e-09,-1.9852467387602e-09,-0.00094802568275642,0.00094802541396849,-0.0011761330845542,0.0011761355023658,-0.0011761342584331,0.0011761342783617,-0.0011761345136168,0.0011761340151327,-0.001176135688125,0.0011761327907832,-0.0010526629082751,0.0010526647871946,-0.0010526664785756,0.0010526610681395,-0.00095334876124753,0.00095335168994307,-0.00095335319873671,0.0009533471514941,7.1518661740447e-09,-6.484990375172e-09,-0.0013867975045184,0.0013867981519527,-1.4232914310708e-09,2.1952583228945e-09,-0.0016357508171192,0.0016357547676941,-0.0016357496310766,0.0016357559459122,-0.0016357553669446,0.0016357502287655,-0.001635754181172,0.0016357514071966,-0.0012975952115141,0.0012975837181085,-0.0012975818505897,0.0012975970818211,0.70867959870896,131329,3014,0.0039452228825807,0.0039452228826366,0.005758489246858,31.477556792219,1.1820454337755e-05,1.1820454337755e-05,1.1820454337755e-05,4442327.6966781,0.013744429761427
34619200,0.99867895354452,0.014378297998369,0.0043196746361277,0.0043196746361575,0.0057389487260836,-0.00094916391021952,0.00094916419372752,-6.7144471057793e-09,6.9992148125861e-09,-2.0913489770773e-09,2.4590618272021e-09,-0.0011773975287992,0.0011773917422507,-0.0011773929625463,0.001177396320459,-0.0011773960952396,0.0011773932423838,-0.0011773915244981,0.0011773978155732,-0.0010538853522512,0.0010538737291142,-0.0010538719094942,0.001053887127896,2.0668706631519e-09,-2.4162292483256e-09,1.7030963891778e-09,-1.9718479440531e-09,-0.00094916418603822,0.0009491639179339,-0.0011773934828289,0.0011773958793776,-0.0011773946481717,0.0011773946638845,-0.0011773948985284,0.0011773944052397,-0.0011773960640903,0.0011773931895667,-0.0010538786304328,0.001053880498114,-0.0010538821747079,0.0010538768052995,-0.00095455287954832,0.00095455577757676,-0.00095455727586803,0.00095455127904509,7.1944280009277e-09,-6.5293123234022e-09,-0.0013881372604757,0.0013881379062858,-1.4088513708812e-09,2.1789535980221e-09,-0.0016371655365396,0.001637169525022,-0.0016371643608589,0.0016371706928842,-0.0016371701153181,0.0016371649568232,-0.0016371689394707,0.0016371661250372,-0.0012989549463364,0.0012989433563498,-0.0012989415013519,0.001298956805319,0.73613740109218,131329,3014,0.0039499523691275,0.0039499523691795,0.0057640335353801,32.122261448464,1.6978091587711e-05,1.6978091587711e-05,1.6978091587711e-05,4453230.6252394,0.013759642418267
34819200,0.99875269093864,0.014379393355163,0.0043200013117021,0.0043200013117319,0.0057393907317294,-0.00095077952215255,0.00095077981121753,-6.7482524745485e-09,7.0399953765913e-09,-2.1331839857523e-09,2.5075969385172e-09,-0.001179210547176,0.0011792047104772,-0.0011792059582962,0.0011792093125097,-0.0011792090841787,0.0011792062400449,-0.0011792044877459,0.0011792108419652,-0.0010556046006281,0.001055592932999,-0.001055591075441,0.0010556064073439,1.9950865667699e-09,-2.3397382939063e-09,1.6937971283024e-09,-1.9586257405389e-09,-0.00095077979850126,0.00095077953498286,-0.0011792065011815,0.0011792088461858,-0.0011792076612895,0.0011792076371661,-0.0011792078694504,0.0011792074219463,-0.0011792090266295,0.001179206217604,-0.0010555978463951,0.0010555997356822,-0.0010556013606978,0.0010555960674074,-0.00095627949941752,0.00095628225447083,-0.00095628374899375,0.00095627791300455,7.2443861633872e-09,-6.5763293539465e-09,-0.0013900299167361,0.0013900305635452,-1.3802179884938e-09,2.1526070856841e-09,-0.0016391754159605,0.001639179455298,-0.0016391742597264,0.0016391806028426,-0.0016391800290356,0.0016391748537502,-0.0016391788710231,0.0016391760077346,-0.0013008977721263,0.0013008860781463,-0.0013008842325956,0.0013008996093129,0.74236048787441,131329,3014,0.003956665055614,0.0039566650558505,0.0057718645667081,33.053450702426,2.4427605619409e-05,2.4427605619409e-05,2.4427605619409e-05,4466654.1106416,0.013781198106848
35019200,0.99882631526762,0.014380450792184,0.004320315580773,0.004320315580803,0.0057398196306077,-0.00095255544879137,0.0009525557374958,-6.7864561801574e-09,7.0770010167415e-09,-2.1649083660061e-09,2.5389539744636e-09,-0.0011812137996216,0.0011812079198581,-0.0011812091865186,0.001181212545273,-0.001181212318235,0.0011812094682543,-0.0011812076947663,0.0011812140951893,-0.0010574917495858,0.001057480027256,-0.0010574781492661,0.0010574935803428,1.9435656312994e-09,-2.2857020100564e-09,1.6829951731251e-09,-1.9458426649406e-09,-0.0009525557240684,0.00095255546227272,-0.0011812097518576,0.0011812120579548,-0.0011812109050612,0.0011812108551519,-0.0011812110869997,0.0011812106661358,-0.0011812122344603,0.0011812094696227,-0.0010574849604526,0.0010574868633758,-0.0010574884493588,0.0010574832236448,-0.00095818207107506,0.0009581847330703,-0.00095818621359873,0.00095818049379172,7.2901402499254e-09,-6.6268247051129e-09,-0.0013921148325519,0.0013921154755552,-1.356624132564e-09,2.1242309174977e-09,-0.0016413936128208,0.0016413977000369,-0.0016413924752131,0.0016413988293851,-0.0016413982589193,0.001641393064976,-0.0016413971163324,0.0016413942020702,-0.0013030419785082,0.0013030301718304,-0.0013030283510198,0.0013030437972917,0.72136489638431,131329,3014,0.0039640441358352,0.003964044135947,0.0057804905184579,34.0857101917,3.2685681533603e-05,3.2685681533603e-05,3.2685681533603e-05,4481241.2337306,0.013804912255634
35219200,0.99889954430085,0.014381469721878,0.0043206174090462,0.0043206174090764,0.0057402349037557,-0.00095434252796172,0.00095434281218595,-6.8377869563904e-09,7.1234611825036e-09,-2.1002482324464e-09,2.4689294386651e-09,-0.001183195656518,0.0011831897842565,-0.00118319100874,0.0011831944440916,-0.0011831942192947,0.0011831912879926,-0.001183189564759,0.0011831959452587,-0.0010593929109145,0.0010593810485956,-0.0010593792209346,0.0010593946929736,1.9989619936125e-09,-2.3445691716848e-09,1.6567102201813e-09,-1.9224951890804e-09,-0.00095434280258357,0.00095434253760176,-0.0011831916038098,0.0011831939276047,-0.001183192738456,0.0011831927432387,-0.0011831929759986,0.0011831924975967,-0.001183194108534,0.0011831913154454,-0.0010593860937796,0.0010593879127627,-0.0010593895397154,0.0010593843174229,-0.00096007752599848,0.000960080320838,-0.00096008178498051,0.00096007596159433,7.3258754678861e-09,-6.6648915862547e-09,-0.0013942041869732,0.0013942048282443,-1.3503819419645e-09,2.115685024216e-09,-0.0016435994772246,0.0016436035903406,-0.001643598342193,0.0016436047169431,-0.0016436041453548,0.0016435989324219,-0.0016436030087631,0.0016436000624493,-0.0013051693583926,0.0013051574670511,-0.0013051556556592,0.0013051711720497,0.70214230580277,131329,3014,0.0039714682691056,0.0039714682691838,0.005789135889014,35.120292810468,4.0962342483747e-05,4.0962342483747e-05,4.0962342483747e-05,4498091.5008412,0.013828736100002
35419200,0.99897122959056,0.014382432827363,0.004320901623384,0.0043209016234142,0.0057406295805648,-0.00095574825284202,0.00095574853578694,-6.8853342803229e-09,7.1699143761845e-09,-2.0722394040675e-09,2.4394698494294e-09,-0.0011847426937581,0.001184736806404,-0.0011847380136174,0.0011847414984302,-0.001184741274164,0.0011847382925537,-0.001184736589248,0.00118474298004,-0.0010608949386925,0.0010608829671547,-0.0010608811619457,0.0010608967024861,2.0453745750792e-09,-2.3925288303259e-09,1.6453454459281e-09,-1.9119749509634e-09,-0.00095574852762288,0.00095574826099336,-0.0011847386232919,0.0011847409676713,-0.001184739749683,0.001184739791434,-0.001184740025276,0.001184739507701,-0.0011847411515459,0.0011847383317152,-0.0010608880916065,0.0010608898610491,-0.0010608915210931,0.0010608862857068,-0.00096155806046918,0.00096156095707051,-0.00096156241313898,0.00096155650227972,7.3640702309447e-09,-6.704231571798e-09,-0.0013958625191488,0.0013958631599575,-1.3515685326267e-09,2.1158628596361e-09,-0.0016453457851136,0.0016453499230427,-0.0016453446489699,0.0016453510509215,-0.0016453504783367,0.0016453452401739,-0.0016453493423433,0.001645346369304,-0.0013068413168764,0.0013068293444522,-0.0013068275356928,0.0013068431295258,0.68162298729291,131329,3014,0.0039773074984849,0.0039773074984581,0.005795998285405,35.931982535803,4.7455860286427e-05,4.7455860286427e-05,4.7455860286427e-05,4512383.8654461,0.013847536687908
35619200,0.99904056041591,0.014383325202782,0.0043211637687978,0.004321163768828,0.0057409976651557,-0.00095687372867725,0.00095687401386871,-6.9268278719868e-09,7.2135322111896e-09,-2.1094408499712e-09,2.4792103518256e-09,-0.001185953007168,0.0011859470682988,-0.0011859482986437,0.0011859517884722,-0.0011859515620675,0.0011859485804869,-0.0011859468486824,0.0011859532962429,-0.0010621046954613,0.0010620926693539,-0.0010620908352958,0.0010621064872185,2.0455534778027e-09,-2.3924800223353e-09,1.6513311859129e-09,-1.9177101385076e-09,-0.00095687400441865,0.00095687373813465,-0.0011859489086372,0.0011859512574333,-0.0011859500389162,0.0011859500771405,-0.0011859503109518,0.0011859497980489,-0.0011859514409351,0.0011859486180468,-0.0010620978138981,0.0010620995957858,-0.0010621012556838,0.001062096007874,-0.00096272523792481,0.00096272813090242,-0.00096272959120062,0.00096272367578236,7.4072916745592e-09,-6.747350326432e-09,-0.0013971956156625,0.0013971962564514,-1.3534256638044e-09,2.1177959547873e-09,-0.0016467381328128,0.0016467422984157,-0.0016467369958209,0.0016467434274707,-0.0016467428554112,0.0016467375868703,-0.001646741718528,0.0016467387174196,-0.0013081617623482,0.0013081497068278,-0.0013081478941234,0.0013081635751737,0.65729900370791,131329,3014,0.0039819814644965,0.0039819814645121,0.0058015159624155,36.575969766958,5.2607758135662e-05,5.2607758135662e-05,5.2607758135662e-05,4525430.5899271,0.013862609080184
35819200,0.99910742431683,0.014384245689854,0.0043214359060541,0.0043214359060843,0.0057413738777154,-0.00095801658141265,0.00095801686612115,-6.970438438214e-09,7.2566104019451e-09,-2.1183624751864e-09,2.4876716256336e-09,-0.0011871282763264,0.001187122301961,-0.0011871235389345,0.0011871270512816,-0.0011871268252225,0.0011871238197643,-0.0011871220831344,0.0011871285644233,-0.0010633394633353,0.0010633273570433,-0.0010633255180161,0.0010633412594766,2.0764035905101e-09,-2.4257583088848e-09,1.6552473354367e-09,-1.9237503952093e-09,-0.0009580168578664,0.00095801658968851,-0.0011871241487894,0.0011871265204119,-0.0011871252824019,0.0011871253369676,-0.0011871255719271,0.0011871250391688,-0.0011871267054908,0.0011871238558464,-0.0010633325499958,0.0010633343171494,-0.0010633360004997,0.0010633307196296,-0.00096388427733916,0.0009638872270517,-0.00096388869330849,0.00096388270929761,7.4501250032657e-09,-6.7893258981071e-09,-0.0013985306737853,0.0013985313153773,-1.3606275063519e-09,2.1258969851887e-09,-0.0016481069357097,0.0016481111252743,-0.0016481057934116,0.0016481122594173,-0.0016481116862009,0.0016481063853013,-0.0016481105439651,0.0016481075205354,-0.0013094563279651,0.001309444195078,-0.0013094423781487,0.0013094581480322,0.69619236314019,131329,3014,0.0039867257976925,0.0039867257977365,0.0058070436790138,37.216161890149,5.7729295121196e-05,5.7729295121196e-05,5.7729295121196e-05,4541036.3448188,0.01387783251016
36019200,0.99917173532097,0.014385188965291,0.0043217161789878,0.004321716179018,0.0057417566072848,-0.00095912800562465,0.00095912829081038,-7.0133915967303e-09,7.299994489091e-09,-2.1325255462496e-09,2.5024155585695e-09,-0.0011883479153106,0.0011883419028799,-0.0011883431491141,0.0011883466810214,-0.0011883464544307,0.0011883434304728,-0.0011883416836166,0.0011883482038785,-0.0010645432181205,0.0010645310373323,-0.0010645291881312,0.0010645450238916,2.1009306358843e-09,-2.4517042306279e-09,1.6615945668461e-09,-1.9313139366293e-09,-0.00095912828287743,0.00095912801358457,-0.0011883437586309,0.0011883461505295,-0.0011883448968538,0.0011883449624809,-0.0011883451983487,0.0011883446525848,-0.0011883463365953,0.0011883434645836,-0.0010645362698239,0.0010645380324329,-0.0010645397338199,0.0010645344208955,-0.00096505450754008,0.0009650575007913,-0.00096505897305514,0.00096505293344836,7.4930952009674e-09,-6.8315037197801e-09,-0.001399864546617,0.0013998651888993,-1.3683850324824e-09,2.1345051961844e-09,-0.0016495144296999,0.0016495186427933,-0.0016495132819452,0.001649519782391,-0.0016495192085496,0.001649513874485,-0.0016495180608841,0.0016495150150627,-0.0013107932621036,0.0013107810520691,-0.0013107792286683,0.001310795088494,0.7358631111666,131329,3014,0.0039913424548635,0.0039913424549197,0.0058125636629025,37.856221978938,6.2849775831505e-05,6.2849775831505e-05,6.2849775831505e-05,4551378.3497502,0.013892793598353
36219200,0.99923132527672,0.014386031877316,0.0043219656518939,0.0043219656519241,0.0057421005734984,-0.00095902243853774,0.00095902272465088,-7.0580447066085e-09,7.3462634373417e-09,-2.1363207985131e-09,2.5079287112935e-09,-0.0011883757834502,0.0011883697367921,-0.0011883709855242,0.0011883745458733,-0.0011883743186133,0.0011883712688357,-0.0011883695181269,0.0011883760714668,-0.0010644610439233,0.0010644487816163,-0.0010644469323562,0.001064462859127,2.1730854766667e-09,-2.5240593404734e-09,1.6833692651592e-09,-1.952309586135e-09,-0.00095902271681397,0.00095902244624595,-0.0011883715806905,0.0011883740310906,-0.0011883727316456,0.0011883728293973,-0.0011883730672688,0.0011883724861397,-0.0011883742203022,0.0011883712827962,-0.0010644540543733,0.0010644558173101,-0.0010644575670309,0.0010644521647718,-0.00096501019843286,0.00096501332565118,-0.00096501480660029,0.00096500861188244,7.5334545777809e-09,-6.8715276701935e-09,-0.0013998788617325,0.0013998795056505,-1.3969598569235e-09,2.1639837211945e-09,-0.0016496079325186,0.0016496121544051,-0.0016496067642761,0.0016496133142865,-0.0016496127370517,0.0016496073602147,-0.0016496115712435,0.0016496085196094,-0.0013108534679158,0.0013108411931478,-0.0013108393533965,0.0013108553112583,0.71361056396935,131329,3014,0.0039909084201246,0.0039909084198564,0.0058126184212639,37.827199952651,6.2617599621211e-05,6.2617599621211e-05,6.2617599621211e-05,4543069.3459882,0.013891973452106
36419200,0.99928568624953,0.014386789661705,0.0043221897246794,0.0043221897247096,0.005742410212316,-0.00095839779895838,0.00095839808694181,-7.0981022741126e-09,7.3875478416609e-09,-2.2023931242548e-09,2.5759120476257e-09,-0.001187806037136,0.0011877999215756,-0.0011878012134169,0.0011878047572095,-0.0011878045281193,0.0011878014977869,-0.0011877996999277,0.001187806328443,-0.0010638376142899,0.0010638253159941,-0.001063823417005,0.0010638394715493,2.1803251173543e-09,-2.5342518671061e-09,1.7146126080063e-09,-1.9867711445362e-09,-0.00095839807903901,0.00095839780686851,-0.001187801786036,0.0011878042642325,-0.0011878029601276,0.001187803040007,-0.0011878032787871,0.0011878027129127,-0.0011878044530908,0.0011878014885316,-0.0010638305818097,0.0010638323952073,-0.0010638341530468,0.0010638286774365,-0.00096440735344473,0.00096441046768834,-0.00096441197664089,0.00096440574049619,7.5798779252854e-09,-6.9148401640266e-09,-0.0013993056726442,0.001399306318702,-1.4215511307064e-09,2.1917186274416e-09,-0.0016490672779819,0.0016490715150713,-0.0016490660935204,0.0016490726914104,-0.0016490721136318,0.0016490666901087,-0.0016490709293364,0.001649067867165,-0.0013103034120765,0.001310291074509,-0.0013102892116305,0.0013103052784955,0.70434021258448,131329,3014,0.0039883171287777,0.0039883171287939,0.0058102430305505,37.495707228005,5.9965657824037e-05,5.9965657824037e-05,5.9965657824037e-05,4531905.9817013,0.013884311485216
36619200,0.99933532141499,0.014387439082127,0.0043223806716863,0.0043223806717165,0.0057426777387245,-0.00095777492019894,0.0009577752098161,-7.1390858400339e-09,7.4301529810443e-09,-2.2411483831023e-09,2.6166227472065e-09,-0.0011872053090433,0.0011871991413576,-0.001187200457836,0.0011872040045172,-0.001187203774301,0.001187200743457,-0.0011871989178569,0.0011872056023863,-0.0010632125597648,0.0010632002066546,-0.0010631982795479,0.0010632144454085,2.1974392216625e-09,-2.5523083321975e-09,1.7432220829338e-09,-2.0159393537586e-09,-0.00095777520138967,0.00095777492863212,-0.0011872010164866,0.0011872035256453,-0.0011872022100797,0.0011872022818279,-0.0011872025215329,0.0011872019619427,-0.001187203714584,0.0011872007187267,-0.0010632054783278,0.0010632073349649,-0.0010632091049231,0.001063203561868,-0.00096378881994072,0.00096379194740938,-0.00096379347705602,0.0009637871865897,7.624310189969e-09,-6.9579370630341e-09,-0.0013987133007991,0.0013987139482386,-1.4472992764417e-09,2.2190577066338e-09,-0.0016484893054547,0.001648493555637,-0.001648488103502,0.0016484947493602,-0.0016484941705451,0.0016484887011738,-0.0016484929681039,0.0016484898964418,-0.0013097202772491,0.0013097078741797,-0.0013097059921017,0.0013097221624082,0.66675282188453,131329,3014,0.0039857320407928,0.0039857320408073,0.005807789414533,37.157283503027,5.7258268024219e-05,5.7258268024219e-05,5.7258268024219e-05,4522274.0235931,0.013876581622203
36819200,0.99938069829416,0.014388015387516,0.0043225497212666,0.0043225497212968,0.0057429159449525,-0.00095718989433107,0.00095719018417565,-7.1828220781572e-09,7.4740371542071e-09,-2.2502502622815e-09,2.6260193995864e-09,-0.0011865625265336,0.0011865563234282,-0.0011865576457519,0.0011865612162301,-0.0011865609853757,0.0011865579319701,-0.0011865561000969,0.0011865628197642,-0.0010626244276379,0.0010626119961972,-0.0010626100623253,0.0010626263192722,2.2284966222728e-09,-2.5851469426825e-09,1.7669486124208e-09,-2.0411703292985e-09,-0.00095719017632727,0.00095718990219526,-0.0011865581983475,0.0011865607434911,-0.0011865594077808,0.0011865594837569,-0.0011865597242963,0.0011865591587298,-0.0011865609339443,0.001186557898836,-0.0010626172940596,0.0010626191767687,-0.0010626209692082,0.0010626153542425,-0.000963164456312,0.00096316762975692,-0.00096316917743377,0.00096316280503308,7.6669390754505e-09,-6.9988378290732e-09,-0.0013981225855961,0.0013981232346511,-1.4729880728431e-09,2.2467186447876e-09,-0.001647871494945,0.0016478757561609,-0.0016478702747248,0.001647876968074,-0.0016478763874314,0.0016478708742776,-0.0016478751675077,0.0016478720869875,-0.0013090950161706,0.0013090825501009,-0.0013090806482365,0.0013090969211467,0.6495783507532,131329,3014,0.0039833012200505,0.0039833012200838,0.0058053457372662,36.818617954143,5.4548943633147e-05,5.4548943633147e-05,5.4548943633147e-05,4517532.6835475,0.013869171062419
37019200,0.9994234183024,0.014388597632656,0.004322721770793,0.0043227217708232,0.0057431540910395,-0.00095757536624375,0.00095757565508408,-7.2258849080585e-09,7.5158640004845e-09,-2.2332747212844e-09,2.6075954291025e-09,-0.0011868983991564,0.0011868921788288,-0.0011868934903975,0.0011868970997401,-0.0011868968697467,0.0011868937752594,-0.0011868919559103,0.0011868986916744,-0.0010630561850025,0.0010630436561511,-0.001063041732008,0.0010630580594773,2.2252698257566e-09,-2.5839874328713e-09,1.7762783013216e-09,-2.0524645706122e-09,-0.00095757564819339,0.00095757537326577,-0.001186894059406,0.0011868966102248,-0.0011868952760114,0.0011868953433795,-0.0011868955839983,0.0011868950266751,-0.0011868968002222,0.0011868937601673,-0.0010630489946539,0.0010630508940233,-0.0010630526859822,0.0010630470488619,-0.00096352497513518,0.00096352813152208,-0.00096352969289669,0.00096352331405078,7.7114436415136e-09,-7.040857110413e-09,-0.0013985527635683,0.0013985534139523,-1.4829121646983e-09,2.2590013492947e-09,-0.0016482875362785,0.0016482918195824,-0.0016482863089222,0.0016482930385989,-0.0016482924577871,0.0016482869085326,-0.0016482912301412,0.0016482881288491,-0.0013094740049979,0.0013094614668549,-0.0013094595524665,0.001309475921281,0.68961816945968,131329,3014,0.003984899173002,0.0039848991732762,0.0058071293140517,37.016539044451,5.6132312355606e-05,5.6132312355606e-05,5.6132312355606e-05,4525370.2715167,0.013874216138229
37219200,0.99946387685762,0.014389189614782,0.0043228977460641,0.0043228977460944,0.0057433941226235,-0.00095815543672522,0.00095815572423659,-7.2700020793092e-09,7.5588241621104e-09,-2.2059733214999e-09,2.5789020660474e-09,-0.0011875294885639,0.0011875232560881,-0.0011875245503685,0.0011875282064555,-0.0011875279774417,0.0011875248342309,-0.001187523035038,0.00118752977924,-0.001063689412579,0.0010636767800329,-0.0010636748783189,0.0010636912699711,2.2089305555763e-09,-2.5652520017497e-09,1.7809246144521e-09,-2.0550122158589e-09,-0.00095815571730508,0.00095815544370364,-0.0011875251472818,0.0011875276891031,-0.0011875263658496,0.0011875264202878,-0.0011875266598548,0.0011875261176275,-0.0011875278789482,0.0011875248483222,-0.001063682158568,0.0010636840814945,-0.0010636858603201,0.00106368023039,-0.00096413249820639,0.00096413562312298,-0.00096413718116324,0.00096413083762808,7.7531230455306e-09,-7.0835692879383e-09,-0.001399225078775,0.0013992257289323,-1.4883391769951e-09,2.2636054587894e-09,-0.0016490009242868,0.0016490052324095,-0.0016489996931541,0.0016490064551836,-0.0016490058734916,0.0016490002936599,-0.001649004642905,0.0016490015168441,-0.0013101420146944,0.001310129393474,-0.0013101274793045,0.0013101439328192,0.73362544542494,131329,3014,0.0039873083826024,0.0039873083827003,0.0058099120154765,37.343594043923,5.8748752351383e-05,5.8748752351383e-05,5.8748752351383e-05,4530360.9367941,0.013881924126636
37419200,0.99950214852639,0.014389708006918,0.0043230507134805,0.0043230507135108,0.0057436065799265,-0.00095869597194187,0.00095869625893224,-7.3131514484785e-09,7.6014804997827e-09,-2.1906343007435e-09,2.5629157722118e-09,-0.0011882106201813,0.0011882043692085,-0.0011882056535002,0.001188209347985,-0.0011882091196483,0.0011882059367812,-0.0011882041484692,0.0011882109105135,-0.0010642736224649,0.0010642608946174,-0.0010642590041233,0.0010642754691827,2.1736674821482e-09,-2.5276229938893e-09,1.7842915672672e-09,-2.0564765835939e-09,-0.00095869625134023,0.00095869597956924,-0.001188206279969,0.0011882088010114,-0.0011882075002813,0.0011882075304145,-0.0011882077685951,0.0011882072538091,-0.0011882089891238,0.0011882059830175,-0.0010642663053589,0.0010642682589447,-0.001064270011831,0.0010642644036891,-0.00096474572658951,0.0009647487804431,-0.0009647503374288,0.00096474406689838,7.7969769193542e-09,-7.1253312703737e-09,-0.0013998932380426,0.0013998938904006,-1.4881070305282e-09,2.2654792740162e-09,-0.0016497542863718,0.0016497586249178,-0.0016497530548749,0.0016497598480817,-0.0016497592642837,0.0016497536574715,-0.0016497580331234,0.0016497548814687,-0.0013108571747184,0.001310844472554,-0.001310842555519,0.0013108590951079,0.68665560399217,131329,3014,0.0039895565531075,0.0039895565531814,0.0058126742693957,37.673675178253,6.1389401426021e-05,6.1389401426021e-05,6.1389401426021e-05,4530085.5628934,0.013889289105726
37619200,0.99953830217685,0.014390179243158,0.004323189300262,0.0043231893002923,0.0057438006426032,-0.00095926837538801,0.00095926866109553,-7.35685237121e-09,7.6439244291204e-09,-2.1619996797468e-09,2.5327193345746e-09,-0.0011888328844507,0.001188826622934,-0.0011888278889409,0.001188831630512,-0.0011888314032964,0.0011888281710297,-0.0011888264034783,0.0011888331733617,-0.0010648954131905,0.0010648825805376,-0.0010648807110317,0.0010648972393137,2.1508443290198e-09,-2.5034910781322e-09,1.7845350685127e-09,-2.055624199952e-09,-0.00095926865361645,0.00095926838289606,-0.0011888285464356,0.0011888310524633,-0.0011888297664293,0.0011888297821534,-0.0011888300193341,0.0011888295210784,-0.0011888312397355,0.0011888282503682,-0.0010648880354185,0.0010648900055912,-0.0010648917417555,0.0010648861507887,-0.00096534582613273,0.00096534883569039,-0.00096535039123246,0.00096534416797853,7.839656627342e-09,-7.1679447395614e-09,-0.0014005738633686,0.0014005745158737,-1.4883341106204e-09,2.2657916024454e-09,-0.0016504704645482,0.0016504748314847,-0.0016504692328365,0.0016504760549538,-0.0016504754708094,0.0016504698356985,-0.0016504742395565,0.0016504710597323,-0.0013115337805278,0.001311520994619,-0.0013115190774553,0.0013115357010728,0.66415287203201,131329,3014,0.0039919337356739,0.0039919337357345,0.0058154914632717,38.003862321236,6.4030898569885e-05,6.4030898569885e-05,6.4030898569885e-05,4536046.5185417,0.01389696674392
37819200,0.99957148567763,0.014390593532785,0.0043233106119854,0.0043233106120157,0.0057439723087834,-0.00095892658495993,0.00095892687015601,-7.3981952852124e-09,7.6854648780294e-09,-2.1324316183249e-09,2.5029458443108e-09,-0.0011884515831639,0.0011884453128453,-0.0011884465606924,0.0011884503473736,-0.0011884501220223,0.0011884468409218,-0.0011884450938999,0.0011884518719572,-0.0010645558139657,0.0010645428774409,-0.0010645410320634,0.0010645576232711,2.1667502940357e-09,-2.5176672126033e-09,1.7921052251568e-09,-2.0614534148738e-09,-0.00095892686263699,0.00095892659240326,-0.0011884472336668,0.0011884497538781,-0.0011884484588088,0.0011884484783436,-0.001188448716909,0.0011884482123201,-0.0011884499411793,0.0011884469382094,-0.0010645483830539,0.0010645503568277,-0.0010645521025542,0.0010645464944306,-0.00096497331219075,0.00096497634837905,-0.00096497790359488,0.0009649716533396,7.8837957490986e-09,-7.2122001652944e-09,-0.0014002355011429,0.0014002361543691,-1.4968437840087e-09,2.274481753379e-09,-0.0016501174026193,0.0016501217950679,-0.0016501161658293,0.0016501230234482,-0.0016501224390762,0.0016501167692895,-0.0016501212015087,0.001650118000059,-0.0013111622885506,0.0013111494216611,-0.0013111475023761,0.0013111642132137,0.64016142668262,131329,3014,0.0039905130883888,0.0039905130882306,0.0058140923855836,37.803855923375,6.2430847387001e-05,6.2430847387001e-05,6.2430847387001e-05,4534012.3467925,0.013892664539984
38019200,0.99960189651374,0.014390991271952,0.004323427669908,0.0043234276699383,0.0057441359321061,-0.00095853277215676,0.00095853305714934,-7.4427036290718e-09,7.7291736212279e-09,-2.1459182030249e-09,2.515827075798e-09,-0.0011879574262564,0.0011879511179789,-0.001187952373817,0.0011879561824598,-0.0011879559561164,0.001187952655009,-0.0011879508990911,0.0011879577145262,-0.0010641648379111,0.0010641518254847,-0.001064149968368,0.0010641666526825,2.1427994895696e-09,-2.4946971531887e-09,1.7969101448588e-09,-2.0673056848327e-09,-0.00095853304977749,0.00095853277954509,-0.0011879530634478,0.0011879555722999,-0.0011879542915413,0.0011879542938076,-0.0011879545308197,0.0011879540464641,-0.0011879557590535,0.0011879527678677,-0.0010641573556334,0.0010641593552362,-0.0010641610854191,0.0010641554777001,-0.00096452010333692,0.000964523088755,-0.00096452465113935,0.00096451843810419,7.9256918446722e-09,-7.2532443116004e-09,-0.0013998128014305,0.0013998134547906,-1.5004099387416e-09,2.2787733659202e-09,-0.0016496490346117,0.0016496534513774,-0.0016496477946745,0.0016496546830062,-0.0016496540980654,0.0016496483983098,-0.0016496528583626,0.0016496496308572,-0.0013106803562485,0.0013106674116716,-0.0013106654862089,0.0013106822859582,0.66569814957153,131329,3014,0.0039888745721242,0.0039888745721589,0.0058123461539685,37.559444047169,6.0475552377348e-05,6.0475552377348e-05,6.0475552377348e-05,4533961.9532737,0.013887566293194
38219200,0.99962979092103,0.014391359344263,0.004323536084305,0.0043235360843353,0.0057442871756226,-0.00095811591192047,0.00095811619681787,-7.4858963320938e-09,7.7722598980011e-09,-2.1443195490391e-09,2.5140810254328e-09,-0.0011874943176407,0.0011874879815443,-0.0011874892362857,0.0011874930749565,-0.0011874928484971,0.0011874895175698,-0.0011874877628863,0.001187494605683,-0.0010637499834953,0.0010637368859654,-0.0010637350300343,0.001063751797125,2.1356290241428e-09,-2.4872548097383e-09,1.7992996449522e-09,-2.0694155154424e-09,-0.00095811618935462,0.00095811591940295,-0.0011874899424933,0.0011874924481698,-0.0011874911719217,0.001187491168359,-0.0011874914049242,0.0011874909273373,-0.0011874926348153,0.0011874896470789,-0.0010637424535954,0.0010637444633269,-0.0010637461883481,0.0010637405808687,-0.00096407435356905,0.00096407732376738,-0.00096407888765406,0.00096407268703609,7.9682039180752e-09,-7.2956434477477e-09,-0.0013993821695878,0.0013993828230857,-1.5024342094897e-09,2.2809267206367e-09,-0.0016492013602737,0.0016492058039327,-0.0016492001187728,0.0016492070371193,-0.0016492064518571,0.0016492007227311,-0.0016492052109448,0.00164920195651,-0.0013102214535669,0.0013102084267833,-0.0013102064996415,0.0013102233846366,0.67076172842893,131329,3014,0.0039871424181232,0.0039871424181636,0.0058105650277849,37.313894999173,5.8511159993385e-05,5.8511159993385e-05,5.8511159993385e-05,4530221.7505823,0.013882245809128
38419200,0.99965557277176,0.014391724334725,0.0043236443062215,0.0043236443062518,0.0057444357222518,-0.00095792276674466,0.00095792305098383,-7.5288493918779e-09,7.8144762910252e-09,-2.1324994332826e-09,2.5014196401706e-09,-0.0011872766756612,0.0011872703188012,-0.0011872715659591,0.0011872754404047,-0.0011872752146984,0.0011872718465341,-0.0011872701004608,0.0011872769630438,-0.0010635692531288,0.001063556062978,-0.0010635542150579,0.0010635710570604,2.132963249262e-09,-2.484930608162e-09,1.7953093193727e-09,-2.065770900832e-09,-0.00095792304391962,0.00095792277385229,-0.0011872722921507,0.0011872747937922,-0.0011872735191091,0.0011872735163208,-0.0011872737529305,0.0011872732744351,-0.0011872749800492,0.0011872719967018,-0.0010635616803575,0.0010635636831884,-0.0010635654066079,0.0010635598078566,-0.00096386746659072,0.00096387043320854,-0.00096387199566437,0.00096386580196435,8.011201014014e-09,-7.3386875808378e-09,-0.0013991931702963,0.0013991938235476,-1.4990700129989e-09,2.2774417641586e-09,-0.0016490074535492,0.0016490119279281,-0.0016490062145018,0.0016490131587209,-0.0016490125738643,0.0016490068178195,-0.0016490113350559,0.0016490080493526,-0.0013100132543657,0.0013100001417324,-0.0013099982164981,0.001310015183569,0.71253733437423,131329,3014,0.0039863396696415,0.0039863396697325,0.0058097836829796,37.196394046765,5.7571152374122e-05,5.7571152374122e-05,5.7571152374122e-05,4528271.52258,0.013879824718764
38619200,0.99967955609316,0.014392065838178,0.0043237455946019,0.0043237455946323,0.0057445746489439,-0.00095789529739002,0.00095789558170201,-7.5717707737768e-09,7.8574942879137e-09,-2.1307833510901e-09,2.4997226467773e-09,-0.0011873192471886,0.0011873128628933,-0.0011873141089479,0.0011873180132373,-0.0011873177873315,0.0011873143894598,-0.0011873126445504,0.0011873195347886,-0.0010635585678402,0.0010635452923101,-0.001063543445147,0.0010635603700835,2.1168127539631e-09,-2.4681758636679e-09,1.787634641929e-09,-2.0576568586271e-09,-0.00095789557431368,0.00095789530483475,-0.0011873148576197,0.0011873173437455,-0.0011873160794806,0.0011873160716431,-0.0011873163075723,0.0011873158354467,-0.0011873175295844,0.001187314563154,-0.0010635509546643,0.0010635529529939,-0.0010635546650529,0.0010635490928204,-0.00096387763826085,0.00096388057779622,-0.00096388213512756,0.00096387597931588,8.0538260736712e-09,-7.3813734992829e-09,-0.00139921442551,0.0013992150785124,-1.4907371790025e-09,2.2689208637309e-09,-0.0016490724734591,0.0016490769815022,-0.0016490712400268,0.0016490782066308,-0.0016490776222716,0.0016490718430301,-0.0016490763891135,0.0016490730690192,-0.0013100637357625,0.0013100505341801,-0.0013100486141263,0.0013100656592396,0.71625967186285,131329,3014,0.003986227939651,0.0039862279397689,0.0058098695116714,37.193705791935,5.7549646335477e-05,5.7549646335477e-05,5.7549646335477e-05,4523355.5089445,0.013879688537292
38819200,0.99970186957666,0.014392384747591,0.0043238402218966,0.004323840221927,0.0057447043037671,-0.00095786943588394,0.00095786971960595,-7.6151101422006e-09,7.9002511458093e-09,-2.1172392537059e-09,2.4855170554542e-09,-0.0011873669364039,0.0011873605319223,-0.0011873617692824,0.0011873657110885,-0.001187365485641,0.0011873620493766,-0.0011873603142929,0.0011873672232251,-0.0010635447550816,0.0010635313860724,-0.0010635295494392,0.0010635465485105,2.1173632287366e-09,-2.4683517793067e-09,1.7776615236239e-09,-2.0473625601048e-09,-0.00095786971245272,0.00095786944306694,-0.0011873625401102,0.0011873650195064,-0.0011873637550872,0.0011873637542907,-0.0011873639901554,0.0011873635110932,-0.0011873652055962,0.0011873622453829,-0.001063537104493,0.0010635390840751,-0.0010635407962135,0.0010635352440973,-0.00096388995779025,0.00096389290635307,-0.0009638944555172,0.00096388830624603,8.0959469921414e-09,-7.4244050807564e-09,-0.0013992382702707,0.0013992389226036,-1.4820785901929e-09,2.2593047320854e-09,-0.0016491394026814,0.0016491439446009,-0.0016491381752086,0.0016491451637924,-0.0016491445797172,0.0016491387778972,-0.0016491433527973,0.0016491399976072,-0.0013101202000035,0.0013101069070925,-0.0013101049947575,0.0013101221163208,0.71844600783909,131329,3014,0.0039861229488257,0.0039861229488879,0.0058099659018231,37.193612046186,5.7548896369491e-05,5.7548896369491e-05,5.7548896369491e-05,4518591.7352549,0.013879576682818
38880000,0.99970850199595,0.014392479673247,0.0043238683986316,0.0043238683986619,0.0057447428759536,-0.00095785833360701,0.0009578586174743,-7.6280627921531e-09,7.9133540542597e-09,-2.1194462595481e-09,2.4878974944981e-09,-0.0011873811785658,0.0011873747640203,-0.0011873760027812,0.0011873799518236,-0.0011873797262965,0.0011873762830008,-0.0011873745462225,0.001187381465562,-0.0010635388561523,0.0010635254632152,-0.0010635236249685,0.0010635406512986,2.1136307914661e-09,-2.4643534201045e-09,1.7743703271581e-09,-2.0438512932121e-09,-0.00095785861014683,0.00095785834096288,-0.001187376779548,0.0011873792543072,-0.0011873779922984,0.0011873779913147,-0.0011873782270551,0.0011873777484772,-0.0011873794402053,0.0011873764850649,-0.0010635311955603,0.0010635331711902,-0.0010635348805885,0.0010635293380272,-0.00096389226348087,0.00096389520688521,-0.000963896753512,0.00096389061449406,8.1088172396112e-09,-7.4375394674511e-09,-0.0013992442017959,0.0013992448538754,-1.4784450100492e-09,2.2553717680877e-09,-0.0016491592703458,0.001649163823248,-0.0016491580454558,0.0016491650398904,-0.0016491644561085,0.0016491586478661,-0.0016491632316852,0.0016491598650871,-0.0013101380574902,0.0013101247363534,-0.0013101228268115,0.0013101399709344,0.71909631076881,131329,3014,0.0039860776411671,0.0039860776412265,0.0058099896355599,37.193608838998,5.7548870711981e-05,5.7548870711981e-05,5.7548870711981e-05,4517111.4383008,0.013879509924342
