time,ASR_ext,ASR_strain,ASR_strain_xx,ASR_strain_yy,ASR_strain_zz,disp_x_101,disp_x_102,disp_x_103,disp_x_104,disp_x_105,disp_x_106,disp_x_p1_neg,disp_x_p1_pos,disp_x_p2_neg,disp_x_p2_pos,disp_x_p3_neg,disp_x_p3_pos,disp_x_p4_neg,disp_x_p4_pos,disp_x_p5_neg,disp_x_p5_pos,disp_x_p6_neg,disp_x_p6_pos,disp_y_101,disp_y_102,disp_y_103,disp_y_104,disp_y_105,disp_y_106,disp_y_p1_neg,disp_y_p1_pos,disp_y_p2_neg,disp_y_p2_pos,disp_y_p3_neg,disp_y_p3_pos,disp_y_p4_neg,disp_y_p4_pos,disp_y_p5_neg,disp_y_p5_pos,disp_y_p6_neg,disp_y_p6_pos,disp_y_p7_neg,disp_y_p7_pos,disp_y_p8_neg,disp_y_p8_pos,disp_z_101,disp_z_102,disp_z_103,disp_z_104,disp_z_105,disp_z_106,disp_z_p1_neg,disp_z_p1_pos,disp_z_p2_neg,disp_z_p2_pos,disp_z_p3_neg,disp_z_p3_pos,disp_z_p4_neg,disp_z_p4_pos,disp_z_p5_neg,disp_z_p5_pos,disp_z_p6_neg,disp_z_p6_pos,humidity,ndof,nelem,strain_xx,strain_yy,strain_zz,temp,thermal_strain_xx,thermal_strain_yy,thermal_strain_zz,vonmises,vstrain
2419200,0,0,0,0,0,0,0,0,0,0,0,0,0,0,0,0,0,0,0,0,0,0,0,0,0,0,0,0,0,0,0,0,0,0,0,0,0,0,0,0,0,0,0,0,0,0,0,0,0,0,0,0,0,0,0,0,0,0,0,0,0,0,0,0,0,0,0,0,0,0,0,0,0,0,0
2619200,0.019617711106273,0.00040240841219641,0.0001341361373988,0.0001341361373988,0.0001341361373988,-3.3423970712399e-05,3.3421389830481e-05,-1.2892967940849e-09,-1.268851170703e-09,5.0361589340478e-09,-7.834159911568e-09,-3.3405568940607e-05,3.3407230560005e-05,-3.3405528676374e-05,3.3407203517613e-05,-3.3409633381979e-05,3.3402924864524e-05,-3.3409630672298e-05,3.3402935773095e-05,-3.4760957711885e-05,3.4754120355892e-05,-3.4760932407399e-05,3.4754135990139e-05,-5.0367622787522e-09,7.8355955567066e-09,-7.5926408771927e-09,1.015155726757e-08,-3.3421389436039e-05,3.3423971110038e-05,-3.3409957907819e-05,3.3402473838455e-05,-3.3404272221934e-05,3.3408419817952e-05,-3.3405874488834e-05,3.3406761783243e-05,-3.3400188291821e-05,3.3412707544444e-05,-3.4762752661178e-05,3.4752159253104e-05,-3.4745570402911e-05,3.4769801123117e-05,-3.4351513371918e-05,3.4347416750942e-05,-3.4338976756991e-05,3.436032998237e-05,-2.2640441417409e-09,-2.2850212177751e-09,-3.5343637558542e-05,3.5339057470054e-05,6.3709870828428e-09,-1.1218988026898e-08,-3.5094720017075e-05,3.5096056675756e-05,-3.5100569368211e-05,3.5090239181257e-05,-3.5094711388886e-05,3.5096033576548e-05,-3.5100560785118e-05,3.5090216587283e-05,-3.581183935189e-05,3.5801411090837e-05,-3.5811859725283e-05,3.580147140372e-05,0.81992968619727,131329,3014,0.00013925144388092,0.00013925144388826,0.00014724468727479,31.582562940532,1.2660503524254e-05,1.2660503524254e-05,1.2660503524254e-05,630874.63473232,0.00042583846565225
2819200,0.041194906171121,0.00083397049744367,0.00027648442363498,0.00027648442353031,0.00028100165027838,-6.7897016409285e-05,6.7897731171533e-05,3.179517250504e-10,4.143845855633e-10,1.25937431924e-09,-5.9138441490251e-10,-6.902261135339e-05,6.9023887683319e-05,-6.9022549342664e-05,6.9023889328927e-05,-6.9023163804019e-05,6.9023263674955e-05,-6.9023125422052e-05,6.9023289574357e-05,-7.0562927290797e-05,7.0562957481717e-05,-7.0562817650458e-05,7.0563037802415e-05,-1.2405702592167e-09,5.6111753065028e-10,-4.8927564940937e-09,4.1496705241838e-09,-6.7897736504583e-05,6.7897011033792e-05,-6.9025289482952e-05,6.902104597218e-05,-6.9022434896086e-05,6.9024072527496e-05,-6.9024741204899e-05,6.9021641793682e-05,-6.9021885805236e-05,6.9024668331504e-05,-7.0567391713491e-05,7.0558357882678e-05,-7.0558648956202e-05,7.0567377844865e-05,-6.956533586695e-05,6.9565835304523e-05,-6.9563566114239e-05,6.9567674879488e-05,9.6537186285372e-11,-1.9596659295069e-11,-7.2864257072748e-05,7.2864302499158e-05,4.4167411086075e-09,-4.5316451616377e-09,-7.3255261202951e-05,7.3258349808332e-05,-7.3258232523942e-05,7.3255380735061e-05,-7.3255298776343e-05,7.3258309615745e-05,-7.3258269948671e-05,7.325534075922e-05,-7.3415505165653e-05,7.3412482045512e-05,-7.3415402409184e-05,7.3412605404709e-05,0.8213849240183,131329,3014,0.00028286580766339,0.00028286580757517,0.000303554726915,32.74298964832,2.1943917186562e-05,2.1943917186562e-05,2.1943917186562e-05,941636.3889444,0.00086966497790312
3019200,0.062589752252036,0.001251351424923,0.00041183353722033,0.00041183353711857,0.00042768435058414,-9.8159699284933e-05,9.8161008643509e-05,5.6930104736879e-10,7.5231146719153e-10,-3.3102806426839e-10,1.6708281225426e-09,-0.00010058616632411,0.00010058673920288,-0.00010058608992845,0.00010058678407099,-0.00010058551661267,0.00010058740512373,-0.00010058544862763,0.00010058745896853,-0.00010281898651982,0.00010282079544346,-0.00010281879459273,0.00010282096275783,3.4916920770486e-10,-1.6974231799651e-09,-1.8341615027242e-09,5.0474740019826e-10,-9.8161012441593e-05,9.815969544679e-05,-0.00010058712592513,0.0001005857552156,-0.00010058641516959,0.00010058653334439,-0.00010058778639129,0.00010058506987665,-0.00010058707482242,0.00010058584794604,-0.00010282201683314,0.00010281770391246,-0.00010281975858187,0.00010282004872468,-0.00010069849479582,0.00010069993978315,-0.00010070047180994,0.00010069789593475,9.777393245142e-10,7.7705863335538e-10,-0.00010754107482621,0.00010754281085592,1.9985620112804e-09,-3.1734039741722e-10,-0.00010895773082554,0.00010896030969003,-0.00010895849606996,0.00010895953302803,-0.00010895780368246,0.00010896024798501,-0.00010895856873218,0.00010895947146406,-0.00010805741106215,0.00010805819155146,-0.00010805721312635,0.0001080583856493,0.82013326631285,131329,3014,0.00040891831371671,0.0004089183136333,0.00044799004448861,32.491531372772,1.9932250982179e-05,1.9932250982179e-05,1.9932250982179e-05,1282614.3083615,0.0012666299593775
3219200,0.083730660535518,0.0016492027228995,0.00053938801451142,0.00053938801442073,0.0005704266939673,-0.00012652393914713,0.0001265253194708,5.6108663632811e-10,8.312128331619e-10,-5.0981277493365e-10,1.9557445212113e-09,-0.00013069735328368,0.00013069782368827,-0.00013069725808694,0.00013069790780323,-0.00013069659632053,0.00013069864512322,-0.00013069649829408,0.00013069872693837,-0.00013329072601879,0.00013329267025449,-0.00013329044811673,0.00013329292208351,5.1715923642214e-10,-1.9652830915078e-09,2.0544923591951e-10,-1.5995799355269e-09,-0.00012652532030025,0.00012652393828481,-0.00013069759541799,0.00013069764520018,-0.00013069819365708,0.00013069703206945,-0.00013069836011478,0.00013069681929462,-0.00013069895753928,0.0001306962060908,-0.00013329192308785,0.00013329147685638,-0.00013329366203721,0.00013328967528744,-0.00012979199014514,0.00012979241390615,-0.00012979438059544,0.0001297898931659,1.5668446859924e-09,1.2821589101607e-09,-0.00014114090399758,0.00014114374235019,5.5317101445375e-10,2.3139776316931e-09,-0.00014408282817526,0.00014408516360274,-0.00014408224078932,0.0001440857303967,-0.00014408293372612,0.00014408507849281,-0.00014408234621799,0.00014408564547719,-0.00014132798839504,0.00014133113727621,-0.00014132770298533,0.0001413314085192,0.80675915539868,131329,3014,0.00052704833682326,0.00052704833675483,0.00058791798877747,32.203339983495,1.762671986796e-05,1.762671986796e-05,1.762671986796e-05,1555353.7073783,0.0016433668761547
3419200,0.10459768035126,0.0020249696174658,0.00065861986519257,0.00065861986511462,0.00070772988715858,-0.00015292560507588,0.00015292674390712,3.9923562088318e-10,7.5471507036236e-10,-3.7592138579353e-10,1.5865867026888e-09,-0.00015931502057209,0.00015931539003414,-0.00015931490334781,0.00015931550904673,-0.0001593144422635,0.00015931604396087,-0.00015931431519408,0.00015931615365714,-0.00016173868530947,0.00016174013991563,-0.00016173832108671,0.00016174047260882,3.8652577148558e-10,-1.5990955733671e-09,1.5585892373174e-09,-2.7141117390948e-09,-0.00015292674460909,0.00015292560434718,-0.00015931479217684,0.00015931571891953,-0.00015931616656267,0.00015931427729673,-0.00015931538353853,0.00015931506201537,-0.00015931675710867,0.00015931362033391,-0.00016173824715295,0.00016174063060748,-0.0001617423609926,0.0001617363527557,-0.00015666419850258,0.00015666355599411,-0.00015666610100724,0.00015666151693276,1.8812443412252e-09,1.5107956860597e-09,-0.00017337914524322,0.00017338253069757,-3.5860780570784e-10,3.8313042018932e-09,-0.00017842974784069,0.00017843183751508,-0.00017842835756604,0.00017843320338041,-0.00017842988387311,0.00017843172574419,-0.00017842849347552,0.00017843309180307,-0.00017282175294534,0.00017282616844802,-0.00017282138461874,0.00017282652472207,0.78589838509021,131329,3014,0.00063699235483861,0.000636992354783,0.00072215542057469,31.913842146714,1.531073717371e-05,1.531073717371e-05,1.531073717371e-05,1788356.7562676,0.0019981389510219
3619200,0.1257176418008,0.0023912976297668,0.00077396430871194,0.00077396430864573,0.0008433690124091,-0.00017907260857943,0.00017907343204252,2.0279029075611e-10,6.398875635727e-10,-1.5240711293496e-10,1.0394770157495e-09,-0.00018799906427728,0.00018799934417518,-0.00018799892283101,0.00018799949353503,-0.00018799873349196,0.00018799974052833,-0.00018799858026246,0.00018799987916297,-0.00019005797207361,0.00019005878044198,-0.00019005752511482,0.00019005919128917,1.6590623886785e-10,-1.0534475370378e-09,2.0672106551701e-09,-2.9098462932485e-09,-0.00017907343236533,0.0001790726082317,-0.00018799864494893,0.00018799986251314,-0.0001880002391876,0.00018799818516262,-0.00018799899107348,0.00018799946355676,-0.00018800058470155,0.00018799778691132,-0.00019005659400868,0.00019006023300624,-0.0001900613768387,0.0001900552454767,-0.00018308214798028,0.00018308083712988,-0.00018308330543931,0.00018307956681976,1.8937373195807e-09,1.4337358500745e-09,-0.0002058727822666,0.00020587610235963,-7.2176901608803e-10,4.1554586502671e-09,-0.00021357435886915,0.00021357617524997,-0.00021357274307778,0.00021357776531049,-0.00021357452473761,0.00021357603386379,-0.00021357290998353,0.000213577625752,-0.00020424589808962,0.0002042503914231,-0.00020424544219248,0.00020425083395419,0.770115770721,131329,3014,0.00074586485387433,0.00074586485382252,0.00085743587434509,31.993973735892,1.595178988714e-05,1.595178988714e-05,1.595178988714e-05,2033204.4481162,0.0023519344571621
3819200,0.14743900914412,0.0027624170715088,0.00089016181742067,0.00089016181741909,0.00098209343666899,-0.00020584425373118,0.00020584488602812,5.0350929681308e-11,6.0371975573176e-10,-5.8182446286792e-11,7.479329071925e-10,-0.00021748839140386,0.00021748856683639,-0.00021748821135459,0.00021748875675285,-0.00021748817988936,0.00021748883428725,-0.00021748799019049,0.00021748901122851,-0.00021945045463082,0.00021945083727681,-0.00021944989518966,0.00021945135714834,-3.7052714119691e-11,-6.2095264497505e-10,2.0976431981243e-09,-2.7216775996806e-09,-0.00020584487147686,0.00020584426827875,-0.00021748793491879,0.00021748911198871,-0.00021748947587292,0.00021748748874321,-0.00021748808018303,0.00021748892620269,-0.00021748962278895,0.0002174873014971,-0.00021944873231205,0.00021945264577456,-0.000219453351983,0.00021944780490007,-0.00021019589859878,0.0002101942423947,-0.0002101964417021,0.00021019360614548,1.7603551082716e-09,1.2454140894618e-09,-0.00023951739576726,0.00023952039181803,-7.8318557062283e-10,3.9033895506213e-09,-0.00025033152298933,0.00025033309094359,-0.00025032997182461,0.00025033461758474,-0.00025033170597377,0.00025033293162157,-0.00025033015823601,0.00025033445834311,-0.00023665626624354,0.00023666031883207,-0.00023665575530941,0.00023666082064402,0.77140162620182,131329,3014,0.00085732752223316,0.0008573275222255,0.00099748696562133,32.325822700261,1.8606581602088e-05,1.8606581602088e-05,1.8606581602088e-05,2287274.3286867,0.0027158338083731
4019200,0.16975085374481,0.0031389989740273,0.0010073800202109,0.0010073800202157,0.0011242389336006,-0.00023282187693714,0.00023282240824086,-3.8295678137438e-11,5.9280210842015e-10,1.1956088779107e-11,5.7297943778325e-10,-0.00024745891035004,0.00024745903627942,-0.00024745870548236,0.00024745925366306,-0.00024745877250017,0.00024745922217287,-0.00024745855747644,0.00024745942725879,-0.00024938396699701,0.0002493840930913,-0.00024938332892397,0.00024938468843664,-6.9193531500173e-11,-4.8079992963897e-10,1.9342334726067e-09,-2.4562043116907e-09,-0.00023282239250642,0.0002328218926696,-0.0002474584734827,0.0002474595542278,-0.00024745987395144,0.00024745807541484,-0.00024745856592733,0.0002474594271643,-0.00024745996766118,0.00024745794768793,-0.00024938224914841,0.00024938589849645,-0.00024938644555682,0.00024938148039448,-0.00023758841981364,0.00023758684302881,-0.00023758879675206,0.00023758638245373,1.6301805258539e-09,1.0216339205203e-09,-0.00027392065613763,0.00027392329515829,-7.4729454608738e-10,3.514795182111e-09,-0.00028824830523804,0.00028824968490842,-0.00028824689704613,0.00028825106934112,-0.00028824851835827,0.00028824949400173,-0.00028824711333015,0.00028825087945299,-0.00026976822179129,0.0002697716908425,-0.00026976762496928,0.00026977228662745,0.77299486655926,131329,3014,0.00096963706142821,0.00096963706142412,0.0011406739427228,32.663366192759,2.1306929542069e-05,2.1306929542069e-05,2.1306929542069e-05,2523931.0302266,0.003084711058933
4219200,0.19262769232819,0.0035212092795799,0.0011256601054232,0.0011256601054279,0.0012698890687287,-0.00026000872133038,0.00026000920764092,-1.0283887768111e-10,6.1311082436311e-10,1.0243424908636e-11,5.2732359661874e-10,-0.00027796548343639,0.00027796554915462,-0.00027796525089479,0.00027796579535286,-0.00027796535601899,0.00027796571987239,-0.00027796511413457,0.00027796595461896,-0.00027979585486576,0.00027979584026928,-0.00027979513243804,0.00027979651749212,-6.7114717141046e-11,-4.3950840913183e-10,1.6949506755312e-09,-2.1766917295269e-09,-0.00026000919394425,0.0002600087350251,-0.00027796508384735,0.00027796602194645,-0.00027796631790226,0.00027796471870994,-0.00027796516608982,0.00027796590898086,-0.000277966401336,0.00027796460504356,-0.00027979429389942,0.00027979748696835,-0.00027979798314394,0.00027979358057602,-0.00026527353245856,0.00026527213098815,-0.0002652738722823,0.00026527171327896,1.5098742662158e-09,8.148597558438e-10,-0.0003090909774377,0.00030909328621494,-6.5251279972599e-10,3.0908927148566e-09,-0.00032727789894173,0.0003272791471181,-0.00032727666434908,0.0003272803592067,-0.00032727814029354,0.00032727892723971,-0.00032727690856947,0.00032728014019124,-0.0003036477652279,0.00030365065122639,-0.00030364708651536,0.00030365133398868,0.77488674540419,131329,3014,0.0010828070045525,0.0010828070045484,0.0012870302419367,33.001107438888,2.4008859511101e-05,2.4008859511101e-05,2.4008859511101e-05,2741873.4661208,0.0034586326244042
4419200,0.21643977754487,0.0039149727364591,0.0012468340497321,0.0012468340497355,0.0014213046369915,-0.00028830014101661,0.00028830059100665,-1.4171390178169e-10,6.1615781030184e-10,6.692069119235e-11,4.3131479095273e-10,-0.0003099934634092,0.00030999352953193,-0.00030999321850359,0.00030999378869512,-0.00030999338370531,0.00030999364735047,-0.00030999312766128,0.00030999389886788,-0.0003115785429701,0.00031157839681747,-0.00031157777435197,0.0003115791181018,-4.4217642025483e-12,-4.8343476591445e-10,1.352693638784e-09,-1.8177916100886e-09,-0.00028830058690757,0.00028830014510835,-0.00030999314929965,0.00030999390959143,-0.00030999415709372,0.00030999284152027,-0.00030999327012537,0.00030999376010149,-0.00030999427624158,0.00030999269406913,-0.00031157726988081,0.0003115797516746,-0.00031158027168707,0.00031157654127702,-0.00029415530528368,0.00029415425585848,-0.00029415574629517,0.0002941537391903,1.4322420347831e-09,6.0779203212062e-10,-0.00034605332150115,0.00034605534224768,-4.7338602977144e-10,2.6219398796835e-09,-0.00036849725869553,0.00036849847780109,-0.00036849624238579,0.00036849947290902,-0.00036849754378904,0.00036849821287684,-0.00036849652690605,0.00036849921107288,-0.00033932448253607,0.00033932674606906,-0.00033932368500015,0.00033932755536617,0.77612069428562,131329,3014,0.001200563758675,0.0012005637586598,0.0014408183403399,33.59566497005,2.8765319760398e-05,2.8765319760398e-05,2.8765319760398e-05,2952605.7358037,0.0038493648366727
4619200,0.24132530343119,0.0043220147738,0.0013714331600648,0.0013714331600621,0.0015791484536731,-0.00031754859855476,0.00031754903301023,-1.9367387624897e-10,6.5275170408939e-10,2.964648774662e-11,4.5090116583772e-10,-0.00034342977249781,0.0003434297753571,-0.00034342949864829,0.00034343006371548,-0.0003434296714692,0.00034342991132588,-0.00034342938828647,0.00034343019283804,-0.00034455917695681,0.00034455895050212,-0.00034455832257284,0.00034455975615581,1.4144630093653e-11,-4.918678535964e-10,1.011021233135e-09,-1.4676143270396e-09,-0.00031754903227302,0.00031754859928127,-0.00034342952843526,0.00034343007839434,-0.00034343031128333,0.00034342924477581,-0.00034342966136506,0.0003434299198889,-0.00034343044275059,0.00034342908752265,-0.0003445582003907,0.00034456000434557,-0.00034456052889977,0.00034455747630625,-0.00032410187705713,0.00032410109336315,-0.000324102345516,0.00032410055115463,1.3550391456607e-09,4.4794663240551e-10,-0.00038465282903075,0.00038465460966686,-2.5009075131833e-10,2.155059962493e-09,-0.0004118086877393,0.00041180992384131,-0.00041180790243374,0.00041181069056265,-0.00041180900090307,0.00041180963077563,-0.00041180821397276,0.00041181039891257,-0.00037663020009084,0.000376631914018,-0.00037662932193296,0.00037663280764368,0.77693647847848,131329,3014,0.0013222925574556,0.0013222925574333,0.0016013896417705,34.293720990061,3.4349767920487e-05,3.4349767920487e-05,3.4349767920487e-05,3154648.4181674,0.0042550416286946
4819200,0.26725514937963,0.0047417040616891,0.0014993436131602,0.001499343613154,0.0017430168353749,-0.00034754468443765,0.00034754511845349,-2.3730830233544e-10,6.9593763339183e-10,-1.8425116434164e-11,4.9720076169626e-10,-0.00037807037681716,0.00037807031936074,-0.00037807007428496,0.00037807063651762,-0.00037807024289563,0.00037807048565234,-0.0003780699320465,0.00037807079719348,-0.00037850857531022,0.00037850829452932,-0.00037850763514245,0.00037850918435918,6.2300478091758e-11,-5.3827103345044e-10,6.8278871460801e-10,-1.1388499309913e-09,-0.000347545117679,0.0003475446852033,-0.00037807019212291,0.00037807055753777,-0.00037807076116066,0.00037806994575186,-0.00037807035904575,0.00037807036655225,-0.00037807092658671,0.00037806975620285,-0.00037850790676245,0.00037850903498762,-0.00037850959604487,0.00037850715584483,-0.00035490421761698,0.00035490374645035,-0.00035490477971724,0.00035490311248,1.3039065642701e-09,3.125065033026e-10,-0.00042456766693816,0.00042456925815975,-1.9523360177689e-11,1.7312183594895e-09,-0.00045692586997138,0.00045692716301416,-0.00045692530340624,0.00045692771210811,-0.00045692621087397,0.00045692684058874,-0.00045692564282533,0.00045692739130181,-0.00041524835202803,0.00041524957823613,-0.00041524739140115,0.00041525055574351,0.77792180604461,131329,3014,0.001447121588195,0.0014471215881767,0.0017674009410128,34.994150630921,3.9953205047366e-05,3.9953205047366e-05,3.9953205047366e-05,3348774.8496716,0.0046725804149464
5019200,0.29418319344359,0.0051719388939145,0.0016300497014561,0.0016300497014534,0.0019118394910051,-0.00037817142214115,0.00037817188576949,-2.659233984286e-10,7.5369484118408e-10,-3.6835391189378e-11,5.4537057692088e-10,-0.000413819583307,0.0004138195055638,-0.00041381925235745,0.00041381985192175,-0.00041381942864483,0.0004138196933809,-0.00041381908999934,0.0004138200346527,-0.00041321266918111,0.00041321235455676,-0.00041321164419468,0.00041321332849447,7.9377831889891e-11,-5.8462705781123e-10,3.3786103903225e-10,-8.2240427599205e-10,-0.00037817188466403,0.00037817142323858,-0.00041381950304401,0.00041381963928351,-0.0004138198528443,0.00041381925018107,-0.00041381968999212,0.0004138194269819,-0.00041382003838787,0.00041381903931929,-0.00041321233037255,0.0004132127616964,-0.00041321337496331,0.0004132115328351,-0.00038643277142111,0.00038643255380458,-0.00038643339505,0.00038643185610932,1.2957901481475e-09,2.1955357771538e-10,-0.00046552233967748,0.00046552382775082,2.566187547526e-10,1.349064650751e-09,-0.00050361108382208,0.00050361252211107,-0.00050361073817106,0.00050361285111656,-0.00050361145258027,0.00050361217070675,-0.00050361110560518,0.0005036125014025,-0.00045485992657754,0.00045486074834308,-0.0004548588825648,0.00045486180922618,0.77677327185666,131329,3014,0.001574564238048,0.0015745642380313,0.0019377020918445,35.694663087244,4.5557304697953e-05,4.5557304697953e-05,4.5557304697953e-05,3532731.0123709,0.0050998622453829
5219200,0.32141493932452,0.0056035640055841,0.0017610129795574,0.0017610129795554,0.0020815380464713,-0.00040815601650589,0.0004081565015031,-3.0570448448196e-10,8.1438007476244e-10,-7.5104773983062e-11,6.050569401611e-10,-0.00044925480623924,0.00044925468488012,-0.00044925444166237,0.0004492550650398,-0.00044925462007306,0.00044925490480191,-0.00044925424900939,0.00044925528013069,-0.00044732075187061,0.00044732039248856,-0.0004473196285144,0.00044732146330687,9.5967672109822e-11,-6.2096445223705e-10,6.7000579552826e-11,-5.708611154702e-10,-0.00040815649953842,0.00040815601846227,-0.00044925479114353,0.0004492547515487,-0.00044925497065141,0.00044925453886906,-0.00044925499475268,0.0004492545217408,-0.00044925517335254,0.00044925431003919,-0.00044732066242828,0.00044732054587821,-0.00044732119933735,0.00044731983168487,-0.00041743297187744,0.00041743296052089,-0.00041743364722092,0.00041743220976162,1.2786046420353e-09,1.3158010252407e-10,-0.00050579969108896,0.00050580107208103,4.7574734767892e-10,1.0208978754398e-09,-0.00055000444121133,0.00055000597798887,-0.00055000427801638,0.0005500061253396,-0.00055000483316914,0.00055000560287539,-0.00055000466914235,0.00055000575145767,-0.0004938304134839,0.00049383087773045,-0.00049382929953387,0.00049383200895823,0.77855553686983,131329,3014,0.0016993255350568,0.0016993255350395,0.0021051498580751,36.023525510383,4.8188204083062e-05,4.8188204083062e-05,4.8188204083062e-05,3699611.918442,0.0055190687674623
5419200,0.34874904764056,0.0060275335110262,0.001889618610803,0.0018896186107953,0.0022482962894279,-0.0004373972012651,0.00043739769580231,-3.4405620768667e-10,8.6213424553765e-10,-9.7781295657361e-11,6.3737774857671e-10,-0.00048425630845376,0.00048425614958325,-0.00048425591480965,0.0004842565584473,-0.00048425610353199,0.00048425638760337,-0.00048425570405919,0.00048425679221428,-0.00048045187818221,0.00048045146137524,-0.00048045066931927,0.00048045261599795,1.1906187260826e-10,-6.5267362959216e-10,-1.6834817118256e-10,-3.4389573856626e-10,-0.00043739769333271,0.00043739720372247,-0.0004842563445613,0.00048425616184918,-0.00048425637469678,0.00048425610460347,-0.00048425656611007,0.00048425591381111,-0.00048425659558101,0.00048425585770948,-0.00048045199776255,0.0004804514013847,-0.00048045208531335,0.0004804511432511,-0.00044759540025442,0.00044759558826574,-0.0004475961300089,0.00044759478447639,1.2866642260411e-09,5.4441832971726e-11,-0.00054535121266237,0.0005453525228664,6.7125047439848e-10,7.5287393683567e-10,-0.00059606345165204,0.00059606509985891,-0.00059606344271761,0.00059606509306139,-0.00059606387115508,0.00059606469603001,-0.00059606386196219,0.00059606469085421,-0.00053191958613201,0.00053191974460598,-0.0005319183885843,0.0005319209582955,0.76958004624225,131329,3014,0.0018209856981669,0.0018209856981413,0.0022695433561751,36.276227536211,5.0209820289689e-05,5.0209820289689e-05,5.0209820289689e-05,3838322.9962265,0.0059291419924526
5619200,0.37610860542325,0.0064287902394982,0.0020110504576557,0.0020110504576461,0.0024066893241964,-0.00046491833778588,0.00046491884035663,-3.8267971854434e-10,9.0865978252326e-10,-1.0710678165252e-10,6.5471889852236e-10,-0.00051783717726306,0.00051783698932347,-0.00051783675470973,0.00051783742610458,-0.00051783696309009,0.00051783723589717,-0.0005178365353559,0.00051783766912327,-0.00051114471057534,0.00051114422699534,-0.00051114341784377,0.00051114546474063,1.2941428249557e-10,-6.7063963487998e-10,-3.7885626781344e-10,-1.4086761550309e-10,-0.0004649188376849,0.00046491834044286,-0.00051783726515,0.00051783694714278,-0.00051783716079193,0.00051783702869551,-0.00051783749589797,0.00051783668986669,-0.00051783739089442,0.00051783677263354,-0.00051114500613933,0.00051114398771183,-0.00051114469149174,0.00051114413775332,-0.00047546138802366,0.00047546173372113,-0.000475462145905,0.0004754609026309,1.3006358267918e-09,-1.7772954077865e-11,-0.00058333209956758,0.0005833333505184,8.45068933033e-10,5.1697793545835e-10,-0.00064102606370569,0.00064102781820548,-0.00064102619146491,0.00064102767504324,-0.00064102651151406,0.00064102738550622,-0.00064102663910255,0.00064102724407638,-0.00056776635253427,0.00056776623212568,-0.00056776507068052,0.00056776752997131,0.73637049894202,131329,3014,0.0019354851055157,0.0019354851054848,0.0024273713708946,36.527128415549,5.2217027324388e-05,5.2217027324388e-05,5.2217027324388e-05,3947410.936745,0.0063183629292688
5819200,0.40341615724178,0.0068122032308056,0.002126720971399,0.0021267209713856,0.002558761288021,-0.00049105943913825,0.00049105994458584,-4.2403305677236e-10,9.528424524789e-10,-1.0810984217147e-10,6.5851257561342e-10,-0.00055013824592641,0.00055013803080753,-0.00055013779423742,0.00055013849548138,-0.00055013802964028,0.00055013827834994,-0.00055013757344326,0.00055013874014132,-0.00054012413385876,0.00054012357100435,-0.00054012275671641,0.00054012489179153,1.3061444183714e-10,-6.7447762255672e-10,-5.63439877878e-10,4.1041355089946e-11,-0.00049105994183705,0.00049105944187064,-0.00055013838009622,0.00055013793959877,-0.00055013815607203,0.00055013814410087,-0.00055013861261807,0.00055013768103302,-0.0005501383879456,0.00055013788674739,-0.00054012457009786,0.00054012318820224,-0.00054012389873685,0.00054012369976988,-0.00050145843578986,0.00050145890551764,-0.00050145919932797,0.00050145807013348,1.3135587295942e-09,-9.0564994448645e-11,-0.00062003876792812,0.00062003995813754,9.951015990498e-10,3.0342488769561e-10,-0.00068511334326269,0.00068511518707166,-0.00068511359212855,0.00068511492287708,-0.00068511381949312,0.00068511472577067,-0.00068511406823838,0.00068511446334947,-0.00060179723945433,0.0006017968541313,-0.00060179587360899,0.00060179823586465,0.7131758504244,131329,3014,0.0020442394041312,0.0020442394040968,0.0025798702596914,36.777966066718,5.4223728533746e-05,5.4223728533746e-05,5.4223728533746e-05,4060566.8580875,0.0066908033417985
6019200,0.43018528550763,0.0071784857202334,0.0022368966260217,0.0022368966260051,0.0027046924682066,-0.00051544288274107,0.00051544338938791,-4.6554125828412e-10,9.9566275303929e-10,-1.1393480457581e-10,6.6559036403891e-10,-0.00058076133783617,0.00058076109165795,-0.0005807608575828,0.00058076158323009,-0.00058076111655626,0.00058076134243128,-0.00058076063183344,0.00058076183272411,-0.00056701045706746,0.00056700981616143,-0.00056700899548727,0.0005670112199344,1.3876395712937e-10,-6.8394240211917e-10,-6.8517152660174e-10,1.6142479958786e-10,-0.00051544338666659,0.0005154428854433,-0.00058076149287973,0.00058076097697626,-0.00058076118955526,0.00058076126245336,-0.00058076173223858,0.00058076071254342,-0.00058076142743073,0.0005807609999658,-0.00056701097597857,0.00056700934836861,-0.00056701006782917,0.00056701010015174,-0.00052550746068898,0.00052550802537442,-0.00052550824104661,0.00052550717451295,1.33017366449e-09,-1.6088211280895e-10,-0.00065502326367191,0.00065502439979586,1.0831844228418e-09,1.5878153705362e-10,-0.00072752757177153,0.00072752946874207,-0.0007275278983915,0.00072752912682292,-0.00072752807725829,0.00072752897804132,-0.00072752840303066,0.00072752863871017,-0.00063393929748787,0.00063393869703556,-0.00063393784765065,0.00063394016278754,0.70261524372116,131329,3014,0.0021456784015551,0.0021456784015151,0.0027251848888542,36.775510645131,5.4204085161045e-05,5.4204085161045e-05,5.4204085161045e-05,4152862.9976,0.0070414154979323
6219200,0.4563455981235,0.0075374044476473,0.0023447115857262,0.0023447115857084,0.0028479812762128,-0.00053915442110599,0.00053915492856682,-5.0807227800537e-10,1.0390584007438e-09,-1.0816719291945e-10,6.6070665949743e-10,-0.0006110225992296,0.00061102232843598,-0.00061102208940224,0.00061102284796247,-0.00061102238031966,0.00061102257518298,-0.00061102186711771,0.00061102309393261,-0.00059321670124455,0.00059321597396412,-0.00059321515515539,0.00059321746061602,1.3241402152168e-10,-6.7851064239761e-10,-7.7210606150622e-10,2.4748199281383e-10,-0.00053915492586098,0.00053915442379347,-0.00061102277157947,0.00061102219377092,-0.00061102241190442,0.00061102253764411,-0.00061102300751783,0.00061102193365066,-0.00061102264660051,0.00061102227912041,-0.00059321725907138,0.00059321546532902,-0.00059321618278441,0.00059321638755989,-0.00054893296125954,0.00054893357073595,-0.00054893373081143,0.00054893273137515,1.3486662398192e-09,-2.2771162971308e-10,-0.00068954162688082,0.00068954271430723,1.144076435809e-09,4.7082973294544e-11,-0.00076941788310967,0.00076941981743616,-0.00076941826685992,0.00076941941837976,-0.00076941841693409,0.00076941929828701,-0.00076941880001573,0.00076941890172823,-0.00066582140378651,0.00066582061362809,-0.000665819869956,0.00066582216315964,0.70745492915727,131329,3014,0.0022443187188439,0.0022443187188055,0.0028685368398598,36.758737235236,5.4069897881889e-05,5.4069897881889e-05,5.4069897881889e-05,4222056.6130696,0.0073845390886509
6419200,0.48185665734132,0.0078840146976165,0.0024484234601394,0.0024484234601234,0.0029871677773537,-0.00056188555285563,0.00056188606071433,-5.5073083046293e-10,1.0821680614203e-09,-9.3986327723379e-11,6.4696439371128e-10,-0.00064050886330013,0.00064050857360127,-0.00064050832402871,0.00064050912088006,-0.00064050865297264,0.00064050881051098,-0.00064050811117368,0.0006405093577693,-0.00061824169040472,0.00061824087034163,-0.00061824005987728,0.00061824244034269,1.1811553595534e-10,-6.6470024234916e-10,-8.4009842368173e-10,3.1503501373298e-10,-0.0005618860580351,0.00056188555551749,-0.00064050905156327,0.00064050842009752,-0.00064050864973501,0.0006405088093822,-0.00064050927838523,0.00064050816958832,-0.00064050887532381,0.00064050856038766,-0.0006182422630643,0.00061824034531122,-0.00061824105487966,0.0006182414017046,-0.0005712965737772,0.0005712971995811,-0.00057129731605533,0.00057129638802354,1.3694685769691e-09,-2.9238264202863e-10,-0.00072321412503439,0.00072321516845899,1.1882878415486e-09,-4.3167734858273e-11,-0.00081040298267959,0.00081040494652071,-0.00081040341090778,0.00081040450288786,-0.00081040354490611,0.00081040439886048,-0.00081040397259855,0.00081040395775037,-0.00069685919976913,0.0006968582371074,-0.00069685758191425,0.00069685987034272,0.70210893866335,131329,3014,0.0023388786408745,0.0023388786408381,0.0030083491941249,36.741574083283,5.3932592666264e-05,5.3932592666264e-05,5.3932592666264e-05,4278291.7269497,0.0077159922724551
6619200,0.50709515463281,0.0082493729259432,0.0025580504364836,0.0025580504364682,0.0031332720529914,-0.00058598586972861,0.00058598637638892,-5.9434194084992e-10,1.1245972021215e-09,-4.3010466030375e-11,5.9452649227082e-10,-0.00067099328404278,0.0006709929990727,-0.0006709927151167,0.00067099357428436,-0.00067099310778686,0.00067099320112985,-0.00067099253725961,0.00067099377673114,-0.00064583271284186,0.00064583177315182,-0.00064583099768831,0.00064583342616923,6.6630376277637e-11,-6.1193471727767e-10,-9.0114625269063e-10,3.7706503776993e-10,-0.00058598637376836,0.00058598587234084,-0.00067099350977436,0.00067099280529484,-0.00067099307059117,0.00067099323557204,-0.00067099370167589,0.00067099258981258,-0.00067099326151129,0.00067099302133763,-0.00064583326753911,0.00064583126490773,-0.00064583193949228,0.00064583244250045,-0.00059557495484054,0.00059557551964284,-0.00059557559530529,0.00059557481041392,1.3919844895352e-09,-3.5518171703059e-10,-0.00075851776009998,0.00075851876288086,1.2289851938901e-09,-1.2616728891122e-10,-0.00085300350917556,0.00085300550207805,-0.00085300397812713,0.00085300501761309,-0.00085300409961794,0.00085300492608419,-0.00085300456844823,0.00085300444393476,-0.00072999255376023,0.00072999142568303,-0.00072999085160572,0.0007299931427321,0.74070667176695,131329,3014,0.0024391273078733,0.0024391273078558,0.0031549097617869,37.009397192458,5.6075177539666e-05,5.6075177539666e-05,5.6075177539666e-05,4343528.1285058,0.0080658343846617
6819200,0.53315970671411,0.008658453925749,0.0026810504670858,0.0026810504670628,0.0032963529916004,-0.00061403379816738,0.00061403430039452,-6.4117079896633e-10,1.1667751761428e-09,7.9713411339413e-11,4.6643619857666e-10,-0.000704780225058,0.00070477998808211,-0.00070477962385478,0.00070478059400018,-0.00070478012992048,0.00070478010767967,-0.00070477953131091,0.00070478071085088,-0.00067934282364963,0.0006793417134945,-0.000679341023262,0.00067934344478802,-6.2550594076059e-11,-4.7890619891348e-10,-1.0032355892777e-09,4.8146601093977e-10,-0.00061403429826405,0.00061403380035176,-0.00070478054943094,0.00070477969252763,-0.00070478004248326,0.00070478019343264,-0.00070478065218234,0.00070477956634366,-0.00070478014794601,0.00070478006485414,-0.00067934334706601,0.00067934123544707,-0.00067934182095161,0.00067934260907583,-0.00062460215660855,0.00062460253814643,-0.00062460254507663,0.00062460208200271,1.4127330700921e-09,-4.1720975346959e-10,-0.00079844037877079,0.00079844133910696,1.3281450727268e-09,-2.6937927925087e-10,-0.00090061395499448,0.0009006160114316,-0.0009006145026182,0.00090061544840214,-0.00090061457101291,0.00090061540963191,-0.00090061512240715,0.00090061484533082,-0.00076823798821592,0.00076823665266609,-0.00076823619838563,0.00076823845535632,0.79221451618476,131329,3014,0.0025557832472321,0.0025557832473445,0.0033206153232685,38.075791775467,6.4606334203739e-05,6.4606334203739e-05,6.4606334203739e-05,4473858.9121956,0.0084682076916374
7019200,0.55994894889233,0.0090429541359126,0.0027950937570368,0.0027950937569989,0.0034527666218768,-0.00064082744351528,0.00064082794006719,-6.8669889243785e-10,1.2067243278413e-09,1.9808239571878e-10,3.4119407099063e-10,-0.000738282113196,0.00073828192350947,-0.00073828148331146,0.00073828255735371,-0.00073828209894851,0.00073828196159981,-0.00073828147106465,0.00073828259308794,-0.00070991144151223,0.00070991015890932,-0.00070990955436121,0.00070991197411403,-1.8045044627507e-10,-3.5459555557161e-10,-1.0938196333188e-09,5.7686907578934e-10,-0.00064082793811973,0.00064082744548186,-0.00073828252781712,0.00073828153544755,-0.00073828196208307,0.00073828209750057,-0.00073828255042476,0.00073828148989949,-0.00073828198700323,0.00073828205013621,-0.00070991192710171,0.00070990971742354,-0.00070991021742597,0.00070991127453297,-0.00065165992205728,0.00065166013187019,-0.00065166007202365,0.00065165991592834,1.4346305750501e-09,-4.8162444864487e-10,-0.00083785916795452,0.00083786008507199,1.3957337072933e-09,-3.8170517305133e-10,-0.0009481263565579,0.00094812845866039,-0.00094812696430976,0.00094812783543822,-0.00094812700088205,0.00094812782798338,-0.00094812761289297,0.00094812720362134,-0.00080509618228742,0.0008050946603687,-0.00080509430783326,0.00080509654716717,0.73335807860631,131329,3014,0.0026672223898152,0.0026672223898544,0.0034841882681865,39.1600861916,7.32806895328e-05,7.32806895328e-05,7.32806895328e-05,4518811.964821,0.0088580642142002
7219200,0.58731115119758,0.0094186910413814,0.0029058718207458,0.0029058718206844,0.0036069473999512,-0.00066709013592549,0.00066709062510319,-7.332174028587e-10,1.2460394479384e-09,3.0492213854386e-10,2.255752301845e-10,-0.00077158132542203,0.00077158117390417,-0.00077158066651014,0.00077158183580742,-0.0007715813843331,0.00077158113735975,-0.00077158072770166,0.00077158179766781,-0.0007392715373989,0.00073927008893929,-0.00073926956597738,0.00073927198874172,-2.8666108821238e-10,-2.3905094817785e-10,-1.1666270315387e-09,6.5741875376032e-10,-0.00066709062291267,0.00066709013808821,-0.0007715818158295,0.00077158070743979,-0.00077158120153401,0.0007715813203873,-0.00077158176555229,0.00077158073592012,-0.00077158115330436,0.00077158134726805,-0.00073927197417956,0.00073926969536362,-0.0007392701148549,0.00073927140456865,-0.00067777709970895,0.00067777715069955,-0.00067777703232095,0.00067777715423675,1.4556573388146e-09,-5.4653485511769e-10,-0.00087714728797757,0.0008771481610661,1.4473845775564e-09,-4.792998069552e-10,-0.00099574744882764,0.00099574958575319,-0.00099574810641088,0.00099574891277709,-0.0009957481216803,0.00099574892626589,-0.00099574878346262,0.00099574825241141,-0.00084142269385579,0.00084142099443716,-0.00084142073580741,0.00084142296502555,0.70718848826314,131329,3014,0.0027764488441779,0.0027764488441192,0.00364718479779,40.24500360263,8.1960028821037e-05,8.1960028821037e-05,8.1960028821037e-05,4579615.4872113,0.0092430236698472
7419200,0.61424703853457,0.0097737435052014,0.0030099535959631,0.0030099535959024,0.003753836313336,-0.00069091284806565,0.00069091333093001,-7.7843510734181e-10,1.2852260626084e-09,3.3784366899017e-10,1.8545851448733e-10,-0.00080247627510461,0.00080247611447867,-0.00080247558905068,0.00080247680259685,-0.00080247635874094,0.00080247605188683,-0.00080247567252588,0.00080247674184577,-0.0007655926316685,0.00076559106576869,-0.00076559057509766,0.00076559305468239,-3.1172309757324e-10,-2.0590494092003e-10,-1.1569882080535e-09,6.5476845351159e-10,-0.00069091332868897,0.00069091285021085,-0.00080247676348981,0.00080247564811378,-0.00080247615671468,0.00080247625529626,-0.00080247669596554,0.000802475694673,-0.00080247608832407,0.00080247630321482,-0.00076559299269487,0.00076559074814106,-0.00076559114240042,0.00076559245248109,-0.00070114023316544,0.00070114022692805,-0.00070114010424129,0.00070114029325385,1.4806624096033e-09,-6.0902423922754e-10,-0.00091383216307846,0.00091383299927659,1.4100996216157e-09,-4.8037084150053e-10,-0.0010407559640887,0.0010407580835917,-0.001040756610865,0.0010407574212704,-0.0010407566673641,0.0010407573932933,-0.0010407573153593,0.0010407567330667,-0.00087488123450489,0.00087487942801166,-0.00087487919661426,0.00087488148066558,0.68501444388547,131329,3014,0.0028755278834386,0.0028755278832383,0.0037993485431708,40.77196390648,8.6175711251839e-05,8.6175711251839e-05,8.6175711251839e-05,4630642.6804353,0.0095967019280064
7619200,0.64001435752523,0.010104522159272,0.0031065884225975,0.0031065884225728,0.0038913453141021,-0.00071220648962307,0.0007122069695493,-8.2328903617331e-10,1.3271166445857e-09,3.03717949831e-10,2.1634635209098e-10,-0.00083064197489374,0.00083064176050704,-0.00083064125882311,0.00083064247748082,-0.00083064203567239,0.00083064171954077,-0.00083064132130679,0.00083064243791617,-0.0007889037573122,0.00078890212799376,-0.0007889016178758,0.00078890419872245,-2.810177706096e-10,-2.340422134192e-10,-1.068263534059e-09,5.6850063202491e-10,-0.00071220696750642,0.00071220649164186,-0.00083064239486443,0.00083064136060604,-0.00083064184718162,0.00083064191030386,-0.00083064234713304,0.00083064138800583,-0.00083064179965533,0.00083064193782599,-0.00078890400805868,0.00078890191987108,-0.00078890233165466,0.00078890345060984,-0.00072179884011707,0.00072179883762222,-0.00072179877213562,0.00072179884452269,1.5112631958291e-09,-6.6395823817864e-10,-0.00094761258893374,0.00094761340058712,1.3134699640413e-09,-4.0862734921497e-10,-0.0010825510452748,0.0010825531121664,-0.0010825516351901,0.001082552506994,-0.0010825517770008,0.0010825523936631,-0.0010825523683027,0.0010825517898377,-0.0009054041349738,0.00090540227537825,-0.00090540201168836,0.000905404413033,0.67223241553709,131329,3014,0.0029640888936872,0.0029640888936372,0.0039394406673791,40.85194597022,8.6815567761764e-05,8.6815567761764e-05,8.6815567761764e-05,4665013.3876714,0.0099170667951466
7819200,0.66457878268367,0.010415664413275,0.0031972590852821,0.0031972590852778,0.0040211462427147,-0.00073205025886617,0.00073205073749393,-8.6703384906401e-10,1.3696721388681e-09,2.6452854280519e-10,2.5422349017629e-10,-0.00085739289105577,0.00085739262092374,-0.00085739214580809,0.0008573933661983,-0.00085739292604232,0.00085739260551985,-0.00085739218264214,0.0008573933524536,-0.00081046792275993,0.000810466233532,-0.00081046569950891,0.00081046838961914,-2.4188077776147e-10,-2.718917141319e-10,-9.6844098881921e-10,4.7016201401616e-10,-0.00073205073548336,0.00073205026084829,-0.00085739323590882,0.00085739229527208,-0.00085739275536591,0.00085739277854763,-0.00085739321407543,0.00085739229697745,-0.00085739273367217,0.00085739278042297,-0.00081046805850283,0.00081046614030219,-0.00081046657672056,0.00081046747822258,-0.00074103545356835,0.00074103546213136,-0.0007410354614941,0.00074103539385653,1.5466631331794e-09,-7.1452216060317e-10,-0.00097979178792706,0.00097979258471176,1.2070512731033e-09,-3.1731464901999e-10,-0.0011223912476404,0.0011223932626629,-0.0011223917712749,0.0011223927237735,-0.0011223920080401,0.0011223925154364,-0.0011223925329818,0.0011223919779677,-0.00093443837567983,0.00093443648217157,-0.00093443616831944,0.00093443870440968,0.66655084048,131329,3014,0.0030466177450198,0.0030466177449604,0.0040728761400155,40.921764234967,8.7374113879739e-05,8.7374113879739e-05,8.7374113879739e-05,4686581.285825,0.010218622917646
8019200,0.68793179060442,0.010708046688913,0.0032821459519838,0.0032821459519912,0.0041437547849375,-0.00075056948349877,0.00075056996104608,-9.1072249587643e-10,1.4122308476405e-09,2.2353335020959e-10,2.942202550967e-10,-0.00088267606412816,0.00088267573716941,-0.00088267529000281,0.00088267651109706,-0.00088267607202454,0.00088267574858011,-0.00088267529991069,0.00088267652430255,-0.000830518791511,0.00083051704379348,-0.0008305164837118,0.00083051928409759,-2.0122166459235e-10,-3.1194331893765e-10,-8.6168401222763e-10,3.6414848688159e-10,-0.00075056995917237,0.0007505694853669,-0.00088267633060215,0.00088267548923065,-0.00088267592188309,0.00088267590152786,-0.00088267633571615,0.00088267546413347,-0.00088267592714243,0.00088267587657601,-0.00083051880711168,0.00083051707073016,-0.00083051753364813,0.00083051820028287,-0.00075899150149997,0.00075899151895901,-0.00075899158916327,0.0007589913717535,1.5857220284864e-09,-7.6144466006478e-10,-0.0010103645846965,0.0010103653736398,1.0972358704179e-09,-2.1501966184104e-10,-0.0011602585958578,0.0011602605607632,-0.0011602590483903,0.0011602600928338,-0.0011602593849967,0.0011602597849144,-0.001160259838798,0.0011602593184664,-0.00096197374454172,0.00096197183008768,-0.00096197145270028,0.00096197413635623,0.66097249676191,131329,3014,0.0031236375219476,0.0031236375219359,0.0041996337619509,40.991227070802,8.7929816566417e-05,8.7929816566417e-05,8.7929816566417e-05,4705480.6158014,0.010502388728838
8219200,0.71021717085001,0.010984120374876,0.0033620114510031,0.0033620114510206,0.0042600974728521,-0.00076817838087598,0.00076817885771149,-9.5408736957989e-10,1.454960727772e-09,1.95690830103e-10,3.2146440065969e-10,-0.00090684034826125,0.00090683997344031,-0.000906839545685,0.00090684077600975,-0.00090684033780071,0.00090684000288256,-0.00090683953703745,0.0009068408077867,-0.00084953930071257,0.000849537485511,-0.00084953690868388,0.00084953981144565,-1.7327239620985e-10,-3.3977157226868e-10,-7.6166466103462e-10,2.6432534616648e-10,-0.00076817885597726,0.00076817838262329,-0.00090684054728956,0.00090683979235347,-0.00090684020638502,0.00090684013797493,-0.00090684057108698,0.00090683974854082,-0.00090684022999085,0.00090684009470625,-0.0008495391952895,0.00084953763469995,-0.00084953811710714,0.00084953856984099,-0.00077605983402083,0.00077605983831024,-0.00077605997596747,0.00077605963796148,1.6276311760142e-09,-8.0565679714964e-10,-0.0010397134333992,0.0010397142201864,9.9582607165296e-10,-1.1548346166246e-10,-0.0011965967682056,0.001196598692769,-0.001196597153644,0.0011965982917411,-0.001196597586205,0.0011965978880252,-0.001196597972595,0.0011965974889586,-0.00098837165849996,0.00098836972531636,-0.00098836928280726,0.00098837211523101,0.65549140041731,131329,3014,0.0031968704436902,0.0031968704437172,0.0043213005160047,41.181853294944,8.9454826359554e-05,8.9454826359554e-05,8.9454826359554e-05,4726926.9030456,0.010773434226598
8419200,0.73148550746961,0.011246722134949,0.003437789020461,0.0034377890204804,0.0043711440940071,-0.0007849442053904,0.00078494468151444,-9.9758895937148e-10,1.4977344043891e-09,1.7675826577396e-10,3.3981623405319e-10,-0.00092989771820781,0.00092989730158898,-0.00092989688685203,0.00092989813299875,-0.00092989769528038,0.00092989734335506,-0.00092989686596662,0.00092989817707061,-0.00086771500015281,0.00086771311272525,-0.00086771252460349,0.0008677155234021,-1.5472822169283e-10,-3.5801040444885e-10,-6.6533214035118e-10,1.6842455581979e-10,-0.00078494467989857,0.00078494420701518,-0.0009298978576508,0.00092989717976514,-0.00092989758125598,0.00092989746148401,-0.00092989789369848,0.00092989712378196,-0.00092989761721575,0.0009298974058879,-0.00086771476998548,0.00086771338636319,-0.00086771388097597,0.00086771413329103,-0.00079235671298374,0.00079235669047937,-0.00079235689162125,0.00079235645332996,1.6718166500901e-09,-8.4739177682172e-10,-0.0010678565002645,0.0010678572897306,9.0189043076348e-10,-1.8350896025076e-11,-0.001231431468174,0.0012314333604609,-0.0012314317896023,0.0012314330233035,-0.0012314323148861,0.0012314325271438,-0.0012314326372766,0.0012314321919181,-0.001013672644284,0.0010136706931297,-0.0010136701841103,0.001013673167269,0.65380935490699,131329,3014,0.00326659648395,0.0032665964839683,0.0044379525640198,41.431288225293,9.1450305802341e-05,9.1450305802341e-05,9.1450305802341e-05,4748837.0627248,0.011032391540715
8619200,0.75172032745233,0.011496034290357,0.0035095829068437,0.0035095829068613,0.0044768684766522,-0.00080078830410165,0.0008007887796354,-1.0410017282e-09,1.5405603045578e-09,1.6279547659229e-10,3.5334393185013e-10,-0.00095174667461317,0.00095174621946163,-0.00095174581449431,0.00095174707965861,-0.00095174664252041,0.00095174627031634,-0.00095174578454832,0.00095174713284125,-0.00088494999551357,0.000884948032399,-0.00088494743615926,0.0008849505278864,-1.4092887861263e-10,-3.7142356850575e-10,-5.7142905965405e-10,7.5061769815422e-11,-0.00080078877805896,0.00080078830567987,-0.00095174675866272,0.00095174615286086,-0.00095174654491729,0.00095174637223046,-0.00095174680377036,0.00095174608788847,-0.00095174658997386,0.00095174630759789,-0.00088494964006398,0.00088494843151373,-0.00088494893483325,0.00088494899513543,-0.00080779330499833,0.00080779324772555,-0.00080779351057125,0.00080779298361963,1.7180975478875e-09,-8.8704363798458e-10,-0.0010946441776756,0.0010946449740003,8.1244622820777e-10,7.853680950438e-11,-0.0012645850841985,0.0012645869498383,-0.0012645853432369,0.0012645866748835,-0.0012645859596159,0.0012645860879617,-0.001264586219653,0.0012645858149439,-0.0010377579483667,0.0010377559817421,-0.0010377554038084,0.0010377585400383,0.65260875767849,131329,3014,0.0033324887429658,0.0033324887429692,0.0045489717002473,41.682074230914,9.3456593847314e-05,9.3456593847314e-05,9.3456593847314e-05,4770249.304289,0.01127796429851
8819200,0.77091193965494,0.011722363035474,0.0035743021197853,0.0035743021198036,0.0045737587958853,-0.00081528031248507,0.00081528078634237,-1.0849473450739e-09,1.5828173098706e-09,1.5387519821832e-10,3.6071148536467e-10,-0.00097210910713388,0.00097210861607863,-0.00097210821833429,0.00097210950509832,-0.00097210906954486,0.00097210867226985,-0.00097210818290325,0.00097210956359911,-0.00090037709247088,0.00090037504882217,-0.00090037444923167,0.00090037762906522,-1.321647221646e-10,-3.7875961376776e-10,-4.8212285032989e-10,-1.2651606088487e-11,-0.00081528078482505,0.00081528031400466,-0.00097210914014189,0.00097210860036643,-0.00097210898548262,0.00097210876074662,-0.00097210919069607,0.00097210853014645,-0.00097210903599437,0.00097210869084383,-0.00090037661210951,0.00090037557327216,-0.00090037608037336,0.00090037596340476,-0.00082169795144742,0.00082169785274245,-0.00082169817306421,0.00082169757286412,1.7657400740293e-09,-9.253271340677e-10,-0.0011195266983615,0.0011195275042779,7.295075419277e-10,1.7177890747817e-10,-0.0012955690207558,0.0012955708658845,-0.0012955692207958,0.0012955706496645,-0.0012955699249313,0.0012955699754972,-0.001295570125988,0.0012955697612118,-0.0010598902653231,0.0010598882826527,-0.0010598876363603,0.0010598909249551,0.62941993038531,131329,3014,0.0033927593014885,0.0033927593014931,0.0046520807770667,41.932907596655,9.5463260773238e-05,9.5463260773238e-05,9.5463260773238e-05,4789435.5509102,0.011504220272979
9019200,0.78865641831335,0.011931743656286,0.0036341518222863,0.0036341518223062,0.004663440011694,-0.00082784564484451,0.00082784611865158,-1.1279531619816e-09,1.6258062006483e-09,1.2076291630521e-10,3.9421374186432e-10,-0.00099010683501502,0.00099010629325609,-0.00099010591792922,0.00099010721077472,-0.00099010677561859,0.00099010637141541,-0.00099010586010816,0.00099010729175207,-0.0009138622616756,0.00091386015542235,-0.00091385953450235,0.00091386282170811,-9.8283918861463e-11,-4.1246785498942e-10,-3.690460332789e-10,-1.2525983959656e-10,-0.00082784611702319,0.00082784564645008,-0.00099010679377426,0.0009901063520346,-0.00099010671448498,0.00099010643697027,-0.0009901068671153,0.00099010625909007,-0.00099010678721985,0.00099010634486926,-0.00091386165073051,0.00091386081051066,-0.00091386133984294,0.00091386098076642,-0.00083374835247599,0.00083374824556341,-0.00083374863946555,0.00083374789935035,1.8151755541622e-09,-9.6192534742916e-10,-0.0011417341803404,0.0011417349996518,6.2371541698097e-10,2.9168290008174e-10,-0.00132344133777,0.0013234431500601,-0.0013234414626119,0.0013234430088209,-0.0013234422710242,0.0013234422308305,-0.0013234423963405,0.001323442092071,-0.0010795821816786,0.0010795802034539,-0.0010795794692305,0.0010795829291308,0.62977530466886,131329,3014,0.003445019581288,0.0034450195812402,0.0047440945189367,41.749740127578,9.3997921020626e-05,9.3997921020626e-05,9.3997921020626e-05,4795277.3643767,0.011703089567159
9219200,0.80494700157528,0.012121569934183,0.0036883060942248,0.0036883060942502,0.0047449577457081,-0.00083895415059352,0.00083895462439996,-1.1710549818977e-09,1.6688941735168e-09,9.251321640239e-11,4.2282929297299e-10,-0.0010062700555019,0.0010062694658715,-0.0010062691096557,0.0010062704124082,-0.0010062699771047,0.0010062695631093,-0.0010062690330503,0.0010062705121094,-0.00092577263325514,0.00092577046211551,-0.00092576982253094,0.00092577321245817,-7.0583219962813e-11,-4.4089955542417e-10,-2.6248795437032e-10,-2.3203985581282e-10,-0.00083895462288841,0.00083895415210058,-0.0010062699458302,0.001006269593423,-0.0010062699370262,0.0010062696074441,-0.001006270037721,0.001006269481926,-0.0010062700285958,0.0010062694965032,-0.00092577189492221,0.00092577124520223,-0.00092577179340869,0.00092577120576448,-0.00084428421614715,0.00084428409303067,-0.00084428455882705,0.00084428369140367,1.8660406503273e-09,-9.9682589100622e-10,-0.0011617059819545,0.0011617068173478,5.265318473429e-10,4.0604944685048e-10,-0.0013486369154273,0.0013486387016583,-0.0013486369693932,0.0013486386310776,-0.001348637877282,0.0013486377540621,-0.0013486379319194,0.0013486376857597,-0.0010972133684799,0.0010972113925412,-0.0010972105715108,0.0010972142024314,0.62300580662178,131329,3014,0.003491222887659,0.0034912228876497,0.0048268352628142,41.451650343773,9.1613202750187e-05,9.1613202750187e-05,9.1613202750187e-05,4797705.3302131,0.011880353595524
9419200,0.8198926742502,0.012293560165972,0.0037372964266404,0.0037372964266716,0.0048189673126595,-0.00084892723600784,0.00084892770951592,-1.2142554819168e-09,1.7117943163292e-09,7.7134317834831e-11,4.3818035818495e-10,-0.0010208847916265,0.0010208841627459,-0.0010208838172472,0.001020885138196,-0.0010208847031175,0.0010208842702355,-0.0010208837303979,0.001020885248006,-0.00093645916759162,0.00093645692220881,-0.00093645627297606,0.00093645975704535,-5.5427156040173e-11,-4.5625191413155e-10,-1.7102564301562e-10,-3.233560540241e-10,-0.00084892770807582,0.00084892723745121,-0.0010208846271471,0.0010208843456661,-0.0010208846784966,0.0010208842987913,-0.0010208847291808,0.0010208842240193,-0.0010208847802145,0.0010208841776943,-0.00093645830783806,0.00093645782719336,-0.00093645838539871,0.00093645760847522,-0.00085366218442507,0.00085366203046424,-0.00085366255724428,0.0008536615987245,1.917119623135e-09,-1.0315621057211e-09,-0.0011797928045729,0.0011797936564823,4.4450666821464e-10,5.0558017084341e-10,-0.0013715371202409,0.0013715388909866,-0.0013715371134651,0.0013715388809549,-0.0013715381107786,0.0013715379149041,-0.0013715381047134,0.001371537907117,-0.0011131232776479,0.0011131212945186,-0.0011131203963316,0.0011131241884121,0.61620824504873,131329,3014,0.0035327040311075,0.0035327040311144,0.0049017598784306,41.150863606519,8.9206908852152e-05,8.9206908852152e-05,8.9206908852152e-05,4800897.5346167,0.012040176686865
9619200,0.83359936343479,0.012449294504672,0.0037815937167992,0.003781593716834,0.0048861070710391,-0.00085787405859626,0.000857874531444,-1.2576211696542e-09,1.7545021032827e-09,7.277501500854e-11,4.4205297340863e-10,-0.0010340707993736,0.0010340701384046,-0.0010340697965534,0.0010340711428192,-0.0010340707083993,0.0010340702486967,-0.0010340697069335,0.0010340712551976,-0.0009460423073321,0.00094603997983085,-0.0009460393286838,0.00094604289905427,-5.1215598066273e-11,-4.6013070026964e-10,-9.4139189968984e-11,-3.9973994379689e-10,-0.00085787453006464,0.00085787405998317,-0.0010340705926822,0.0010340703647548,-0.0010340706933994,0.0010340702667359,-0.0010340706973474,0.0010340702403813,-0.0010340707977379,0.0010340701429714,-0.00094604133274903,0.00094604100005715,-0.0009460415603665,0.00094604063091054,-0.00086205757278393,0.00086205737622032,-0.00086205795359958,0.00086205693650844,1.9681590396806e-09,-1.0663307957379e-09,-0.0011961713625265,0.0011961722308362,3.7701472640008e-10,5.9036653456055e-10,-0.0013923449521921,0.0013923467170918,-0.0013923448945125,0.0013923467577993,-0.0013923459714098,0.0013923457125013,-0.0013923459144546,0.0013923457554406,-0.0011274727460295,0.0011274707459474,-0.0011274697804859,0.0011274737238093,0.60938041063704,131329,3014,0.0035699171166306,0.0035699171166463,0.0049696024010873,40.849981962562,8.6799855700496e-05,8.6799855700496e-05,8.6799855700496e-05,4803708.9707244,0.012184213081657
9819200,0.84593042705414,0.012590316314363,0.0038217570656863,0.0038217570657237,0.0049468021829535,-0.00086519589540528,0.00086519636746434,-1.3004196003974e-09,1.797065367916e-09,5.9549222223902e-11,4.5501648426462e-10,-0.0010451169956932,0.0010451162960798,-0.0010451159651225,0.0010451173282225,-0.001045116896581,0.0010451164145783,-0.001045115865598,0.0010451174502675,-0.00095400203954213,0.00095399963285792,-0.00095399897834066,0.00095400264230191,-3.3774886926937e-11,-4.7711465584242e-10,-1.497075622996e-11,-4.7803564725321e-10,-0.00086519636635757,0.00086519589644966,-0.0010451167384373,0.0010451165743446,-0.0010451168918479,0.0010451164226631,-0.0010451168541851,0.0010451164371942,-0.0010451170057841,0.0010451162878522,-0.00095400095934964,0.00095400076564018,-0.00095400133777176,0.00095400024901952,-0.00086892364649777,0.00086892342704078,-0.00086892405555091,0.00086892295944512,2.0196130228555e-09,-1.1014053674691e-09,-0.0012101244286186,0.0012101253139389,3.0583922023352e-10,6.793574080681e-10,-0.0014102579341009,0.001410259692572,-0.0014102578236998,0.0014102597855648,-0.0014102589822512,0.0014102586578051,-0.0014102588708495,0.0014102587544992,-0.0011396289081291,0.0011396268949207,-0.0011396258637111,0.0011396299577111,0.61213711725491,131329,3014,0.0036003751251443,0.0036003751250135,0.0050273929102581,40.183059032068,8.1464472256547e-05,8.1464472256547e-05,8.1464472256547e-05,4797421.287068,0.012304412989962
10019200,0.85701556103807,0.01271817424179,0.0038582385808043,0.003858238580848,0.0050016970801374,-0.00087159979470827,0.0008716002664259,-1.3440174041026e-09,1.8400533881909e-09,5.2948120794784e-11,4.6115617211314e-10,-0.0010548334042368,0.0010548326717602,-0.0010548323443117,0.0010548337335608,-0.0010548333005607,0.0010548327949276,-0.0010548322416145,0.0010548338588477,-0.00096104983628346,0.00096104735216548,-0.00096104669169947,0.0009610504423782,-3.1310879646914e-11,-4.7957959852908e-10,4.8623363363063e-11,-5.412310628978e-10,-0.0008716002652686,0.00087159979583575,-0.0010548331084753,0.0010548329883028,-0.0010548333029249,0.0010548327953592,-0.0010548332259876,0.0010548328504863,-0.0010548334199503,0.0010548326583908,-0.00096104865100004,0.0009610485852257,-0.0009610491575748,0.00096104793922703,-0.00087497330852532,0.00087497305628888,-0.00087497372654936,0.00087497257818388,2.0698674232063e-09,-1.1363932443782e-09,-0.0012224529608033,0.0012224538615396,2.5242065789864e-10,7.4884148605369e-10,-0.0014261050617677,0.0014261068224041,-0.0014261049096075,0.0014261069572123,-0.0014261061382247,0.001426105760342,-0.001426105986459,0.0014261058975998,-0.0011503946684919,0.001150392625952,-0.0011503915362848,0.0011503957722822,0.61574677695623,131329,3014,0.0036270157919338,0.0036270157918721,0.0050784509581191,39.478794972839,7.5830359782711e-05,7.5830359782711e-05,7.5830359782711e-05,4789150.5118286,0.012410078217209
10219200,0.8669942776523,0.012834421691942,0.003891475543481,0.0038914755435309,0.0050514706049297,-0.00087726426335945,0.00087726473402291,-1.3876229019846e-09,1.8824578020887e-09,5.8364340421228e-11,4.5471148217046e-10,-0.0010634365242455,0.0010634357661007,-0.001063435435796,0.0010634368566034,-0.001063436424614,0.0010634358852198,-0.0010634353369174,0.0010634369779049,-0.00096736438395925,0.000967361810343,-0.00096736115427689,0.00096736498420703,-3.6625592285071e-11,-4.7370827328007e-10,9.5326589487942e-11,-5.8749147749658e-10,-0.00087726473301661,0.00087726426436489,-0.0010634362016861,0.0010634361096217,-0.001063436426711,0.001063435885628,-0.0010634363156354,0.0010634359755192,-0.0010634365400231,0.0010634357525134,-0.0009673631067001,0.00096736313551429,-0.00096736370340112,0.00096736239771932,-0.00088038926095073,0.00088038896717979,-0.00088038966845601,0.0008803885004032,2.119700637777e-09,-1.1723426879709e-09,-0.0012333971581593,0.0012333980726936,2.1347185893418e-10,8.0232826353994e-10,-0.0014401765360573,0.0014401783080487,-0.0014401763530973,0.0014401784736355,-0.0014401776412848,0.0014401772174129,-0.0014401774585665,0.0014401773855807,-0.0011599889384381,0.0011599868569569,-0.0011599857217093,0.0011599900869589,0.62007023703718,131329,3014,0.0036505809942731,0.0036505809942716,0.0051237723828737,38.773592962734,7.0188743701871e-05,7.0188743701871e-05,7.0188743701871e-05,4779993.3567498,0.012503715068916
10419200,0.87600478400568,0.012940564155302,0.003921890623337,0.00392189062339,0.0050967829085749,-0.00088234880268948,0.00088234927181942,-1.4313617455283e-09,1.9246170243887e-09,7.7172884774285e-11,4.3425494889763e-10,-0.0010711395657859,0.0010711387906016,-0.0010711384488446,0.0010711399097631,-0.0010711394792092,0.0010711388964976,-0.0010711383628113,0.001071140017936,-0.00097311542163143,0.00097311274897953,-0.00097311210705308,0.00097311600656266,-5.4981335835944e-11,-4.5408162174315e-10,1.193334689812e-10,-6.1050731933889e-10,-0.00088234927095543,0.00088234880356956,-0.0010711392325404,0.0010711391448155,-0.0010711394729823,0.0010711389051083,-0.0010711393339945,0.001071139023365,-0.0010711395736465,0.0010711387847961,-0.00097311406551548,0.00097311415329415,-0.00097311470740458,0.00097311336902414,-0.00088530879663607,0.00088530845061761,-0.0008853091668353,0.00088530802161875,2.1682170745155e-09,-1.2096914803439e-09,-0.0012432114562294,0.0012432123818392,1.9581690642792e-10,8.3157335612243e-10,-0.0014528141780917,0.0014528159739801,-0.0014528139795191,0.0014528161551129,-0.0014528153120655,0.001452814854721,-0.0014528151135916,0.0014528150385749,-0.001168627063884,0.0011686249257564,-0.0011686237630259,0.0011686282394294,0.62506143654538,131329,3014,0.0036717340530682,0.003671734053102,0.0051644117419058,38.098596506363,6.4788772050903e-05,6.4788772050903e-05,6.4788772050903e-05,4769854.2863607,0.012587731994579
10619200,0.88441860329647,0.013037679734705,0.0039496698821129,0.0039496698821665,0.0051383399704254,-0.00088799318182256,0.0008879936478665,-1.4776335740439e-09,1.967755837204e-09,1.2719352820738e-10,3.8053976250676e-10,-0.0010792900010165,0.0010792892257737,-0.0010792888520329,0.0010792903770951,-0.0010792899468068,0.0010792892988501,-0.001079288803067,0.0010792904477061,-0.00097936952691288,0.00097936673615763,-0.00097936613070992,0.00097937007252522,-1.3047445008819e-10,-3.7491709901424e-10,9.1014761395154e-11,-5.7931461167043e-10,-0.00088799364681194,0.00088799318293425,-0.0010792897022876,0.0010792895450147,-0.0010792899203335,0.0010792893276828,-0.0010792897505751,0.0010792894771693,-0.0010792899725162,0.001079289256219,-0.00097936811033133,0.00097936820083256,-0.00097936870078617,0.00097936746624324,-0.00089079431080744,0.000890793841892,-0.00089079453627667,0.00089079355851896,2.2122211115165e-09,-1.2481229801115e-09,-0.0012533507241526,0.0012533516549746,2.3335645520871e-10,7.9936872242247e-10,-0.0014656261188037,0.0014656279680032,-0.0014656259410051,0.0014656281283032,-0.001465627277975,0.0014656268235724,-0.0014656271050874,0.0014656269819341,-0.001177635262188,0.0011776330189372,-0.001177631872246,0.0011776364197418,0.61395113413381,131329,3014,0.0036952102366835,0.0036952102368029,0.0052063959422716,38.029312462254,6.4234499698031e-05,6.4234499698031e-05,6.4234499698031e-05,4772298.3904596,0.012677822989836
10819200,0.89227698849856,0.013126669414298,0.003975071039445,0.0039750710394945,0.0051765273353588,-0.00089319585678007,0.00089319631891812,-1.5213285975145e-09,2.0076813553304e-09,1.98466860356e-10,3.0484266941276e-10,-0.0010868387167389,0.0010868379595686,-0.0010868375415575,0.0010868391371865,-0.0010868387123926,0.0010868379824981,-0.0010868375389157,0.0010868391610718,-0.00098508774579658,0.00098508481468376,-0.00098508426335826,0.00098508824028363,-1.822646313794e-10,-3.1852457755751e-10,4.2517961640384e-11,-5.2672656528678e-10,-0.00089319631795128,0.00089319585776025,-0.0010868384595219,0.0010868382370656,-0.0010868386456991,0.0010868380515391,-0.0010868384731066,0.0010868382042672,-0.0010868386597689,0.0010868380186719,-0.00098508629112844,0.0009850863175153,-0.00098508677755684,0.0009850856894338,-0.00089581302709088,0.00089581248475504,-0.00089581314082741,0.00089581231366865,2.2571700442398e-09,-1.291415705019e-09,-0.0012627329828781,0.0012627339157587,2.8074093582183e-10,7.534810249366e-10,-0.0014775121108381,0.0014775140245981,-0.0014775119656537,0.0014775141518945,-0.0014775133008235,0.001477512849058,-0.0014775131576778,0.0014775129779865,-0.0011859237518869,0.0011859213970056,-0.001185920280736,0.0011859248796735,0.60386754813795,131329,3014,0.0037168491073887,0.0037168491074164,0.005245243937881,37.973568497688,6.3788547981501e-05,6.3788547981501e-05,6.3788547981501e-05,4775627.1497679,0.012761021824301
11019200,0.89961318958957,0.013208043053324,0.0039982462894485,0.0039982462894982,0.0052115504743774,-0.00089795867218972,0.00089795913064803,-1.5660879180597e-09,2.0488409309924e-09,2.5507121027903e-10,2.4398895277556e-10,-0.001093798432382,0.001093797681934,-0.0010937972285436,0.0010937988881959,-0.001093798466802,0.0010937976656354,-0.0010937972646557,0.0010937988729322,-0.00099028262092639,0.00099027956291828,-0.00099027905445286,0.00099028307279846,-2.3836501336042e-10,-2.5817521895185e-10,-1.2421175067363e-11,-4.6819081988201e-10,-0.00089795912970668,0.00089795867314646,-0.0010937982147611,0.0010937979193292,-0.0010937983632519,0.001093797771618,-0.0010937981898233,0.0010937979255052,-0.0010937983387535,0.00109379777777,-0.00099028113706179,0.00099028109483722,-0.00099028151275243,0.00099028057814141,-0.00090037006412103,0.00090036944884797,-0.00090037006354815,0.00090036939271761,2.3000336986081e-09,-1.3344662405018e-09,-0.001271379404434,0.0012713803371314,3.3676298021035e-10,6.9684766854677e-10,-0.0014884947853169,0.001488496765236,-0.0014884946778381,0.0014884968548948,-0.0014884960039751,0.0014884955611274,-0.0014884958984237,0.0014884956524068,-0.0011935132593419,0.0011935107829347,-0.0011935097045716,0.0011935143494002,0.59320720749398,131329,3014,0.0037366583698292,0.0037366583698614,0.005281044048623,37.918295580869,6.3346364646955e-05,6.3346364646955e-05,6.3346364646955e-05,4779555.5943973,0.012837431988621
11219200,0.90644965700686,0.013283856442047,0.0040198493527935,0.0040198493528443,0.0052441577364097,-0.00090233388018017,0.00090233433535326,-1.610667510919e-09,2.0902335355944e-09,2.9891588253086e-10,1.9639106979939e-10,-0.0011001943799278,0.0011001936279896,-0.0011001931474214,0.001100194862864,-0.0011001944445642,0.0011001935810835,-0.0011001932137382,0.0011001948170994,-0.00099507868063009,0.00099507550487505,-0.0009950750305768,0.00099507909950521,-2.8179141853585e-10,-2.1085669254999e-10,-7.3351645296833e-11,-4.038434611803e-10,-0.00090233433438533,0.0009023338811525,-0.0011001941956436,0.001100193831571,-0.0011001943025718,0.0011001937256285,-0.0011001941407936,0.0011001938680516,-0.0011001942481017,0.0011001937621435,-0.00099507718218296,0.00099507705119384,-0.00099507743590857,0.00099507665799294,-0.00090454816393007,0.00090454750495357,-0.000904548074422,0.00090454753816041,2.3417698323038e-09,-1.3785836813913e-09,-0.0012793585929961,0.0012793595234461,3.9760842289443e-10,6.3311111012547e-10,-0.0014986289878915,0.0014986310359892,-0.001498628922011,0.0014986310840774,-0.0014986302352056,0.0014986298032775,-0.0014986301711838,0.0014986298530019,-0.0012005090038852,0.0012005063992686,-0.0012005053652468,0.0012005100498781,0.59263237287038,131329,3014,0.0037548550491302,0.0037548550491395,0.0053140809860463,37.837456567575,6.2699652540601e-05,6.2699652540601e-05,6.2699652540601e-05,4783282.0453121,0.012907779919462
11419200,0.9127762042245,0.013354601218375,0.0040400385314575,0.00404003853151,0.0052745241554076,-0.00090615955332858,0.00090616000614562,-1.6548282847201e-09,2.1320706895275e-09,3.2054384804665e-10,1.7211894800193e-10,-0.0011058657700781,0.0011058650023999,-0.0011058645088794,0.001105866265898,-0.0011058658497849,0.0011058649400814,-0.0011058645902919,0.0011058662048332,-0.00099932713509579,0.00099932385757125,-0.00099932340091654,0.00099932753643379,-3.033441817641e-10,-1.8664512941905e-10,-1.3318895760627e-10,-3.4171796280983e-10,-0.0009061600051929,0.00090615955428906,-0.0011058656043977,0.0011058651869047,-0.00110586567094,0.001105865121652,-0.0011058655345693,0.0011058652386762,-0.0011058656014454,0.0011058651734984,-0.00099932563660114,0.00099932540366595,-0.00099932577122559,0.00099932513027339,-0.00090820402784823,0.00090820336702115,-0.00090820389355113,0.00090820344537324,2.3829756316126e-09,-1.4231846162751e-09,-0.0012864967934172,0.0012864977204409,4.5627164065575e-10,5.7046368775533e-10,-0.0015077421590308,0.0015077442728754,-0.0015077421336396,0.0015077442804884,-0.0015077434349921,0.0015077430115821,-0.0015077434114129,0.0015077430208523,-0.0012067602403721,0.0012067575079042,-0.0012067565177007,0.0012067612424747,0.59626239157192,131329,3014,0.0037707674798339,0.0037707674798503,0.0053436345582172,37.630198898736,6.1041591189888e-05,6.1041591189888e-05,6.1041591189888e-05,4783424.7433425,0.012969974671778
11619200,0.91863114864968,0.013420464924696,0.0040588579468538,0.0040588579469082,0.0053027490309339,-0.00090967542326229,0.00090967587427956,-1.6987182627349e-09,2.1741947431371e-09,3.3122011868803e-10,1.5943886160516e-10,-0.0011110775829102,0.0011110767925074,-0.0011110762929947,0.0011110780846677,-0.0011110776701724,0.0011110767223219,-0.0011110763820398,0.0011110780157831,-0.0010032695266328,0.0010032661554321,-0.0010032657084032,0.001003269918531,-3.1412398292962e-10,-1.7400865558516e-10,-1.9375502028753e-10,-2.7946261398142e-10,-0.00090967587336478,0.00090967542419032,-0.0011110774290659,0.0011110769647317,-0.0011110774549341,0.0011110769404875,-0.0011110773516331,0.0011110770243488,-0.0011110773778495,0.0011110770001636,-0.0010032680365926,0.0010032676928511,-0.0010032680513915,0.0010032675401296,-0.00091158318728732,0.00091158254597451,-0.00091158303030021,0.00091158264751645,2.4235705057023e-09,-1.4683604877715e-09,-0.0012930668647058,0.0012930677871376,5.1474789174642e-10,5.0676842742534e-10,-0.0015161356437275,0.0015161378224306,-0.0015161356590676,0.0015161377893105,-0.0015161369482944,0.0015161365325882,-0.0015161369654484,0.0015161365010939,-0.0012125313826951,0.001212528520832,-0.0012125275759327,0.0012125323394457,0.59873360135882,131329,3014,0.003785391723931,0.0037853917239589,0.0053708346932012,37.420110527002,5.9360884216018e-05,5.9360884216018e-05,5.9360884216018e-05,4782070.7481109,0.013027178055453
11819200,0.92405097362775,0.013481918606425,0.0040764429430815,0.0040764429431374,0.0053290327202063,-0.00091291648011355,0.00091291692868574,-1.7429258149892e-09,2.2159642418723e-09,3.3239645010485e-10,1.5568048627389e-10,-0.0011158750121415,0.0011158741922364,-0.0011158736935242,0.0011158755130332,-0.0011158751008061,0.0011158741202544,-0.0011158737840224,0.0011158754424273,-0.0010069395332566,0.0010069360738692,-0.0010069356307829,0.0010069399210178,-3.1534698739494e-10,-1.7030216392623e-10,-2.5232132265477e-10,-2.1859674678816e-10,-0.00091291692780565,0.00091291648101107,-0.0011158748627174,0.0011158743595168,-0.0011158748490386,0.0011158743751256,-0.0011158747838927,0.0011158744208651,-0.0011158747705485,0.0011158744365435,-0.0010069380556034,0.0010069375986383,-0.0010069379536788,0.0010069375631662,-0.00091472174247332,0.00091472113841071,-0.00091472158098682,0.00091472124511447,2.4638499140176e-09,-1.5138747478715e-09,-0.0012991248972859,0.0012991258143944,5.7117819336885e-10,4.4443775764334e-10,-0.0015238785822163,0.0015238808238699,-0.0015238786371193,0.0015238807510996,-0.0015238799154555,0.0015238795055058,-0.0015238799721543,0.00152387943436,-0.0012178733806382,0.0012178703899706,-0.0012178694897578,0.0012178742925592,0.60218093292969,131329,3014,0.0037988731335068,0.0037988731335433,0.0053959138846171,37.209923674525,5.7679389396202e-05,5.7679389396202e-05,5.7679389396202e-05,4779739.7318731,0.013079919265721
12019200,0.92907687305865,0.013540916487159,0.0040934047436668,0.0040934047437238,0.0053541069997685,-0.0009160325854604,0.00091603303295072,-1.786476447959e-09,2.2584240314902e-09,3.2508831733388e-10,1.6189699015808e-10,-0.0011203971750254,0.0011203963208288,-0.0011203958276935,0.0011203976703022,-0.0011203972590424,0.0011203962532927,-0.001120395913631,0.0011203976041749,-0.0010105526341044,0.0010105490940074,-0.0010105486473479,0.0010105530251386,-3.0834987158533e-10,-1.7640427997217e-10,-3.079976132575e-10,-1.620626306706e-10,-0.00091603303213467,0.00091603258630135,-0.0011203970242062,0.0011203964891532,-0.001120396973431,0.0011203965422394,-0.0011203969498439,0.0011203965461588,-0.0011203968994288,0.0011203965992855,-0.0010105511727442,0.0010105506022171,-0.001010550961167,0.0010105506768232,-0.0009178093612903,0.0009178088082164,-0.00091780921287721,0.00091780890215728,2.5039385483961e-09,-1.5595353828528e-09,-0.0013048533894553,0.0013048543008972,6.2386097571072e-10,3.855357610295e-10,-0.0015311550514907,0.0015311573533068,-0.0015311551435647,0.0015311572433307,-0.0015311564133333,0.00153115600642,-0.0015311565072197,0.0015311558980282,-0.001222996617985,0.001222993500604,-0.0012229926429603,0.0012229974871649,0.61929851333636,131329,3014,0.0038118342106865,0.0038118342107387,0.0054196281524525,37.027610248668,5.6220881989342e-05,5.6220881989342e-05,5.6220881989342e-05,4776308.5825944,0.013130225152919
12219200,0.93375554224232,0.013597857867292,0.0041098475780723,0.0041098475781303,0.0053781627110898,-0.00091911524290416,0.00091911568965686,-1.8299562088292e-09,2.3011279281214e-09,3.1235839807712e-10,1.7392622102628e-10,-0.0011247839406567,0.0011247830486885,-0.0011247825644805,0.0011247844269717,-0.0011247840162716,0.0011247829894017,-0.0011247826422506,0.0011247843689504,-0.0010141993388173,0.0010141957221521,-0.0010141952677577,0.001014199737121,-2.975718220374e-10,-1.8670863470327e-10,-3.5978290600373e-10,-1.0977708798314e-10,-0.0009191156889038,0.00091911524369231,-0.0011247837842336,0.0011247832223269,-0.0011247836989917,0.001124783310254,-0.001124783716886,0.001124783272362,-0.0011247836321807,0.0011247833601275,-0.0010141978932002,0.0010141972142969,-0.001014197580142,0.0010141973906841,-0.00092094601900673,0.00092094552183027,-0.00092094589166391,0.00092094559485958,2.5438799880949e-09,-1.6051749806532e-09,-0.0013103897234561,0.001310390629097,6.7248858084723e-10,3.3058312011848e-10,-0.0015381370890424,0.0015381394480946,-0.0015381372155349,0.0015381393036622,-0.0015381384793511,0.0015381380728077,-0.0015381386078183,0.0015381379297396,-0.0012280397330971,0.0012280364914967,-0.0012280356738085,0.0012280405621008,0.63789982058193,131329,3014,0.003824656292516,0.0038246562925894,0.005442545230523,36.914073226061,5.5312585808488e-05,5.5312585808488e-05,5.5312585808488e-05,4770904.2026811,0.01317944486023
12419200,0.93811139636678,0.013648961539155,0.0041245409735221,0.0041245409735805,0.0053998795920525,-0.00092187044471881,0.00092187089112227,-1.8730006427337e-09,2.3438606000499e-09,2.9722242682359e-10,1.8886133606288e-10,-0.0011288329045466,0.0011288319735874,-0.0011288314998578,0.0011288333803611,-0.0011288329701497,0.0011288319242459,-0.0011288315674572,0.0011288333325655,-0.0010173956849573,0.0010173919937377,-0.0010173915300009,0.001017396093377,-2.8042133148694e-10,-2.0345442745249e-10,-4.0470850872468e-10,-6.4327140015211e-11,-0.00092187089032343,0.00092187044554208,-0.0011288327376645,0.0011288321574844,-0.0011288326226723,0.0011288322754786,-0.0011288326817262,0.0011288321961879,-0.0011288325670613,0.0011288323142507,-0.0010173942517139,0.0010173934732605,-0.0010173938503398,0.0010173937391227,-0.00092373227007873,0.00092373183658751,-0.00092373217569006,0.00092373187660904,2.5840535602904e-09,-1.6509789216096e-09,-0.0013154381046713,0.0013154390047249,7.1426069397315e-10,2.8267224826273e-10,-0.0015445695457602,0.0015445719580137,-0.0015445697022106,0.0015445717835454,-0.0015445709648611,0.0015445705540163,-0.0015445711231065,0.0015445703811514,-0.001232613539709,0.0012326101784957,-0.0012326093964908,0.0012326143330062,0.61826607427823,131329,3014,0.0038361188774772,0.0038361188775283,0.0054634396724552,36.802079001799,5.4416632014389e-05,5.4416632014389e-05,5.4416632014389e-05,4763481.1516957,0.013223863325702
12619200,0.94216687436815,0.013693739704185,0.0041373270381559,0.0041373270382152,0.0054190856278137,-0.00092430276714441,0.00092430321332945,-1.9160853430257e-09,2.3867384747191e-09,2.7953423550922e-10,2.0648427319425e-10,-0.0011324834158466,0.0011324824442034,-0.0011324819824694,0.0011324838796227,-0.0011324834696492,0.0011324824066083,-0.0011324820383137,0.0011324838436233,-0.0010201119846654,0.0010201082209183,-0.0010201077457572,0.001020112404868,-2.6268286185519e-10,-2.2106037508081e-10,-4.4457870915171e-10,-2.4164141292707e-11,-0.00092430321251552,0.00092430276798092,-0.0011324832358121,0.0011324826410834,-0.0011324830943882,0.0011324827857908,-0.0011324831916806,0.0011324826680115,-0.0011324830505811,0.0011324828127897,-0.0010201105599511,0.0010201096916453,-0.0010201100805981,0.0010201100363046,-0.0009261151247782,0.00092611475288105,-0.00092611506509474,0.00092611475813277,2.6242427473619e-09,-1.6965656813183e-09,-0.0013199785299368,0.0013199794246019,7.5108548017768e-10,2.3997068576615e-10,-0.001550396120125,0.0015503985822113,-0.0015503963030545,0.0015503983812093,-0.0015503975678534,0.0015503971496736,-0.0015503977525669,0.0015503969502679,-0.0012366393578197,0.0012366358806238,-0.0012366351305845,0.0012366401191403,0.58731203140977,131329,3014,0.0038462380101498,0.0038462380101971,0.0054822318526712,36.69013845504,5.3521107640318e-05,5.3521107640318e-05,5.3521107640318e-05,4759823.1965353,0.013263428024904
12819200,0.94590866949859,0.013735448813766,0.0041492620249689,0.0041492620250294,0.0054369247637676,-0.00092626569310531,0.00092626613970257,-1.9590115510712e-09,2.4301459255042e-09,2.5196607596228e-10,2.3475335621082e-10,-0.0011354803950459,0.0011354793763404,-0.0011354789327161,0.001135480840679,-0.0011354804302327,0.0011354793574984,-0.0011354789703186,0.0011354808231621,-0.0010223383711449,0.001022334542914,-0.0010223340495157,0.0010223388120013,-2.370066215372e-10,-2.466747211077e-10,-4.6595140602047e-10,-2.3177038859371e-12,-0.0009262661386441,0.00092626569415526,-0.0011354801901914,0.0011354795979701,-0.0011354800343829,0.0011354797572872,-0.0011354801631427,0.0011354796079959,-0.0011354800079884,0.0011354797670674,-0.0010223369424742,0.0010223360167587,-0.0010223364227108,0.0010223364043478,-0.000928006735581,0.00092800643000602,-0.00092800672665439,0.0009280063836042,2.6647196692315e-09,-1.7415400839106e-09,-0.0013238215815748,0.0013238224720466,7.7017306324159e-10,2.161430803302e-10,-0.00155537457247,0.0015553770733126,-0.0015553747694846,0.0015553768581666,-0.001555376048646,0.0015553756125726,-0.0015553762477945,0.0015553753987192,-0.0012399965327982,0.0012399929519912,-0.0012399922213006,0.0012399972747547,0.59134554490087,131329,3014,0.0038544039561391,0.0038544039561214,0.0054981390984383,36.406394181935,5.1251153455479e-05,5.1251153455479e-05,5.1251153455479e-05,4756920.6246408,0.013296108068194
13019200,0.94931777255488,0.013773613694114,0.0041601955317858,0.0041601955318481,0.0054532226304799,-0.0009275737366956,0.00092757418391698,-2.0013431644283e-09,2.4731268229967e-09,2.1964309931879e-10,2.6805837544181e-10,-0.0011377058315199,0.0011377047631428,-0.0011377043409901,0.0011377062555344,-0.0011377058450734,0.0011377047659717,-0.0011377043563119,0.0011377062604021,-0.0010238733547657,0.0010238694642873,-0.0010238689485518,0.0010238738179895,-1.9977804068926e-10,-2.8499431550164e-10,-4.667965190227e-10,-2.2580946171731e-12,-0.00092757418296047,0.00092757373764676,-0.0011377055897573,0.0011377050218052,-0.0011377054340021,0.00113770518104,-0.0011377055879211,0.0011377050063294,-0.0011377054321456,0.0011377051660054,-0.0010238719094235,0.0010238709553464,-0.00102387138745,0.001023871345123,-0.00092924851687425,0.00092924828364145,-0.00092924858074238,0.000929248164234,2.7069029601491e-09,-1.7858574095761e-09,-0.0013267811468439,0.0013267820352108,7.6943355300959e-10,2.1461652040674e-10,-0.0015593569132223,0.0015593594414086,-0.0015593571107959,0.0015593592256378,-0.0015593584185099,0.0015593579514726,-0.001559358617527,0.0015593577376495,-0.0012425320914733,0.0012425284245017,-0.0012425276966221,0.0012425328312993,0.59302697602489,131329,3014,0.0038598490758254,0.0038598490758146,0.0055103883578874,35.873247801144,4.6985982409153e-05,4.6985982409153e-05,4.6985982409153e-05,4747749.6685953,0.013319566947265
13219200,0.95242740370562,0.013808611454549,0.0041702374020213,0.0041702374020851,0.0054681366504427,-0.00092868315124175,0.00092868359909791,-2.0442108811137e-09,2.5165583934568e-09,1.8931016911605e-10,2.9925416546125e-10,-0.0011396403597971,0.0011396392427572,-0.0011396388403948,0.0011396407641003,-0.001139640352791,0.0011396392661475,-0.0011396388354479,0.0011396407892648,-0.0010251980530014,0.0010251940995408,-0.0010251935623399,0.0010251985368676,-1.7190942362957e-10,-3.1416690276788e-10,-4.601062033374e-10,-9.943608415997e-12,-0.00092868359823512,0.00092868315212348,-0.0011396400820922,0.0011396395373022,-0.0011396399310805,0.0011396396919455,-0.0011396400991723,0.0011396395028982,-0.0011396399484172,0.0011396396577028,-0.0010251965789964,0.0010251956191094,-0.0010251960713921,0.00102519599407,-0.00093030689423768,0.00093030671117999,-0.00093030701491277,0.000930306535413,2.7492313284583e-09,-1.8290292001193e-09,-0.0013293754474782,0.0013293763348834,7.617588383492e-10,2.2136781345349e-10,-0.0015628760236372,0.0015628785743161,-0.0015628762162077,0.0015628783635017,-0.001562877557361,0.0015628770561075,-0.0015628777516345,0.0015628768469647,-0.0012447545909251,0.0012447508441389,-0.0012447501115978,0.0012447553347221,0.59512404546052,131329,3014,0.0038644681410737,0.0038644681411137,0.0055211256541912,35.334489979042,4.2675919832336e-05,4.2675919832336e-05,4.2675919832336e-05,4737915.1027213,0.013339819231574
13419200,0.9552680337985,0.013840031468646,0.0041792412643993,0.0041792412644641,0.0054815489397821,-0.00092958909958766,0.00092958954785081,-2.0870198545937e-09,2.559739811e-09,1.6516020091041e-10,3.2404015738386e-10,-0.0011413082201282,0.001141307058521,-0.0011413066720691,0.0011413086085542,-0.001141308196882,0.0011413070982161,-0.0011413066508837,0.0011413086500182,-0.0010262750779554,0.0010262710570661,-0.0010262705031147,0.0010262755785007,-1.4790804144971e-10,-3.3900915540374e-10,-4.4895369752363e-10,-2.1672912290276e-11,-0.00092958954704383,0.0009295891004158,-0.0011413079084312,0.0011413073871257,-0.0011413077650707,0.0011413075341542,-0.0011413079417426,0.0011413073364053,-0.0011413077986311,0.0011413074835814,-0.0010262735674629,0.0010262726130706,-0.0010262730822951,0.001026272965617,-0.00093115715253755,0.00093115700907838,-0.00093115732122003,0.00093115678522403,2.7919508648176e-09,-1.872108247084e-09,-0.001331617461639,0.001331618348677,7.5017528527762e-10,2.3261811911731e-10,-0.0015659637888648,0.0015659663601614,-0.0015659639737793,0.0015659661569793,-0.0015659653512196,0.0015659648133896,-0.0015659655378219,0.0015659646118524,-0.0012466537162999,0.0012466498927661,-0.0012466491528213,0.0012466544673988,0.58608288483685,131329,3014,0.0038682413786727,0.0038682413787171,0.0055304044237106,34.795536995391,3.836429596313e-05,3.836429596313e-05,3.836429596313e-05,4727735.5026071,0.013356878971109
13619200,0.95788060719322,0.013868536604534,0.0041874044060362,0.0041874044061016,0.0054937277923964,-0.00093050999910666,0.00093051044711694,-2.1297709753704e-09,2.6021828868637e-09,1.5922620516049e-10,3.2978104076852e-10,-0.001142920214594,0.0011429190206203,-0.001142918638445,0.0011429205988215,-0.0011429201876207,0.0011429190639543,-0.0011429186129494,0.0011429206445204,-0.0010273413918707,0.0010273372902213,-0.0010273367321767,0.0010273418953847,-1.3659137403273e-10,-3.5065443889281e-10,-4.3438972601328e-10,-3.6549263556243e-11,-0.00093051044650384,0.00093050999975816,-0.0011429198778369,0.0011429193742099,-0.0011429197446392,0.0011429195111847,-0.0011429199189932,0.0011429193156426,-0.0011429197854538,0.0011429194533514,-0.0010273398312965,0.0010273388964001,-0.0010273393735891,0.0010273392206052,-0.00093201568632939,0.00093201555424204,-0.0009320158769101,0.00093201530882195,2.8354596544186e-09,-1.9151962173055e-09,-0.0013337611642281,0.0013337620514907,7.3591842707956e-10,2.4732422370885e-10,-0.0015688742895594,0.00156887688038,-0.0015688744650666,0.0015688766865755,-0.0015688758811105,0.0015688753045309,-0.001568876057676,0.0015688751129219,-0.0012484708742127,0.0012484669772227,-0.0012484662266843,0.0012484716356588,0.57889844053193,131329,3014,0.0038720750752504,0.0038720750753307,0.0055392772171405,34.355011839316,3.4840094714527e-05,3.4840094714527e-05,3.4840094714527e-05,4720916.079064,0.01337364875301
13819200,0.96029782017277,0.013894912653782,0.0041949646514619,0.0041949646515277,0.005504983350792,-0.00093146811257736,0.00093146856053853,-2.1740058780833e-09,2.6463655867596e-09,1.5532846588081e-10,3.3364497822788e-10,-0.0011445066515852,0.0011445054252664,-0.0011445050452277,0.0011445070335351,-0.001144506621712,0.0011445054715852,-0.0011445050182871,0.0011445070808307,-0.0010284418174515,0.0010284376342598,-0.0010284370733755,0.0010284423235763,-1.4991507304515e-10,-3.3617460995121e-10,-4.1749817644018e-10,-5.2348945583723e-11,-0.00093146855938349,0.00093146811377102,-0.001144506297355,0.0011445057961951,-0.0011445061742606,0.0011445059229502,-0.0011445063290709,0.0011445057474294,-0.0011445062070385,0.0011445058734836,-0.0010284401933611,0.0010284393033217,-0.0010284397703388,0.0010284395929725,-0.00093291587264397,0.00093291570572467,-0.00093291603853079,0.00093291548550036,2.8774057221715e-09,-1.9565923169772e-09,-0.0013358490680134,0.0013358499557837,7.1928760816907e-10,2.6459952498967e-10,-0.001571660540819,0.001571663147803,-0.0015716607042602,0.0015716629660528,-0.0015716621595619,0.0015716615449066,-0.0015716623256198,0.0015716613640769,-0.0012502537464047,0.0012502497776187,-0.0012502490140662,0.0012502545189046,0.57842148662244,131329,3014,0.0038760619875379,0.0038760619876187,0.0055479198861438,34.002931261598,3.2023450092783e-05,3.2023450092783e-05,3.2023450092783e-05,4716764.8439015,0.013390495115493
14019200,0.96253656153769,0.013919352960394,0.0042019751380495,0.0042019751381158,0.0055154026842288,-0.00093231671171656,0.00093231715832271,-2.2168549398974e-09,2.6878745024555e-09,1.7148838761806e-10,3.1604068329171e-10,-0.001145933664444,0.001145932419976,-0.0011459320304575,0.0011459340559839,-0.0011459336459317,0.0011459324547559,-0.0011459320138916,0.0011459340926662,-0.0010294248750305,0.0010294205950724,-0.0010294200470116,0.0010294253685962,-1.5421028832847e-10,-3.3116239269968e-10,-3.9727823199533e-10,-7.1985141306724e-11,-0.00093231715756066,0.00093231671251133,-0.0011459332957254,0.0011459328054285,-0.0011459331864112,0.001145932918439,-0.0011459333244563,0.0011459327594577,-0.0011459332152601,0.0011459328727329,-0.0010294231823101,0.0010294223333276,-0.0010294227964216,0.0010294225857243,-0.00093371236465426,0.00093371217456894,-0.00093371251953492,0.00093371196487504,2.9216154171839e-09,-1.999787471689e-09,-0.0013377324494276,0.0013377333382367,7.0047461612836e-10,2.8458622173333e-10,-0.0015741858023496,0.0015741884270865,-0.0015741859532775,0.0015741882577759,-0.001574187450626,0.0015741867945625,-0.001574187603155,0.0015741866270277,-0.0012518579743579,0.0012518539350865,-0.001251853158466,0.0012518587614185,0.57820997688748,131329,3014,0.00387959346202,0.0038795934620884,0.0055557159530698,33.652847444167,2.9222779553334e-05,2.9222779553334e-05,2.9222779553334e-05,4712386.1813274,0.013405560214473
14219200,0.96461189030436,0.013941103119413,0.0042081862200691,0.0042081862201358,0.0055247306792083,-0.00093301840253395,0.00093301884814412,-2.2603323586039e-09,2.7303967508711e-09,1.8419296403138e-10,3.0223091587651e-10,-0.0011471816685735,0.0011471804031847,-0.0011471800058689,0.0011471820679461,-0.0011471816588137,0.0011471804291899,-0.0011471799981292,0.0011471820957312,-0.0010302130439565,0.0010302086701437,-0.0010302081321302,0.0010302135279933,-1.6723513628362e-10,-3.1686909665153e-10,-3.7562017938489e-10,-9.2471171495771e-11,-0.00093301884732788,0.00093301840337927,-0.0011471812864203,0.0011471808020332,-0.0011471811911264,0.0011471809010482,-0.0011471813060137,0.0011471807652713,-0.0011471812109418,0.0011471808644573,-0.0010302112784594,0.0010302104812464,-0.0010302109341518,0.001030210692416,-0.00093434666566346,0.00093434643602399,-0.0009343467937875,0.00093434625317254,2.9651177251006e-09,-2.042042608e-09,-0.0013393784042197,0.0013393792943596,6.8020100362037e-10,3.0629243294701e-10,-0.0015764304376353,0.0015764330782639,-0.0015764305744798,0.0015764329230052,-0.0015764321144401,0.0015764314172324,-0.0015764322529665,0.00157643126367,-0.0012532286173485,0.0012532245092106,-0.0012532237174712,0.0012532294196127,0.55856306709491,131329,3014,0.0038825143438811,0.003882514343942,0.0055625290217512,33.302833037558,2.642266430046e-05,2.642266430046e-05,2.642266430046e-05,4707967.6715324,0.013418391325822
14419200,0.96650541778634,0.013961199661845,0.0042139395398701,0.0042139395399375,0.005533320582037,-0.00093309309669486,0.00093309354161214,-2.302853509906e-09,2.7724901370059e-09,1.9252456733015e-10,2.9330429663742e-10,-0.0011476805988664,0.0011476793104365,-0.0011476789082889,0.0011476810028746,-0.0011476805952588,0.0011476793305047,-0.0011476789057577,0.001147681025604,-0.0010303476840841,0.0010303432201854,-0.001030342690524,0.0010303481647151,-1.6618564190748e-10,-3.1623189281804e-10,-3.4067298853894e-10,-1.2543486465307e-10,-0.0009330935405756,0.00093309309768867,-0.0011476801936058,0.0011476797326952,-0.0011476801211983,0.0011476798084767,-0.0011476802135951,0.0011476796955116,-0.0011476801405003,0.0011476797723834,-0.0010303458392007,0.0010303451105868,-0.0010303455617909,0.0010303452586278,-0.0009343289251964,0.00093432867504524,-0.00093432905158006,0.00093432849221977,3.0094244511488e-09,-2.0849118656678e-09,-0.0013402273079689,0.0013402282003076,6.4780746236787e-10,3.406052391261e-10,-0.0015777816873844,0.0015777843380633,-0.001577781802438,0.0015777842046363,-0.0015777833936794,0.0015777826475429,-0.001577783509417,0.0015777825166415,-0.001253819163571,0.0012538149937175,-0.0012538141807543,0.001253819989171,0.56383119115974,131329,3014,0.0038828292936992,0.0038828292936103,0.0055660435915543,32.646706939217,2.1173655513734e-05,2.1173655513734e-05,2.1173655513734e-05,4699754.6980804,0.013422594689986
14619200,0.96821992394921,0.013979518342514,0.0042191931592956,0.0042191931593645,0.0055411320238539,-0.00093276266268638,0.00093276310735046,-2.3467832464121e-09,2.8160621289115e-09,1.8908923839474e-10,2.9643828866082e-10,-0.0011477185239758,0.0011477172036503,-0.0011477168038141,0.0011477189259557,-0.001147718517752,0.0011477172261881,-0.0011477167998125,0.0011477189500503,-0.001030061425733,0.0010300568793954,-0.0010300563467702,0.0010300619062745,-1.7302198567582e-10,-3.0953754332582e-10,-3.025350039099e-10,-1.6396120706866e-10,-0.00093276310637151,0.00093276266367586,-0.0011477180920327,0.0011477176524005,-0.0011477180446431,0.0011477177033275,-0.0011477181072887,0.0011477176201354,-0.0011477180603705,0.0011477176710576,-0.0010300595000083,0.0010300588510817,-0.0010300592980724,0.0010300589209142,-0.00093390914476805,0.00093390885654041,-0.0009339092602055,0.00093390868606095,3.0537862796312e-09,-2.1248080117502e-09,-0.0013405459764949,0.0013405468727883,6.1150289997675e-10,3.8159845007635e-10,-0.0015785410238277,0.0015785436796722,-0.0015785411124894,0.0015785435725839,-0.0015785427577286,0.0015785419617006,-0.0015785428482632,0.0015785418561266,-0.0012539153246191,0.0012539111017386,-0.0012539102568123,0.0012539161805076,0.56645234516281,131329,3014,0.0038814616595303,0.0038814616595526,0.0055673625508204,31.82205234598,1.4576418767842e-05,1.4576418767842e-05,1.4576418767842e-05,4686733.3093857,0.013421162283475
14819200,0.96977511536311,0.013996266866264,0.0042240064761479,0.0042240064762176,0.0055482539138984,-0.00093233259604188,0.0009323330399048,-2.3899376959263e-09,2.8583673481337e-09,1.9449927062197e-10,2.9011827279179e-10,-0.0011476112450276,0.0011476098996215,-0.0011476094966913,0.0011476116501056,-0.0011476112429662,0.0011476099179666,-0.001147609496199,0.0011476116705295,-0.0010296714199235,0.0010296667843431,-0.0010296662563911,0.0010296718958464,-1.7621269931889e-10,-3.0612281065091e-10,-2.6560711935495e-10,-2.0061038069198e-10,-0.00093233303915022,0.00093233259680888,-0.0011476107891196,0.0011476103724536,-0.0011476107664379,0.0011476103985192,-0.0011476108023879,0.001147610342027,-0.0011476107795456,0.0011476103686315,-0.0010296694128217,0.0010296688375467,-0.0010296692820014,0.0010296688362022,-0.00093340250192284,0.00093340218177669,-0.00093340261004096,0.0009334020188283,3.0986097707749e-09,-2.1662554046197e-09,-0.0013406791031304,0.0013406800028915,5.7693142543509e-10,4.1988913217524e-10,-0.0015790650033525,0.0015790676674859,-0.0015790650679946,0.0015790675844362,-0.0015790667662527,0.0015790659203883,-0.0015790668321254,0.001579065839343,-0.0012538567945977,0.0012538525157478,-0.0012538516433253,0.0012538576784736,0.56961686198739,131329,3014,0.00387967991841,0.0038796799184362,0.0055679132396652,30.993565830147,7.9485266411747e-06,7.9485266411747e-06,7.9485266411747e-06,4672978.4837743,0.013418111763249
15019200,0.97116683166973,0.014011202149614,0.004228301315196,0.0042283013152664,0.0055545995191516,-0.00093130898157771,0.00093130942071961,-2.4384797060894e-09,2.9003230333575e-09,1.7319523806319e-10,3.0587299802516e-10,-0.0011468507000384,0.0011468493085932,-0.0011468489201645,0.0011468510902218,-0.0011468506851832,0.0011468493392042,-0.0011468489089428,0.001146851118543,-0.0010286504820033,0.0010286457720031,-0.0010286452356529,0.0010286509695303,-1.8884116443386e-10,-2.942283174754e-10,-2.2850512863492e-10,-2.3898123181355e-10,-0.00093130942290013,0.00093130897938301,-0.001146850214245,0.0011468498131261,-0.0011468502150968,0.001146849814948,-0.001146850217227,0.0011468497893257,-0.0011468502202135,0.0011468497875473,-0.0010286483921975,0.0010286479061211,-0.0010286483412963,0.0010286478280748,-0.0009322953314281,0.00093229496878262,-0.00093229541374588,0.00093229481856308,3.1372677160366e-09,-2.2086798421116e-09,-0.0013401007277858,0.0013401016258196,5.3589970024966e-10,4.5797502708905e-10,-0.0015788169446093,0.0015788196098092,-0.0015788169819065,0.0015788195546648,-0.001578818732269,0.0015788178353825,-0.0015788187716082,0.0015788177766773,-0.0012531126026421,0.0012531082623099,-0.0012531073730163,0.001253113515785,0.56737760875154,131329,3014,0.0038754330761067,0.0038754330760805,0.0055655176296619,29.890134501656,-8.789239867481e-07,-8.789239867481e-07,-8.789239867481e-07,4653303.5211059,0.0134070781779
15219200,0.97239379583333,0.014023735926585,0.004231888328564,0.0042318883286281,0.0055599592693933,-0.00092961853351809,0.00092961897782857,-2.4764736448418e-09,2.9454576474966e-09,1.7707050873515e-10,3.0825338218842e-10,-0.001145356871661,0.0011453554563003,-0.0011453550651651,0.0011453572652887,-0.0011453568572908,0.0011453554870594,-0.0011453550533249,0.0011453572973525,-0.001026898988162,0.0010268941961237,-0.0010268936571717,0.0010268994770726,-1.6771552735448e-10,-3.1355003238858e-10,-1.8774615076476e-10,-2.7754341670217e-10,-0.00092961897647061,0.00092961853485095,-0.0011453563523476,0.0011453559924614,-0.0011453563807157,0.001145355967509,-0.0011453563707273,0.0011453559575347,-0.0011453563999626,0.0011453559324031,-0.0010268968286202,0.0010268964019845,-0.0010268968513187,0.0010268962482573,-0.00093049400860079,0.00093049365578248,-0.00093049413360704,0.0009304934757176,3.1859988082175e-09,-2.2487635889336e-09,-0.0013387318151624,0.0013387327200115,5.0200455298785e-10,5.0047586101187e-10,-0.0015777108364418,0.0015777135097301,-0.0015777108485595,0.0015777134789986,-0.0015777126556725,0.0015777117067768,-0.0015777126702163,0.001577711677291,-0.0012515854071319,0.0012515810165868,-0.0012515800870996,0.0012515863462043,0.54391181500863,131329,3014,0.0038684163396098,0.0038684163395573,0.0055598488836065,28.483928372295,-1.2128573021643e-05,-1.2128573021643e-05,-1.2128573021643e-05,4628317.4841664,0.01338711215765
15419200,0.97347783606137,0.014036582055153,0.0042356342375994,0.0042356342376649,0.0055653135798889,-0.00092793541984414,0.00092793586321205,-2.5196128366162e-09,2.9873942490387e-09,1.7362701340216e-10,3.1059547569789e-10,-0.0011437424488414,0.0011437410025534,-0.0011437406139789,0.0011437428396757,-0.0011437424326231,0.0011437410351417,-0.0011437405998565,0.0011437428735273,-0.0010252235667163,0.0010252186923032,-0.0010252181516311,0.0010252240568117,-1.6012288573173e-10,-3.2204565766004e-10,-1.5468270700628e-10,-3.1129656200709e-10,-0.0009279358625904,0.00092793542046464,-0.0011437419006105,0.0011437415680926,-0.0011437419510885,0.0011437415205519,-0.001143741924032,0.0011437415273483,-0.0011437419749651,0.0011437414796223,-0.0010252213362158,0.001025220969003,-0.0010252214237423,0.0010252207498677,-0.0009287228131966,0.00092872245242201,-0.00092872295328415,0.00092872225657562,3.2299580220584e-09,-2.2914500276569e-09,-0.0013372814135398,0.0013372823198545,4.7001063482126e-10,5.341150205057e-10,-0.0015764287152336,0.0015764313975164,-0.0015764287056996,0.0015764313886126,-0.0015764305632554,0.0015764295652169,-0.0015764305555206,0.0015764295574464,-0.0012500174567487,0.0012500130051841,-0.0012500120530877,0.0012500184203201,0.61487581517397,131329,3014,0.0038614275147389,0.0038614275147369,0.0055538449214364,27.070929605273,-2.3432563157818e-05,-2.3432563157818e-05,-2.3432563157818e-05,4606229.8223526,0.013366860621001
15619200,0.97445506091005,0.014048436723212,0.0042391006193204,0.004239100619386,0.0055702354845061,-0.00092668309291635,0.0009266835363366,-2.5757055495223e-09,3.0423031499036e-09,8.8767067550548e-11,3.9543147631042e-10,-0.001142705696215,0.0011427041564615,-0.001142703819807,0.0011427060306993,-0.0011427056227211,0.0011427042462264,-0.001142703753128,0.0011427061150866,-0.0010240069061199,0.0010240019887399,-0.0010240013815302,0.0010240074461226,-2.6607972254462e-10,-2.1449700642362e-10,-1.4502263884221e-10,-3.2035090363901e-10,-0.00092668353453489,0.00092668309495915,-0.0011427051329932,0.0011427047390831,-0.0011427051849063,0.0011427046854271,-0.0011427050823924,0.0011427047678747,-0.0011427051392973,0.0011427047073204,-0.0010240046052103,0.0010240043349128,-0.0010240047133594,0.0010240040818313,-0.00092748131766626,0.00092748074665376,-0.00092748125416278,0.00092748075198153,3.2594839401795e-09,-2.3225275451425e-09,-0.0013363006313301,0.0013363015352333,4.4178164146234e-10,5.6092723552858e-10,-0.0015756875048181,0.0015756901843985,-0.0015756874745051,0.0015756901963536,-0.0015756893682585,0.0015756883310778,-0.001575689344702,0.0015756883377568,-0.0012490109099444,0.001249006411209,-0.0012490054374574,0.0012490118937006,0.62694798406824,131329,3014,0.0038562327681892,0.0038562327686979,0.0055497800671057,25.96249242625,-3.2300060590001e-05,-3.2300060590001e-05,-3.2300060590001e-05,4579374.626932,0.013352218032272
15819200,0.97537430080878,0.01406048407118,0.0042426525720795,0.0042426525721414,0.0055751789269589,-0.00092665873392121,0.00092665917369439,-2.6052455571542e-09,3.0692754871231e-09,2.3727728863582e-10,2.424888485733e-10,-0.0011429405664479,0.0011429391043305,-0.0011429386761411,0.0011429409966552,-0.0011429405934476,0.0011429390930138,-0.0011429387039075,0.0011429409878531,-0.0010240971973763,0.0010240921088363,-0.0010240916131024,0.0010240976363421,-1.922585295772e-10,-2.8959854855504e-10,-1.3943451101708e-10,-3.2623260612693e-10,-0.00092665917437818,0.00092665873334612,-0.0011429400151185,0.0011429396725912,-0.0011429400760745,0.0011429396143258,-0.0011429400167099,0.0011429396534584,-0.0011429400767554,0.0011429395962316,-0.0010240948362719,0.0010240945165412,-0.0010240949489015,0.0010240942671799,-0.00092753461207156,0.00092753417334082,-0.00092753468794379,0.00092753404479112,3.318942079833e-09,-2.3788697634558e-09,-0.0013366132777084,0.0013366141847889,4.58914541564e-10,5.4663068992529e-10,-0.0015762597055117,0.0015762624392368,-0.0015762596883816,0.0015762624374053,-0.0015762616124037,0.0015762605471164,-0.0015762615962707,0.0015762605479833,-0.0012493360842694,0.0012493314727688,-0.0012493305090652,0.0012493370583846,0.66919701336676,131329,3014,0.0038561377861935,0.0038561377864207,0.0055510705321635,25.547391245863,-3.5620870033097e-05,-3.5620870033097e-05,-3.5620870033097e-05,4565048.2722664,0.013353340388758
16019200,0.97624045160079,0.014071801679367,0.0042459885059339,0.0042459885059965,0.0055798246674367,-0.00092658837161168,0.00092658881176155,-2.6547605680634e-09,3.1192312473912e-09,2.2790433894359e-10,2.5249028324222e-10,-0.0011432083314645,0.0011432068286579,-0.001143206406078,0.0011432087559164,-0.0011432083506668,0.001143206825331,-0.0011432064298263,0.0011432087513601,-0.0010241199327562,0.0010241147598142,-0.0010241142576857,0.001024120380266,-2.7022590079182e-10,-2.06271748979e-10,-1.5297504153826e-10,-3.0849483943347e-10,-0.00092658881024765,0.0009265883731796,-0.00114320779076,0.0011432073862638,-0.001143207839421,0.001143207340203,-0.001143207737362,0.0011432074224381,-0.0011432077889041,0.0011432073736894,-0.0010241175122082,0.0010241172265539,-0.0010241176006294,0.0010241170033562,-0.00092757647264666,0.00092757589740759,-0.0009275763946496,0.00092757592162193,3.3547918007074e-09,-2.4157121050063e-09,-0.0013368915255814,0.0013368924319591,4.6444662847431e-10,5.4012317010791e-10,-0.0015768314975512,0.001576834257246,-0.0015768314826409,0.0015768342532774,-0.0015768334268152,0.0015768323427472,-0.0015768334166695,0.0015768323378838,-0.0012496662819239,0.0012496615884009,-0.001249660629442,0.0012496672496012,0.66742794161379,131329,3014,0.0038558544301934,0.003855854430307,0.0055522155938163,25.147701810205,-3.881838551836e-05,-3.881838551836e-05,-3.881838551836e-05,4546515.2856071,0.013353936743933
16219200,0.9770572019252,0.01408242217711,0.0042491191174487,0.0042491191175116,0.0055841839421496,-0.00092647845785148,0.00092647889585263,-2.6966161104347e-09,3.1589523272042e-09,2.7253333423489e-10,2.0529215928898e-10,-0.0011434170965057,0.0011434155956746,-0.0011434151447143,0.0011434175494278,-0.0011434171468064,0.0011434155610224,-0.0011434151981544,0.0011434175149589,-0.0010240835062135,0.0010240782187793,-0.0010240777497027,0.0010240839212844,-2.8541902302812e-10,-1.9002805266314e-10,-1.6515422379245e-10,-2.954567923155e-10,-0.00092647889500287,0.00092647845874643,-0.0011434165654023,0.0011434161434604,-0.0011434166065066,0.0011434161051467,-0.0011434165022744,0.0011434161895217,-0.0011434165448388,0.0011434161499142,-0.0010240810360816,0.0010240807351448,-0.0010240810981443,0.0010240805389364,-0.00092757159995746,0.00092757100115467,-0.00092757148896453,0.00092757105819395,3.3994744400952e-09,-2.4615382450492e-09,-0.0013371046388595,0.0013371055441641,4.7969399179547e-10,5.235956627178e-10,-0.001577313585479,0.0015773163857455,-0.0015773135818756,0.0015773163704212,-0.0015773155456513,0.0015773144403608,-0.0015773155454656,0.001577314425529,-0.0012499314516092,0.0012499266593474,-0.0012499257126825,0.0012499324078741,0.66425606634602,131329,3014,0.0038554061228184,0.0038554061229133,0.0055530913198884,24.748543283226,-4.2011653734194e-05,-4.2011653734194e-05,-4.2011653734194e-05,4529657.956727,0.013353924678882
16419200,0.97783074337148,0.01409134753599,0.0042517197111892,0.0042517197112523,0.0055879081135487,-0.00092639599055494,0.00092639642701209,-2.7384798591142e-09,3.1993995462753e-09,3.1364185939766e-10,1.6222266985585e-10,-0.0011436544818774,0.0011436529798688,-0.0011436525032091,0.001143654961646,-0.0011436545598946,0.0011436529172155,-0.0011436525843512,0.0011436548995759,-0.0010240170065828,0.001024011607907,-0.0010240111687913,0.0010240173908418,-2.9379575503626e-10,-1.8137816760788e-10,-1.8226210259508e-10,-2.7818923080528e-10,-0.00092639642674369,0.0009263959908917,-0.0011436539582069,0.0011436535195246,-0.0011436539885357,0.0011436534932393,-0.001143653889748,0.00114365357184,-0.0011436539215593,0.0011436535446725,-0.0010240144958373,0.0010240141655558,-0.0010240145232655,0.0010240140031785,-0.00092756131726431,0.00092756071201672,-0.00092756118982465,0.00092756078744956,3.4445495269058e-09,-2.5062734635367e-09,-0.0013373252460689,0.0013373261513146,4.9984769346666e-10,5.0348768003228e-10,-0.0015777913270101,0.0015777941701679,-0.0015777913368613,0.0015777941413267,-0.0015777933175817,0.0015777921954271,-0.0015777933307626,0.0015777921674447,-0.0012501769391739,0.0012501720465508,-0.0012501711125176,0.0012501778822845,0.59981699638418,131329,3014,0.0038550711247287,0.0038550711248705,0.0055539984651555,24.411185745302,-4.471051403758e-05,-4.471051403758e-05,-4.471051403758e-05,4515754.2520501,0.013354173119441
16619200,0.97856744631716,0.014101588295841,0.0042547615199854,0.0042547615200497,0.0055920652558057,-0.00092656937117586,0.00092656980676048,-2.7827013442664e-09,3.2426724959341e-09,3.2205115179367e-10,1.5285483788963e-10,-0.0011439833655006,0.001143981839832,-0.0011439813574172,0.0011439838500311,-0.0011439834498194,0.0011439817708455,-0.0011439814442956,0.00114398378192,-0.0010242743907698,0.0010242688994885,-0.0010242684667675,0.0010242747690941,-3.194064146958e-10,-1.5407584764744e-10,-2.0496736803098e-10,-2.5397311485703e-10,-0.00092656980624524,0.00092656937174372,-0.0011439828459057,0.0011439823756685,-0.0011439828604547,0.0011439823643149,-0.00114398275994,0.0011439824448886,-0.0011439827753396,0.0011439824328997,-0.0010242718467178,0.001024271489798,-0.0010242718280514,0.0010242713742968,-0.00092778571602992,0.00092778507597599,-0.0009277855357069,0.00092778520323847,3.485569210665e-09,-2.5498530347401e-09,-0.0013377508214675,0.0013377517244319,5.2050033660141e-10,4.8012463840422e-10,-0.0015783753440302,0.0015783782283855,-0.001578375368887,0.0015783781847166,-0.0015783773627074,0.001578376224781,-0.0015783773902087,0.0015783761821606,-0.0012506096491421,0.0012506046568938,-0.001250603740569,0.0012506105753157,0.70235633765674,131329,3014,0.0038557936001532,0.0038557936002632,0.0055557593081456,24.157496057542,-4.6740031539666e-05,-4.6740031539666e-05,-4.6740031539666e-05,4511884.8117993,0.01335742375965
16819200,0.9792694563345,0.014111390103178,0.0042576721242552,0.0042576721243197,0.0055960458546026,-0.00092664679724563,0.00092664723239728,-2.8258988826995e-09,3.2854520511951e-09,3.3241443308489e-10,1.4197919186844e-10,-0.0011443982767906,0.0011443967291624,-0.0011443962400204,0.0011443987680045,-0.0011443983681973,0.0011443966530161,-0.0011443963340435,0.0011443986927309,-0.0010244302358442,0.0010244246529777,-0.0010244242278901,0.0010244306067954,-3.278988285161e-10,-1.449223609015e-10,-2.2806521234244e-10,-2.3037646055068e-10,-0.00092664723186252,0.00092664679782981,-0.0011443977566119,0.0011443972654526,-0.001144397755678,0.0011443972696741,-0.001144397664876,0.0011443973405239,-0.0011443976648297,0.0011443973440877,-0.0010244276655633,0.0010244272693996,-0.0010244276014473,0.0010244271997828,-0.0009279997493321,0.00092799910835065,-0.00092799955171813,0.00092799925278996,3.5278810551848e-09,-2.5936707137283e-09,-0.0013381347203148,0.0013381356218159,5.429775808488e-10,4.5590815952456e-10,-0.0015790181148478,0.001579021042063,-0.0015790181552965,0.0015790209828314,-0.0015790201622388,0.0015790190097812,-0.0015790202053458,0.0015790189515536,-0.0012510944779943,0.001251089384192,-0.0012510884850144,0.0012510953869959,0.70571573555099,131329,3014,0.0038561242786641,0.0038561242787675,0.005557340830059,23.905670435306,-4.8754636517549e-05,-4.8754636517549e-05,-4.8754636517549e-05,4495688.0953214,0.013359707262425
17019200,0.97993870491874,0.014120535378879,0.0042603835960314,0.0042603835960961,0.0055997681867513,-0.00092667940586822,0.00092667984082382,-2.869062209913e-09,3.328444468718e-09,3.3660621691113e-10,1.375535988908e-10,-0.0011447697592756,0.0011447681856871,-0.0011447676938095,0.0011447702531865,-0.001144769853632,0.0011447681065761,-0.0011447677907132,0.0011447701750628,-0.0010245218279983,0.0010245161575976,-0.0010245157357112,0.0010245221959695,-3.327667719592e-10,-1.3963173753009e-10,-2.5108474240709e-10,-2.0700894643532e-10,-0.00092667984022169,0.00092667940651568,-0.0011447692352887,0.0011447687257036,-0.0011447692190359,0.0011447687453429,-0.0011447691402902,0.0011447688040911,-0.0011447691248411,0.0011447688231702,-0.0010245192348276,0.0010245187968221,-0.0010245191253571,0.0010245187729478,-0.00092816555449997,0.00092816491939193,-0.00092816534688153,0.00092816507385704,3.5701577938948e-09,-2.6373348751123e-09,-0.0013384606583034,0.0013384615584152,5.6520778270198e-10,4.3205755937931e-10,-0.0015795913742099,0.0015795943441475,-0.0015795914300934,0.0015795942694978,-0.0015795934502948,0.001579592283186,-0.001579593508758,0.001579592209636,-0.0012515210871286,0.0012515158924241,-0.0012515150100948,0.0012515219793176,0.69245977766041,131329,3014,0.0038562688849431,0.0038562688850381,0.0055586818469971,23.6539089896,-5.0768728083201e-05,-5.0768728083201e-05,-5.0768728083201e-05,4480349.4223769,0.013361369253437
17219200,0.9805616015453,0.014128799341774,0.0042628285090433,0.0042628285091082,0.0056031423236225,-0.00092594898384625,0.00092594941687031,-2.9069122973541e-09,3.3646141745818e-09,3.8189011916606e-10,9.0342863028725e-11,-0.0011443079160751,0.0011443063452301,-0.0011443058243168,0.0011443084377569,-0.0011443080400345,0.0011443062364978,-0.0011443059527322,0.0011443083281038,-0.0010237925002279,0.0010237867273507,-0.0010237863401408,0.0010237928374425,-2.5269896188763e-10,-2.2219442896382e-10,-2.6106987770032e-10,-1.9900987520581e-10,-0.00092594941856168,0.0009259489821084,-0.0011443073719119,0.0011443069059194,-0.0011443073480839,0.0011443069318985,-0.0011443073294338,0.0011443069309439,-0.001144307308268,0.0011443069544382,-0.0010237898903482,0.0010237893824814,-0.001023789767927,0.0010237893750197,-0.00092751931691071,0.00092751885052074,-0.00092751927052343,0.000927518840515,3.6178772994496e-09,-2.6876100093002e-09,-0.001337939422864,0.001337940321005,5.8236949598224e-10,4.1230801589078e-10,-0.0015792620685306,0.0015792650809683,-0.0015792621359172,0.0015792649951524,-0.0015792641761663,0.0015792629880896,-0.0015792642476812,0.0015792629011049,-0.0012510808189422,0.0012510755090501,-0.0012510746446069,0.0012510816961233,0.6747598900288,131329,3014,0.0038532434545533,0.003853243454458,0.0055565159336825,22.993418128863,-5.6052654969099e-05,-5.6052654969099e-05,-5.6052654969099e-05,4459688.1223693,0.01335304946865
17419200,0.98113006451115,0.014135992093293,0.0042649486360401,0.0042649486361052,0.0056060948211474,-0.00092456986191421,0.00092457029474464,-2.9418347244979e-09,3.400174334861e-09,4.1686524758225e-10,5.5170103355919e-11,-0.0011431150307501,0.0011431134575111,-0.0011431129165681,0.0011431155761505,-0.0011431151765204,0.001143113326725,-0.0011431130683885,0.0011431154441688,-0.0010223615792664,0.0010223557135398,-0.0010223553564831,0.0010223618957602,-1.5332597559968e-10,-3.2473041552672e-10,-2.6314046506249e-10,-1.9891473588215e-10,-0.00092457029803736,0.00092456985845252,-0.0011431144541855,0.0011431140492164,-0.0011431144308266,0.001143114078504,-0.0011431144787888,0.001143114009687,-0.001143114459948,0.0011431140363851,-0.0010223589593586,0.0010223583812328,-0.0010223588387032,0.0010223583790928,-0.00092617229457951,0.00092617202624358,-0.0009261724478825,0.00092617181866277,3.6698108976197e-09,-2.737554802227e-09,-0.0013366834142517,0.0013366843148196,5.9385455112169e-10,4.0269198621271e-10,-0.0015781375941419,0.0015781406490449,-0.00157813766783,0.0015781405570049,-0.0015781397366245,0.001578138525421,-0.0015781398154022,0.0015781384312312,-0.0012498802923146,0.0012498748735793,-0.0012498740188071,0.0012498811625877,0.64747799938682,131329,3014,0.0038475222080334,0.0038475222076789,0.0055513092319382,21.98966407467,-6.4082687402643e-05,-6.4082687402643e-05,-6.4082687402643e-05,4435242.4704384,0.013336181488612
17619200,0.98164928688202,0.014142289473791,0.0042667990703645,0.0042667990704316,0.0056086913329948,-0.00092315672918644,0.00092315717029764,-3.0020711010533e-09,3.4679109154373e-09,1.983416591514e-10,2.8350987455618e-10,-0.0011418141812723,0.0011418124297666,-0.0011418120257221,0.0011418145870924,-0.0011418141831334,0.0011418124439656,-0.0011418120284048,0.001141814604153,-0.0010208781423874,0.0010208723031527,-0.0010208717815609,0.0010208786129862,-3.0857626533511e-10,-1.6366536881915e-10,-2.7917957723074e-10,-1.7830821738971e-10,-0.00092315716659399,0.00092315673288294,-0.001141813569193,0.0011418130582127,-0.0011418135349172,0.0011418130958065,-0.0011418134919738,0.0011418131188488,-0.0011418134567705,0.0011418131577584,-0.0010208755012128,0.0010208749900181,-0.001020875334377,0.001020875026283,-0.0009247524898825,0.00092475191921142,-0.00092475232659053,0.00092475202949989,3.6913983073156e-09,-2.7600807180757e-09,-0.0013353442426001,0.0013353451413952,5.8484017838694e-10,4.1073277674855e-10,-0.0015768793262749,0.0015768823907121,-0.0015768793969483,0.0015768823020527,-0.001576881484819,0.0015768802482561,-0.0015768815557056,0.0015768801619107,-0.0012485649139924,0.0012485594669959,-0.0012485586007468,0.0012485657893044,0.62390235564651,131329,3014,0.00384165716844,0.0038416571684261,0.0055457607145113,20.978229206358,-7.2174166349137e-05,-7.2174166349137e-05,-7.2174166349137e-05,4414473.607096,0.013318673040695
17819200,0.98212474886214,0.014147840034975,0.0042684253864601,0.0042684253865274,0.0056109892619873,-0.0009217666793298,0.000921767123727,-3.0473993332481e-09,3.5167594412072e-09,1.4430059771579e-10,3.4144738522264e-10,-0.0011404775570167,0.0011404757422265,-0.0011404753710593,0.0011404779299057,-0.0011404775237425,0.0011404757918223,-0.0011404753373532,0.0011404779840746,-0.0010194077054855,0.0010194018128958,-0.0010194012492771,0.0010194082153032,-3.0699619433004e-10,-1.6508766737258e-10,-2.8578509295423e-10,-1.7152496269884e-10,-0.00092176711817931,0.00092176668492227,-0.0011404769133575,0.0011404764018185,-0.0011404768755189,0.0011404764430238,-0.001140476839623,0.0011404764598815,-0.0011404767995096,0.0011404765040252,-0.0010194050460996,0.0010194045181064,-0.0010194048633096,0.0010194045680462,-0.00092332499476063,0.00092332442738583,-0.00092332483285947,0.00092332453913526,3.7309748131629e-09,-2.7984611067577e-09,-0.0013339900811173,0.0013339909804651,5.872393235947e-10,4.0938889706786e-10,-0.0015755677733488,0.001575570865902,-0.0015755678455219,0.0015755707743731,-0.0015755699586031,0.001575568696041,-0.0015755700312755,0.0015755686101808,-0.0012472062713121,0.0012472007507403,-0.0012471998800244,0.0012472071434021,0.60341630400417,131329,3014,0.0038358859143054,0.0038358859143993,0.0055401522268691,19.988565106923,-8.0091479144614e-05,-8.0091479144614e-05,-8.0091479144614e-05,4397237.3757575,0.013301291975399
18019200,0.9825611200377,0.014152933657111,0.0042699193352854,0.0042699193353532,0.005613094986472,-0.00092040457171516,0.00092040500906815,-3.0777040352838e-09,3.5390593183436e-09,2.4664721068525e-10,2.3051668313827e-10,-0.0011391154633432,0.0011391136900411,-0.0011391132580889,0.0011391158992622,-0.0011391154951557,0.0011391136733801,-0.0011391132944142,0.0011391158814859,-0.0010179679271249,0.0010179619134814,-0.0010179614275341,0.0010179683584415,-1.5817679150179e-10,-3.2346427331679e-10,-2.8410417180246e-10,-1.8187331381293e-10,-0.00092040501104302,0.00092040456981022,-0.0011391147938453,0.0011391143755949,-0.0011391147584265,0.0011391144165768,-0.0011391148163351,0.0011391143360768,-0.0011391147837487,0.0011391143744188,-0.0010179652531385,0.0010179646339428,-0.0010179650892185,0.0010179646640493,-0.00092190557132115,0.00092190530160239,-0.00092190571670073,0.0009219051003723,3.7902248303508e-09,-2.8587533292834e-09,-0.0013326302764112,0.0013326311750357,6.0004135103096e-10,3.9549050088961e-10,-0.0015742180629235,0.0015742212013459,-0.0015742181415578,0.0015742211038532,-0.0015742202855536,0.0015742189949723,-0.0015742203681004,0.0015742188959971,-0.001245821112653,0.0012458154580145,-0.0012458146020076,0.0012458219825608,0.6026570543173,131329,3014,0.0038302290383565,0.0038302290385012,0.0055345220091864,19.017206873991,-8.7862345008072e-05,-8.7862345008072e-05,-8.7862345008072e-05,4382823.5084172,0.01328411919677
18219200,0.98296203534832,0.014157717411715,0.004271326638144,0.0042713266382115,0.0056150641353598,-0.00091902964004818,0.00091903008034157,-3.1229272962736e-09,3.5876936080406e-09,2.0174939331217e-10,2.7913930125066e-10,-0.0011377251664615,0.0011377233346071,-0.0011377229297656,0.0011377255735668,-0.0011377251688232,0.001137723348068,-0.0011377229352602,0.0011377255875688,-0.0010165218724352,0.0010165157985702,-0.0010165152790528,0.001016522338821,-1.6694164696398e-10,-3.1297199927503e-10,-2.8814411097976e-10,-1.758607043945e-10,-0.00091903008011411,0.0009190296402963,-0.0011377244715065,0.0011377240459105,-0.0011377244326125,0.0011377240887359,-0.0011377244889782,0.0011377240114927,-0.0011377244514335,0.0011377240532666,-0.0010165191695524,0.0010165185472407,-0.0010165189944535,0.001016518589968,-0.00092047480036675,0.00092047451463944,-0.00092047492506396,0.00092047433573893,3.8290404695008e-09,-2.8982696584984e-09,-0.0013312381592207,0.0013312390572391,6.0041277924291e-10,3.9439887682622e-10,-0.0015728264204427,0.0015728295854504,-0.0015728265004229,0.0015728294869557,-0.0015728286698555,0.0015728273520984,-0.0015728287526034,0.0015728272537857,-0.0012444049732989,0.0012443992420524,-0.0012443983868894,0.0012444058393449,0.61338753300829,131329,3014,0.0038245187397955,0.0038245187398388,0.0055287581584126,18.046257375879,-9.5629940992967e-05,-9.5629940992967e-05,-9.5629940992967e-05,4368412.206774,0.013266703080984
18419200,0.98334008157769,0.014162267044369,0.0042726670448186,0.0042726670448861,0.0056169329546644,-0.0009183439627792,0.00091834440443706,-3.1643008477518e-09,3.6310269633834e-09,2.0982879940362e-10,2.7261503126851e-10,-0.0011370677886718,0.0011370659350465,-0.0011370655243002,0.0011370682014427,-0.0011370677965417,0.0011370659431332,-0.0011370655341126,0.0011370682118897,-0.0010158018534797,0.0010157956907337,-0.0010157951738595,0.0010158023147923,-1.6550469735628e-10,-3.140298213104e-10,-2.9656677619426e-10,-1.6664126567461e-10,-0.00091834440315271,0.00091834396413472,-0.0011370670842384,0.0011370666552221,-0.0011370670400756,0.0011370667031933,-0.0011370671037064,0.0011370666199258,-0.0011370670595918,0.001137066668569,-0.0010157991165787,0.0010157984735314,-0.0010157989215254,0.0010157985343222,-0.00091976670534529,0.00091976642475589,-0.00091976683323337,0.00091976624797194,3.8732738119085e-09,-2.9415930570572e-09,-0.0013305800519783,0.0013305809502217,6.1010035638231e-10,3.8536768269359e-10,-0.0015721970520067,0.0015722002521765,-0.0015721971388384,0.0015722001467563,-0.0015721993315439,0.0015721979893077,-0.0015721994203673,0.00157219788631,-0.0012437354717206,0.0012437296519753,-0.0012437287992714,0.0012437363302474,0.61738405224787,131329,3014,0.0038216714860378,0.0038216714861861,0.0055260331697195,17.474390359527,-0.00010020487712378,-0.00010020487712378,-0.00010020487712378,4360331.5976069,0.013258170601134
18619200,0.98370421943761,0.014166605134316,0.0042739443849744,0.0042739443850424,0.0056187163642987,-0.00091822603267402,0.00091822647048439,-3.2140945178834e-09,3.6755152412971e-09,1.9861256684595e-10,2.7908776903082e-10,-0.0011370128704958,0.001137010977279,-0.0011370105743259,0.001137013275761,-0.0011370128726084,0.0011370109905127,-0.0011370105793226,0.0011370132889249,-0.0010156733486772,0.0010156670982789,-0.0010156665777162,0.0010156738114927,-2.1296705628078e-10,-2.6732302599079e-10,-3.1273242626065e-10,-1.5191049898129e-10,-0.00091822647137374,0.00091822603190203,-0.0011370121672088,0.0011370116972045,-0.0011370121123946,0.001137011756117,-0.0011370121545323,0.0011370116916025,-0.0011370121008434,0.0011370117488662,-0.001015670566711,0.0010156699261434,-0.0010156703420666,0.0010156700148816,-0.00091964582103253,0.00091964545932555,-0.0009196458548731,0.00091964536972831,3.9109093595801e-09,-2.9818831205175e-09,-0.0013305288900942,0.0013305297861948,6.2006449977869e-10,3.7271862852527e-10,-0.0015721977214904,0.0015722009543181,-0.0015721978154077,0.0015722008418948,-0.0015722000257021,0.0015721986649901,-0.0015722001217288,0.0015721985518746,-0.001243675603437,0.0012436696961199,-0.001243668856406,0.0012436764575769,0.61178642216769,131329,3014,0.0038211823048317,0.0038211823050771,0.0055258212968171,17.230173581624,-0.00010215861134701,-0.00010215861134701,-0.00010215861134701,4358075.3937899,0.013256964682102
18819200,0.98405522783745,0.014171090655768,0.0042752743705459,0.0042752743706134,0.0056205419146087,-0.00091812967348985,0.00091813011186591,-3.2539762358184e-09,3.7168309553657e-09,2.3782039998532e-10,2.407444057766e-10,-0.0011369647920732,0.0011369628973157,-0.0011369624691595,0.001136965222491,-0.0011369648199063,0.0011369628850552,-0.0011369624992864,0.0011369652116672,-0.0010155785587546,0.0010155722022792,-0.0010155717091856,0.0010155789981224,-2.1452591307094e-10,-2.6279537296557e-10,-3.2117223377821e-10,-1.4068393174143e-10,-0.00091813011144997,0.00091812967393981,-0.0011369640914625,0.001136963613882,-0.0011369640304992,0.0011369636789902,-0.0011369640773697,0.0011369636113375,-0.001136964016886,0.0011369636762572,-0.0010155757312967,0.0010155750754912,-0.0010155754880707,0.0010155751862131,-0.00091954729023043,0.00091954693190492,-0.00091954731825698,0.00091954685073484,3.9564176789204e-09,-3.0275329592404e-09,-0.0013304943088678,0.0013304952049156,6.3219711501798e-10,3.603585439409e-10,-0.0015722079161138,0.001572211187098,-0.0015722080184841,0.0015722110661388,-0.0015722102514885,0.0015722088677006,-0.001572210355854,0.0015722087479283,-0.0012436331785998,0.0012436271736183,-0.0012436263417449,0.001243634020785,0.64922939031667,131329,3014,0.0038207823585996,0.0038207823586707,0.0055256785027164,16.993270811304,-0.00010405383350957,-0.00010405383350957,-0.00010405383350957,4356453.3020204,0.013256009228609
19019200,0.98439368268997,0.014175709832127,0.004276651715492,0.0042766517155596,0.0056224064010757,-0.00091800915331818,0.00091800959091357,-3.2982685280134e-09,3.7603583156053e-09,2.5254360776025e-10,2.2510704536958e-10,-0.0011369551102651,0.00113695319549,-0.0011369527578707,0.0011369555500798,-0.0011369551481041,0.0011369531731762,-0.0011369527983063,0.0011369555289003,-0.0010154726251363,0.0010154661722377,-0.0010154656900726,0.0010154730536884,-2.395796449084e-10,-2.3621577197068e-10,-3.3037228457959e-10,-1.3025174872138e-10,-0.00091800959028023,0.00091800915397544,-0.0011369544109438,0.0011369539107183,-0.0011369543433036,0.0011369539825049,-0.0011369543796256,0.0011369539254415,-0.00113695431274,0.0011369539967209,-0.0010154697495863,0.0010154690934466,-0.0010154694876585,0.001015469223044,-0.00091946539353456,0.00091946499288657,-0.00091946537104761,0.00091946496205198,3.9983662662434e-09,-3.0700402756122e-09,-0.0013304576391307,0.0013304585346272,6.4093152707004e-10,3.5099045804126e-10,-0.0015722535093798,0.0015722568139083,-0.0015722536176279,0.0015722566870398,-0.0015722558726943,0.001572254466421,-0.0015722559832671,0.0015722543405078,-0.001243629965136,0.0012436238703671,-0.0012436230451274,0.0012436308006872,0.68719103132826,131329,3014,0.0038202845674565,0.0038202845675066,0.0055255245657283,16.756619213411,-0.00010594704629271,-0.00010594704629271,-0.00010594704629271,4350071.165135,0.013254847482019
19219200,0.98473064186036,0.014180459468439,0.0042780715434021,0.0042780715434698,0.0056243163815672,-0.00091875430243428,0.00091875473864886,-3.3419564044964e-09,3.8026969374247e-09,2.8376118326122e-10,1.9212088836815e-10,-0.001137915965014,0.001137914041643,-0.0011379135840379,0.0011379164248315,-0.0011379160241615,0.0011379139977843,-0.0011379136455813,0.0011379163823556,-0.0010162778361793,0.0010162712756547,-0.0010162708162408,0.0010162782413973,-2.712811702221e-10,-2.0339913362881e-10,-3.4444526473185e-10,-1.1505542313747e-10,-0.00091875473813024,0.00091875430300733,-0.0011379152761894,0.0011379147461117,-0.0011379151989495,0.0011379148275838,-0.0011379152235275,0.0011379147823078,-0.0011379151468507,0.0011379148635204,-0.0010162749102957,0.0010162742474007,-0.0010162746191666,0.0010162744058194,-0.00092031310117342,0.00092031264658576,-0.00092031301553513,0.00092031268039816,4.0411527936738e-09,-3.113374234319e-09,-0.0013313772499763,0.0013313781448227,6.5506943334318e-10,3.3610795877963e-10,-0.0015733184104255,0.0015733217526768,-0.0015733185283862,0.0015733216159594,-0.0015733208024374,0.0015733193763556,-0.0015733209226215,0.0015733192409616,-0.0012446234110685,0.0012446172220679,-0.0012446164068695,0.0012446242363743,0.70677989990877,131329,3014,0.0038233841498893,0.0038233841500029,0.0055293281535799,17.022894228731,-0.00010381684617015,-0.00010381684617015,-0.00010381684617015,4349292.5810485,0.013264990240807
19419200,0.98507128953096,0.014185149216745,0.0042794704272676,0.0042794704273354,0.005626208362142,-0.00091992094474535,0.0009199213801127,-3.3911899924441e-09,3.850133661883e-09,2.5253781149615e-10,2.2228867455711e-10,-0.0011393585780385,0.0011393566034917,-0.0011393561648377,0.0011393590150721,-0.0011393586185238,0.0011393565781364,-0.0011393562034556,0.0011393589938339,-0.0010175150059219,0.0010175083667111,-0.0010175078804534,0.0010175154269966,-3.6763417785767e-10,-1.0478054685159e-10,-3.625624407494e-10,-9.5837968069492e-11,-0.00091992137883646,0.00091992094623277,-0.0011393579003686,0.0011393572983497,-0.0011393578107548,0.001139357388419,-0.0011393577829528,0.0011393573958728,-0.0011393576893713,0.0011393574882293,-0.0010175120280001,0.0010175113889202,-0.0010175116913742,0.0010175115842895,-0.00092160539209479,0.00092160475431821,-0.00092160510936398,0.00092160498246818,4.0772486163241e-09,-3.1525890970377e-09,-0.0013327694469717,0.0013327703381368,6.6543703409068e-10,3.2248382301704e-10,-0.0015748909944387,0.0015748943681472,-0.0015748911226656,0.0015748942218013,-0.0015748934118262,0.0015748919625072,-0.0015748935375674,0.0015748918198368,-0.0012461031026627,0.0012460968367471,-0.0012460960301735,0.0012461039215418,0.69264760114208,131329,3014,0.0038282352584689,0.0038282352589133,0.0055350874556308,17.539958568732,-9.9680331450147e-05,-9.9680331450147e-05,-9.9680331450147e-05,4351962.8130524,0.01328066621402
19619200,0.98541548653973,0.014189758545717,0.0042808420106589,0.0042808420107259,0.0056280745243317,-0.00092109632402731,0.00092109675541636,-3.4269570786665e-09,3.8826307515016e-09,3.8051025858456e-10,8.9459319167442e-11,-0.0011407903163167,0.001140788398589,-0.0011407878789624,0.0011407908377554,-0.0011407904402978,0.0011407882892647,-0.0011407880078532,0.0011407907271259,-0.0010187534650496,0.0010187466757114,-0.0010187462865694,0.0010187537982104,-2.9120270110085e-10,-1.8308727993979e-10,-3.7011620363005e-10,-8.9579549722825e-11,-0.00092109675721398,0.00092109632229774,-0.0011407896458669,0.001140789084525,-0.0011407895502879,0.0011407891841316,-0.0011407895783665,0.0011407891350768,-0.0011407894857763,0.0011407892316488,-0.0010187504413718,0.0010187497449617,-0.00101875010338,0.0010187499490759,-0.00092288779857856,0.00092288732580757,-0.00092288767701993,0.00092288739435506,4.1299515142279e-09,-3.2039544621552e-09,-0.0013341674450275,0.0013341683379897,6.8348580656601e-10,3.0563496320873e-10,-0.0015764559702183,0.0015764593887741,-0.0015764561066554,0.0015764592336443,-0.001576458420489,0.0015764569534409,-0.0015764585614207,0.0015764567968277,-0.0012475731464896,0.0012475667573675,-0.0012475659634555,0.0012475739517611,0.67638955909774,131329,3014,0.0038331217231964,0.0038331217233382,0.0055408714855242,18.062674381145,-9.5498604950839e-05,-9.5498604950839e-05,-9.5498604950839e-05,4356918.5418609,0.013296437545606
19819200,0.98576295817246,0.014194262845239,0.0042821784587774,0.0042821784588444,0.0056299059276171,-0.00092227357888852,0.00092227401048073,-3.4711811124762e-09,3.9272429139542e-09,3.8506747065897e-10,8.5190670424672e-11,-0.0011421968693938,0.0011421949250131,-0.0011421944028436,0.001142197393388,-0.0011421969964164,0.0011421948127821,-0.0011421945337163,0.0011421972810356,-0.0010199898554227,0.0010199829745679,-0.001019982589017,0.0010199901863294,-3.2708683464241e-10,-1.4459609723628e-10,-3.7963600413986e-10,-7.782574109643e-11,-0.00092227401115301,0.00092227357826239,-0.0011421962005958,0.0011421956091792,-0.0011421960984421,0.0011421957153817,-0.0011421961086081,0.00114219568467,-0.0011421960083897,0.0011421957890416,-0.0010199867835824,0.0010199860919386,-0.0010199864237694,0.0010199863190648,-0.00092415582117873,0.00092415528380858,-0.00092415562524778,0.0009241554270925,4.1713368034063e-09,-3.2459269662181e-09,-0.0013355594129207,0.0013355603053826,6.9232541061041e-10,2.9612550245152e-10,-0.0015779993310381,0.0015780027834242,-0.0015779994742221,0.0015780026219287,-0.0015780018097685,0.0015780003202939,-0.0015780019561603,0.0015780001581416,-0.0012490165317225,0.0012490100551848,-0.0012490092686427,0.0012490173299582,0.65786896895438,131329,3014,0.0038380150051948,0.003838015005291,0.0055466312929467,18.585584626544,-9.1315322987648e-05,-9.1315322987648e-05,-9.1315322987648e-05,4363761.4050283,0.013312196756918
20019200,0.98610406006754,0.014198861806427,0.0042835478976397,0.0042835478977068,0.0056317660110806,-0.00092269040494944,0.0009226908371944,-3.5145365401741e-09,3.971208556481e-09,3.6881192563707e-10,1.0228935283637e-10,-0.0011427686436173,0.0011427666606162,-0.0011427661487167,0.0011427691574121,-0.0011427687605181,0.0011427665586207,-0.0011427662679982,0.0011427690566631,-0.0010204383020748,0.0010204313456044,-0.0010204309488608,0.0010204386456465,-3.2967254668226e-10,-1.4139353172503e-10,-3.7615295692829e-10,-8.0886960183355e-11,-0.00092269083740121,0.00092269040476826,-0.0011427679549137,0.0011427673647809,-0.0011427678556899,0.001142767468119,-0.001142767861903,0.0011427674412716,-0.0011427677631821,0.0011427675441718,-0.0010204351888231,0.0010204345042753,-0.0010204348338956,0.0010204347277471,-0.00092462506558715,0.00092462451983032,-0.0009246248615835,0.00092462467002538,4.2136779300905e-09,-3.2884808632846e-09,-0.0013361238641429,0.0013361247566599,6.8816768374376e-10,3.0016013140226e-10,-0.0015786696939292,0.0015786731729659,-0.0015786698351455,0.0015786730134984,-0.001578672201734,0.0015786706808262,-0.0015786723446542,0.0015786705220468,-0.0012496146377711,0.0012496080823507,-0.0012496072936849,0.0012496154383195,0.68048386011946,131329,3014,0.0038397490903098,0.0038397490903635,0.0055489656257046,18.671839725646,-9.0625282194835e-05,-9.0625282194835e-05,-9.0625282194835e-05,4364063.9659152,0.013318079535024
20219200,0.98643638153124,0.014203483568139,0.0042849277179825,0.0042849277180496,0.005633628132107,-0.00092287913740654,0.00092287957166562,-3.555599710193e-09,4.0149531719072e-09,3.5875053385862e-10,1.1481046008984e-10,-0.0011431280877847,0.0011431260706693,-0.0011431255653989,0.0011431285963163,-0.0011431281973738,0.0011431259761701,-0.0011431256773498,0.0011431285039692,-0.0010206569345454,0.0010206499033637,-0.0010206495000288,0.0010206572892055,-3.0470844962993e-10,-1.661841511037e-10,-3.6678804463207e-10,-8.9570833343251e-11,-0.00092287957085374,0.00092287913818437,-0.0011431273705781,0.001143126802597,-0.0011431272781301,0.0011431269004868,-0.0011431272951151,0.0011431268632639,-0.0011431272032383,0.0011431269616857,-0.0010206537837339,0.0010206531004184,-0.0010206534474335,0.0010206533087199,-0.00092487934466073,0.00092487884152261,-0.00092487918997344,0.00092487894524822,4.2583938721079e-09,-3.3312004844648e-09,-0.0013364542138653,0.0013364551084496,6.8023359227186e-10,3.101413318952e-10,-0.0015791145333381,0.001579118037387,-0.0015791146685005,0.0015791178836021,-0.0015791170711018,0.0015791155169725,-0.0015791172083391,0.0015791153651335,-0.0012499988665473,0.0012499922328781,-0.001249991436559,0.0012499996720398,0.699086618529,131329,3014,0.0038405370728047,0.0038405370727325,0.0055503294805993,18.638330019764,-9.089335984189e-05,-9.089335984189e-05,-9.089335984189e-05,4359520.4852802,0.013321062832574
20419200,0.98676010544025,0.014207992042071,0.0042862738982188,0.0042862738982864,0.0056354442455657,-0.00092304194294644,0.00092304237774883,-3.600973992981e-09,4.060342116012e-09,3.1677104650903e-10,1.5746393237907e-10,-0.0011434871085021,0.0011434850339116,-0.0011434845550795,0.0011434875893428,-0.0011434871900065,0.0011434849675873,-0.0011434846390742,0.00114348752426,-0.001020849101366,0.0010208420112559,-0.0010208415761665,0.0010208494828692,-3.0320840409657e-10,-1.6925511054719e-10,-3.5680339124874e-10,-1.0112043048384e-10,-0.00092304237716436,0.00092304194356782,-0.0011434863587726,0.0011434857991978,-0.0011434862726752,0.0011434858894214,-0.0011434862840675,0.0011434858575021,-0.0011434861985994,0.0011434859473009,-0.0010208459115506,0.0010208452466392,-0.0010208455952477,0.0010208454309579,-0.00092512160824371,0.00092512110124498,-0.00092512145833131,0.00092512119840997,4.2989221002925e-09,-3.3719796426307e-09,-0.0013367652736303,0.0013367661677159,6.6812281118909e-10,3.2209457487889e-10,-0.0015795531887813,0.0015795567113935,-0.00157955331589,0.001579556565888,-0.0015795557528578,0.0015795541631655,-0.0015795558819581,0.0015795540185351,-0.0012503785909705,0.001250371886048,-0.0012503710811307,0.0012503794066857,0.69998403054426,131329,3014,0.0038412183782455,0.0038412183783228,0.0055516123928648,18.602068504053,-9.1183451967572e-05,-9.1183451967572e-05,-9.1183451967572e-05,4353202.6092547,0.013323749104676
20619200,0.98707546574318,0.014211882730527,0.0042874230417876,0.0042874230418553,0.0056370366468839,-0.00092317196651985,0.00092317240197201,-3.6430049192298e-09,4.1029664214569e-09,3.000917923135e-10,1.7489759741022e-10,-0.0011438189852985,0.0011438168719903,-0.0011438164037779,0.0011438194555289,-0.0011438190556897,0.0011438168168226,-0.0011438164764702,0.0011438194017888,-0.0010209863866635,0.0010209792253943,-0.0010209787784747,0.0010209867801755,-2.7466743259755e-10,-1.9931868978724e-10,-3.4487865950711e-10,-1.1425238685763e-10,-0.00092317240167559,0.00092317196685594,-0.0011438182028147,0.0011438176701245,-0.0011438181251272,0.0011438177518976,-0.0011438181477879,0.0011438177086443,-0.0011438180705433,0.0011438177901805,-0.0010209831595624,0.0010209824981078,-0.0010209828675869,0.0010209826581843,-0.00092531801000914,0.00092531755061593,-0.00092531791747278,0.00092531759027613,4.3429651568662e-09,-3.4154085081439e-09,-0.0013370392136162,0.0013370401083818,6.5628799614633e-10,3.3464985370609e-10,-0.0015799540703806,0.0015799576148541,-0.0015799541894245,0.0015799574773484,-0.0015799566637497,0.0015799550373214,-0.0015799567846372,0.0015799549008948,-0.0012507089441185,0.001250702162401,-0.0012507013486236,0.0012507097684494,0.63099126972502,131329,3014,0.0038417634973299,0.0038417634974129,0.0055527415376438,18.565711977335,-9.1474304181322e-05,-9.1474304181322e-05,-9.1474304181322e-05,4347269.876284,0.013326003241856
20819200,0.9873679640481,0.014215801396797,0.004288590213647,0.0042885902137147,0.0056386209694356,-0.00092195297243157,0.00092195341014365,-3.6897366153144e-09,4.1517187035199e-09,2.2156604689759e-10,2.5644843067648e-10,-0.0011426021273755,0.0011425999310791,-0.0011425995134652,0.0011426025473819,-0.0011426021445041,0.0011425999296939,-0.0011425995344865,0.0011426025454833,-0.0010197208137388,0.001019713617776,-0.0010197131185219,0.0010197212673102,-2.6120988400019e-10,-2.1180488296026e-10,-3.1784706203363e-10,-1.4061013882296e-10,-0.00092195340872576,0.00092195297374286,-0.0011426012912184,0.0011426007836562,-0.0011426012305941,0.0011426008485779,-0.0011426012442819,0.0011426008135869,-0.0011426011858057,0.0011426008764263,-0.0010197175444518,0.0010197169322877,-0.0010197173101517,0.0010197170410364,-0.00092406509264384,0.00092406464794308,-0.00092406502483883,0.00092406465614612,4.3810878900076e-09,-3.4540795615345e-09,-0.0013358114410333,0.0013358123365629,6.2667881656879e-10,3.6429145414614e-10,-0.0015787300187333,0.0015787335705335,-0.0015787301171412,0.0015787334535132,-0.0015787326368223,0.00157873096803,-0.0015787327386341,0.0015787308501391,-0.0012494785386686,0.00124947169656,-0.0012494708670371,0.001249479381959,0.67642720244408,131329,3014,0.0038367017355289,0.003836701735307,0.0055476569157279,17.740838569968,-9.8073291440259e-05,-9.8073291440259e-05,-9.8073291440259e-05,4333659.1651298,0.013310589357114
21019200,0.98763802063448,0.014219293096697,0.0042896271010249,0.0042896271010925,0.0056400388945798,-0.00092053593064427,0.00092053636891933,-3.7272311747931e-09,4.1896471513319e-09,2.1436118194245e-10,2.6409570946912e-10,-0.0011412367347149,0.0011412345098132,-0.0011412340972296,0.0011412371503035,-0.0011412367477137,0.00114123451245,-0.0011412341115294,0.0011412371550433,-0.0010182466097126,0.0010182393417057,-0.0010182388351774,0.0010182470666305,-1.8631803039869e-10,-2.9143367105949e-10,-2.890846884999e-10,-1.7315867487858e-10,-0.0009205363689241,0.00092053593063129,-0.0011412358491229,0.0011412354116197,-0.0011412358104309,0.0011412354551276,-0.001141235854626,0.0011412353893734,-0.0011412358154362,0.0011412354333502,-0.0010182433048205,0.0010182426922754,-0.0010182431253056,0.0010182427427229,-0.00092264066154147,0.00092264033835604,-0.0009226407435178,0.00092264019955348,4.430684680095e-09,-3.501264342013e-09,-0.0013343859159582,0.0013343868133679,6.0155952891638e-10,3.91968895884e-10,-0.001577335625595,0.0015773391943923,-0.0015773357076963,0.0015773390937634,-0.001577338277509,0.0015773365587149,-0.0015773383603775,0.0015773364596977,-0.0012480837665232,0.0012480768545728,-0.001248076002706,0.001248084630687,0.656016676844,131329,3014,0.0038308197101751,0.0038308197101578,0.0055417513605952,16.829953202098,-0.00010536037438322,-0.00010536037438322,-0.00010536037438322,4313502.2435356,0.013292684885561
21219200,0.98788753262692,0.014222543758937,0.0042905938084416,0.004290593808509,0.0056413561419861,-0.00091912097145222,0.00091912141198286,-3.771345636509e-09,4.2362365373228e-09,1.7111781143891e-10,3.1015841287339e-10,-0.0011398253924957,0.0011398231085675,-0.0011398227235243,0.0011398257797705,-0.0011398253749092,0.0011398231420118,-0.0011398227088228,0.0011398258139411,-0.0010167734083662,0.001016766085051,-0.0010167655455268,0.0010167738955357,-1.6484362234337e-10,-3.1424820688336e-10,-2.6398779096081e-10,-1.992116420239e-10,-0.00091912141126655,0.00091912097219539,-0.0011398244624021,0.0011398240550861,-0.0011398244394281,0.0011398240819286,-0.0011398244815806,0.0011398240189193,-0.001139824459707,0.0011398240448929,-0.0010167700580088,0.0010167694811307,-0.0010167699294771,0.0010167694780434,-0.00092119754424772,0.00092119724748594,-0.00092119767262285,0.00092119706439238,4.472651679679e-09,-3.5408420552352e-09,-0.0013329357986169,0.0013329366978903,5.7538879620842e-10,4.2065647590988e-10,-0.0015758862799963,0.0015758898580993,-0.0015758863429386,0.0015758897764887,-0.0015758889581154,0.0015758871958822,-0.0015758890236087,0.0015758871147974,-0.0012466456685796,0.0012466386957716,-0.0012466378221774,0.0012466465526056,0.65967104713466,131329,3014,0.0038249447326007,0.0038249447326571,0.0055357455076581,15.916963592206,-0.00011266429126235,-0.00011266429126235,-0.00011266429126235,4295975.1772359,0.013274691382915
21419200,0.98812157982459,0.01422561733957,0.0042915089943698,0.0042915089944373,0.005642599350763,-0.00091809763398788,0.00091809807550156,-3.8145052318659e-09,4.2805109535345e-09,1.5242991604717e-10,3.3001452340049e-10,-0.0011388205769431,0.001138818252027,-0.001138817878989,0.0011388209523919,-0.0011388205466252,0.0011388182982273,-0.0011388178514611,0.0011388209996248,-0.0010157104691175,0.0010157030734648,-0.001015702519916,0.0010157109692124,-1.5784906809226e-10,-3.218911928145e-10,-2.4556019151151e-10,-2.1800325280483e-10,-0.00091809807442779,0.00091809763511593,-0.001138819617668,0.0011388192276141,-0.0011388196071691,0.0011388192420377,-0.0011388196419517,0.0011388191865887,-0.0011388196324755,0.0011388192004742,-0.0010157070676179,0.0010157065211531,-0.0010157069746218,0.0010157064813455,-0.00092016032860057,0.00092016003207216,-0.00092016047188342,0.00092015983596909,4.5160720400403e-09,-3.5822280910966e-09,-0.0013318969897857,0.0013318978907631,5.5734830365661e-10,4.4082233573906e-10,-0.0015748578702407,0.0015748614652126,-0.0015748579203921,0.0015748613961888,-0.00157486057674,0.0015748587747676,-0.0015748606295604,0.0015748587067541,-0.0012456216595253,0.0012456146187476,-0.0012456137297282,0.0012456225577455,0.66373456761262,131329,3014,0.0038206961253982,0.0038206961255114,0.0055314428161443,15.228916053647,-0.00011816867157083,-0.00011816867157083,-0.00011816867157083,4282635.9502488,0.013261720684101
21619200,0.98834159327277,0.014228536081771,0.0042923791806138,0.0042923791806815,0.005643777720476,-0.00091710822341362,0.00091710866250052,-3.8533480041871e-09,4.3169610400682e-09,1.9121080752344e-10,2.8855569640978e-10,-0.0011378541450555,0.0011378518195401,-0.0011378514218084,0.0011378545440497,-0.001137854141544,0.0011378518388233,-0.0011378514201975,0.001137854564949,-0.001014681612469,0.0010146741128701,-0.0010146735879563,0.001014682083003,-1.1279863543665e-10,-3.6934316237323e-10,-2.2959651761772e-10,-2.3604665543515e-10,-0.00091710866369056,0.00091710822228169,-0.0011378531656229,0.0011378528157193,-0.0011378531662426,0.0011378528178621,-0.0011378532203296,0.0011378527432341,-0.0011378532210962,0.0011378527454434,-0.0010146781589999,0.0010146776119852,-0.0010146780978505,0.0010146775393457,-0.0009191596476515,0.0009191594281912,-0.00091915987979114,0.00091915914066874,4.5645942100743e-09,-3.6306025789951e-09,-0.0013308907112997,0.0013308916122902,5.4394332958113e-10,4.5447910721054e-10,-0.0015738640135642,0.0015738676323422,-0.0015738640552497,0.0015738675720821,-0.0015738667524656,0.0015738649089258,-0.0015738667955498,0.0015738648499368,-0.0012446327422236,0.0012446256167141,-0.0012446247197961,0.0012446336507234,0.66920858155739,131329,3014,0.003816588512716,0.0038165885128391,0.0055272747306263,14.564652980516,-0.00012348277615587,-0.00012348277615587,-0.00012348277615587,4269548.2687787,0.013249172596098
21819200,0.98854854178526,0.014231238494296,0.0042931840271714,0.0042931840272392,0.0056448704398854,-0.00091610665489394,0.00091610709610313,-3.9013602719158e-09,4.3669455533109e-09,1.4845314356425e-10,3.3372709730743e-10,-0.0011368801273255,0.0011368777418403,-0.0011368773715011,0.0011368804998445,-0.0011368800945372,0.0011368777906071,-0.001136877341297,0.0011368805496047,-0.001013637210122,0.0010136296470693,-0.0010136290910853,0.0010136377126534,-1.606317372586e-10,-3.1840246377881e-10,-2.1714797017838e-10,-2.45957445646e-10,-0.00091610709496068,0.00091610665608074,-0.0011368791293815,0.0011368787563604,-0.0011368791374985,0.0011368787518168,-0.0011368791514662,0.0011368787172797,-0.0011368791604205,0.001136878712174,-0.0010136336958892,0.0010136332071762,-0.0010136336579658,0.0010136331121682,-0.00091814853425952,0.00091814821404774,-0.0009181486705607,0.00091814802331475,4.6020148178416e-09,-3.6674481173304e-09,-0.0013298688395847,0.0013298697414458,5.2987266063629e-10,4.6933885940237e-10,-0.0015728559498267,0.0015728595842552,-0.0015728559814526,0.0015728595339249,-0.0015728587133553,0.0015728568366135,-0.0015728587473249,0.0015728567871612,-0.0012436310199726,0.0012436238312607,-0.0012436229230401,0.0012436319382205,0.65988857673992,131329,3014,0.003812430595553,0.0038124305956462,0.0055230418783817,13.900973615866,-0.00012879221107307,-0.00012879221107307,-0.00012879221107307,4256097.7947925,0.013236457428754
22019200,0.98875518866708,0.014233891072205,0.0042939732267845,0.0042939732268524,0.0056459446185676,-0.00091673478579844,0.00091673522563014,-3.9460966785434e-09,4.4099836562911e-09,1.7801705958338e-10,3.0186431119368e-10,-0.0011375907062589,0.0011375883114251,-0.0011375879215271,0.0011375910988166,-0.0011375906939072,0.0011375883391701,-0.0011375879116656,0.0011375911276794,-0.0010142983626789,0.0010142906912334,-0.0010142901512595,0.0010142988363067,-2.0794052459749e-10,-2.7281765878059e-10,-2.2636777954895e-10,-2.3836499296904e-10,-0.00091673522511956,0.00091673478661655,-0.0011375897201815,0.0011375893131485,-0.0011375897230653,0.0011375893144248,-0.0011375897119917,0.0011375893048966,-0.0011375897155274,0.0011375893056426,-0.001014294789749,0.0010142943102637,-0.0010142947303756,0.0010142942262247,-0.00091880892160043,0.00091880850867557,-0.00091880897058193,0.00091880841267403,4.6457895322011e-09,-3.7083537981605e-09,-0.0013305836281104,0.0013305845309053,5.3847732276977e-10,4.6305204625431e-10,-0.0015736238647086,0.0015736275316854,-0.0015736239013005,0.0015736274762776,-0.0015736266566186,0.0015736247558121,-0.0015736266956305,0.0015736247015773,-0.0012443590480679,0.0012443517782215,-0.0012443508655351,0.0012443599656225,0.64982381565546,131329,3014,0.0038150400849245,0.0038150400855658,0.0055260011061878,14.153844407268,-0.00012676924474185,-0.00012676924474185,-0.00012676924474185,4261589.76064,0.013244745488887
22219200,0.98896271270383,0.014236531491973,0.0042947581573015,0.0042947581573696,0.0056470151773017,-0.0009175339305276,0.00091753436781847,-3.9883084846488e-09,4.4499925998689e-09,2.3544397746575e-10,2.4190957241685e-10,-0.0011384747382966,0.0011384723521573,-0.0011384719258912,0.0011384751665289,-0.0011384747650147,0.0011384723409355,-0.0011384719549448,0.00113847515655,-0.0010151327091403,0.0010151249160038,-0.0010151244228046,0.0010151331475854,-2.2953589974538e-10,-2.4644898392661e-10,-2.3556448770934e-10,-2.2505047405554e-10,-0.00091753436723189,0.00091753393117443,-0.0011384737681983,0.001138473338399,-0.0011384737633491,0.0011384733467407,-0.0011384737437503,0.0011384733460456,-0.0011384737394321,0.0011384733540245,-0.0010151290746013,0.0010151285964178,-0.0010151289975022,0.0010151285397657,-0.00091963289696666,0.00091963245304579,-0.00091963289556145,0.00091963240176983,4.6889417678123e-09,-3.7554714462193e-09,-0.0013314826212732,0.0013314835218264,5.4954770395957e-10,4.4829607650964e-10,-0.0015745806587772,0.001574584363846,-0.001574580704108,0.0015745842997769,-0.0015745834806242,0.0015745815575692,-0.0015745835281163,0.0015745814946871,-0.0012452588814395,0.0012452515072077,-0.0012452506130292,0.0012452597850258,0.6449743800192,131329,3014,0.0038183593149491,0.0038183593150745,0.005529723675767,14.500538076576,-0.00012399569538739,-0.00012399569538739,-0.00012399569538739,4270007.8207815,0.013255245030709
22419200,0.98917104823981,0.014239308728368,0.0042955870743378,0.004295587074406,0.0056481345796237,-0.00091834263639535,0.00091834307200491,-4.0318244227373e-09,4.4918857655615e-09,2.7513292484859e-10,2.0019020938534e-10,-0.0011393618539361,0.0011393594646468,-0.0011393590131608,0.0011393623076009,-0.0011393619075509,0.0011393594263495,-0.0011393590690706,0.0011393622706438,-0.0010159839956635,0.0010159760900012,-0.001015975626004,0.0010159844056504,-2.6198660625705e-10,-2.119935349342e-10,-2.480923210395e-10,-2.1094630037983e-10,-0.00091834307151513,0.00091834263693933,-0.0011393608970687,0.0011393604373893,-0.0011393608835339,0.0011393604547124,-0.001139360850401,0.0011393604675738,-0.001139360837366,0.0011393604846335,-0.0010159803060272,0.0010159798255494,-0.0010159802030751,0.0010159797954735,-0.00092046650019634,0.00092046600146515,-0.00092046643287569,0.00092046601597867,4.7320689203074e-09,-3.7994437214847e-09,-0.0013323935154726,0.0013323944152667,5.6257071488024e-10,4.3432719457293e-10,-0.0015755485195363,0.0015755522619513,-0.0015755485739343,0.0015755521888936,-0.0015755513705093,0.0015755494267699,-0.0015755514269577,0.0015755493549158,-0.0012461690984291,0.0012461616290421,-0.0012461607450125,0.0012461699922007,0.67139356668508,131329,3014,0.0038217180606823,0.0038217180607954,0.0055334957479153,14.84954230814,-0.00012120366153488,-0.00012120366153488,-0.00012120366153488,4278638.1975469,0.013265874744293
22619200,0.98937995059868,0.014242127640158,0.004296429007918,0.0042964290079863,0.005649269624254,-0.00091911096675015,0.00091911140115461,-4.0754875978573e-09,4.5343730908381e-09,3.0437953023782e-10,1.6946899025044e-10,-0.0011402567095143,0.0011402543102724,-0.0011402538400267,0.0011402571819629,-0.0011402567830122,0.0011402542519581,-0.0011402539158169,0.0011402571250139,-0.0010167979754912,0.001016789964308,-0.0010167895216381,0.0010167983644689,-2.8977773338043e-10,-1.826716760737e-10,-2.6122926328892e-10,-1.9657790371172e-10,-0.00091911140066527,0.0009191109672888,-0.0011402557611025,0.0011402552743914,-0.0011402557384807,0.0011402553009052,-0.0011402556954971,0.0011402553236676,-0.0011402556733616,0.0011402553499316,-0.0010167942363911,0.0010167937492975,-0.0010167941066705,0.0010167937463808,-0.00092128419991056,0.00092128365567005,-0.00092128407652604,0.00092128372638846,4.7747926057752e-09,-3.8430607876015e-09,-0.0013332835614438,0.001333284460381,5.7577767703426e-10,4.2010185091212e-10,-0.0015765253018018,0.0015765290813389,-0.0015765253653835,0.0015765289991444,-0.0015765281815591,0.0015765262173974,-0.0015765282471574,0.0015765261363992,-0.0012470825131447,0.0012470749490747,-0.0012470740752403,0.0012470833968577,0.67880270404445,131329,3014,0.0038249109215921,0.0038249109216951,0.0055371797070325,15.187698105983,-0.00011849841515213,-0.00011849841515213,-0.00011849841515213,4283779.2754818,0.013276081450081
22819200,0.98958637921117,0.014244903330166,0.0042972576273221,0.0042972576273904,0.0056503880754539,-0.00091947278659899,0.0009194732208371,-4.1192508909481e-09,4.5780302432891e-09,3.1150160439863e-10,1.6220879001516e-10,-0.0011407417989756,0.0011407393752164,-0.0011407389002955,0.001140742275931,-0.0011407418773241,0.0011407393120697,-0.0011407389808741,0.0011407422142566,-0.0010171869270346,0.0010171788252344,-0.0010171783879928,0.0010171873115953,-3.0693152022513e-10,-1.6414231613661e-10,-2.7059814604566e-10,-1.8615572251689e-10,-0.00091947321996549,0.00091947278749414,-0.0011407408471483,0.0011407403427334,-0.0011407408179253,0.001140740375729,-0.0011407407697483,0.001140740403862,-0.001140740740945,0.001140740436714,-0.0010171831456894,0.0010171826523659,-0.0010171829969088,0.0010171826694224,-0.00092168890342319,0.00092168833244643,-0.00092168874455677,0.00092168843808614,4.8169392586357e-09,-3.8859891925212e-09,-0.0013337462834202,0.001333747181691,5.8475852117563e-10,4.1027986979043e-10,-0.001577070875899,0.0015770746895415,-0.0015770709457923,0.0015770746010314,-0.0015770737840068,0.0015770717971694,-0.001577073855896,0.0015770717100023,-0.0012475749605377,0.001247567305819,-0.0012475664394909,0.0012475758368239,0.67691805547168,131329,3014,0.0038264160965563,0.0038264160966056,0.0055390935824455,15.303776291912,-0.0001175697896647,-0.0001175697896647,-0.0001175697896647,4283782.9621256,0.013281074341471
23019200,0.9897902672228,0.014247436427292,0.0042980085044227,0.004298008504491,0.0056514194183779,-0.00091981227830883,0.00091981271202344,-4.1619458723811e-09,4.6201806270944e-09,3.2309645959553e-10,1.4990562869183e-10,-0.0011412008636964,0.0011411984191164,-0.0011411979367183,0.0011412013481907,-0.0011412009499198,0.0011411983479921,-0.0011411980252667,0.0011412012784344,-0.0010175462905304,0.0010175380973574,-0.0010175376683318,0.0010175466663428,-3.0546799896982e-10,-1.6609661365475e-10,-2.7950344292142e-10,-1.7758434836034e-10,-0.00091981271155114,0.0009198122788251,-0.0011411999038187,0.0011411993945848,-0.0011411998688035,0.0011411994335,-0.0011411998275428,0.0011411994545962,-0.0011411997930294,0.0011411994932484,-0.0010175424728216,0.0010175419608737,-0.0010175423069277,0.0010175419946997,-0.00092206484226833,0.00092206427973237,-0.00092206468724336,0.00092206438210031,4.8605062206361e-09,-3.9300569344584e-09,-0.0013341837068626,0.0013341846045677,5.9405138116749e-10,4.0036755463426e-10,-0.0015775876781027,0.0015775915267352,-0.0015775877543645,0.0015775914318581,-0.001577590615389,0.0015775886052105,-0.0015775906937097,0.0015775885115418,-0.001248035981128,0.0012480282336835,-0.0012480273740331,0.0012480368507242,0.63260005615322,131329,3014,0.0038278284100726,0.0038278284101645,0.0055409027293039,15.414967155218,-0.00011668026275825,-0.00011668026275825,-0.00011668026275825,4283960.3075139,0.013285772600111
23219200,0.98999161289639,0.014250061946215,0.0042987905150733,0.0042987905151417,0.0056524809159997,-0.00092018618496075,0.00092018661872614,-4.2053918981348e-09,4.6636733537744e-09,3.2160476393051e-10,1.5144059512318e-10,-0.0011416112384506,0.0011416087639237,-0.0011416082825095,0.0011416117219595,-0.0011416113236427,0.001141608693792,-0.0011416083699735,0.0011416116532645,-0.0010179460975979,0.0010179378202598,-0.0010179373901504,0.0010179464743737,-3.0898932536838e-10,-1.6244868073078e-10,-2.8842896278463e-10,-1.6856027893377e-10,-0.00092018661816735,0.00092018618557307,-0.0011416102676572,0.0011416097502418,-0.0011416102267373,0.0011416097951163,-0.0011416101890139,0.0011416098126369,-0.0011416101485358,0.0011416098573268,-0.0010179422454184,0.001017941718232,-0.0010179420618422,0.0010179417697295,-0.00092243896692392,0.00092243840320424,-0.00092243880483455,0.00092243851277095,4.9030528752179e-09,-3.9730684480744e-09,-0.0013346270212257,0.0013346279184331,6.0216074554962e-10,3.9170134252815e-10,-0.0015780631541675,0.0015780670364071,-0.0015780632360495,0.0015780669359225,-0.001578066119991,0.0015780640863668,-0.0015780662038697,0.0015780639871234,-0.0012484647239807,0.0012484568867914,-0.0012484560331465,0.0012484655875216,0.65900012596683,131329,3014,0.0038293807911234,0.0038293807912351,0.0055427390802304,15.525990622756,-0.00011579207501795,-0.00011579207501795,-0.00011579207501795,4288976.8404481,0.013290778519625
23419200,0.99019127538707,0.014252634988518,0.004299555940431,0.0042995559404995,0.0056535231075872,-0.00092065969521106,0.00092066012881391,-4.247306645521e-09,4.7054561830142e-09,3.3035466315651e-10,1.4245145302942e-10,-0.0011421725204655,0.0011421700237602,-0.0011421695366909,0.0011421730097348,-0.0011421726115015,0.0011421699477331,-0.001142169629968,0.0011421729353362,-0.0010184509472609,0.0010184425815518,-0.0010184421571082,0.0010184513170286,-2.9458251806358e-10,-1.7794169737645e-10,-2.9702468778901e-10,-1.6089813416305e-10,-0.00092066012871072,0.00092065969538766,-0.0011421715364942,0.0011421710230416,-0.0011421714902807,0.0011421710733714,-0.0011421714679074,0.0011421710756202,-0.0011421714221024,0.0011421711259398,-0.0010184470646459,0.0010184465099738,-0.0010184468644539,0.0010184465769519,-0.00092293802338432,0.00092293749286744,-0.00092293789129446,0.00092293757377873,4.9476344819275e-09,-4.0173025188715e-09,-0.0013351958828218,0.0013351967800078,6.1150084268665e-10,3.8253366288859e-10,-0.0015786967120282,0.0015787006296896,-0.0015786968001303,0.0015787005229891,-0.0015786997076108,0.0015786976502071,-0.0015786997976531,0.0015786975449427,-0.0012490400138748,0.0012490320843902,-0.0012490312358408,0.0012490408715619,0.65256371007419,131329,3014,0.0038313484566171,0.0038313484567702,0.0055450937866044,15.704786665025,-0.0001143617066798,-0.0001143617066798,-0.0001143617066798,4292057.4826728,0.013297153954726
23619200,0.9903934831362,0.014255306822723,0.004300352548935,0.0043003525490036,0.005654601724784,-0.00092173585821344,0.0009217362935575,-4.2876316067682e-09,4.7484709208846e-09,3.4712419594703e-10,1.2763152803266e-10,-0.0011433542908887,0.0011433517774122,-0.0011433512807001,0.0011433547924706,-0.0011433543918927,0.0011433516911294,-0.0011433513840596,0.0011433547093305,-0.0010195906900841,0.0010195822308873,-0.0010195818163876,0.0010195910476399,-2.8316500618625e-10,-1.8995537356358e-10,-3.0987013239753e-10,-1.4833968811927e-10,-0.00092173629257196,0.00092173585932657,-0.0011433532981131,0.0011433527838463,-0.0011433532449155,0.0011433528438827,-0.0011433532383074,0.0011433528302748,-0.0011433531857175,0.0011433528918648,-0.0010195867808592,0.0010195861887012,-0.0010195865530375,0.0010195862807809,-0.00092405588507205,0.00092405538142201,-0.0009240557785195,0.00092405544580964,4.9946157674462e-09,-4.0595777080994e-09,-0.0013364088513744,0.0013364097517855,6.271282876907e-10,3.7116526639118e-10,-0.0015799885520841,0.0015799925098027,-0.0015799886489713,0.0015799923936997,-0.0015799915785333,0.0015799895020444,-0.0015799916779906,0.001579989389333,-0.0012502568650325,0.0012502488452575,-0.0012502479983598,0.0012502577153208,0.66669036617366,131329,3014,0.0038358185673586,0.0038358185676212,0.0055501159342764,16.220022483963,-0.00011023982012829,-0.00011023982012829,-0.00011023982012829,4302255.2300069,0.013311304403042
23819200,0.9905981970209,0.014258171205585,0.0043012104096668,0.0043012104097364,0.0056557503861813,-0.00092282015656929,0.00092282059164435,-4.3363855541332e-09,4.7960770177569e-09,3.0163694149261e-10,1.7303150947675e-10,-0.0011445750520438,0.0011445724769285,-0.0011445720078645,0.0011445755230849,-0.001144575123212,0.00114457242108,-0.0011445720819739,0.0011445754681256,-0.0010207453538524,0.0010207368347769,-0.0010207363877608,0.0010207457439444,-3.233406641114e-10,-1.4754138923941e-10,-3.2268874265027e-10,-1.3397722465456e-10,-0.00092282059008246,0.00092282015820483,-0.0011445740467968,0.0011445734975281,-0.0011445739827313,0.0011445735656692,-0.0011445739582742,0.001144573570157,-0.0011445738952468,0.0011445736374834,-0.0010207414092245,0.0010207408248062,-0.001020741157842,0.0010207409411478,-0.00092519931099136,0.00092519874225899,-0.00092519912189539,0.00092519888017382,5.0297161875054e-09,-4.1004356666227e-09,-0.0013376459846451,0.0013376468803423,6.3361591058651e-10,3.5912532911477e-10,-0.001581324468742,0.0015813284544929,-0.001581324571751,0.0015813283330165,-0.0015813275189685,0.0015813254202992,-0.0015813276246874,0.0015813252996306,-0.0012515140015731,0.001251505893507,-0.0012515050599496,0.00125151484298,0.70079157099936,131329,3014,0.0038403235366307,0.0038403235367842,0.0055552370117946,16.742676298037,-0.0001060585896157,-0.0001060585896157,-0.0001060585896157,4310779.3772636,0.013325627333483
24019200,0.99080527474334,0.014261104050908,0.0043020892370265,0.0043020892370962,0.0056569255767848,-0.00092387731030951,0.00092387774420005,-4.3764017498424e-09,4.83489829547e-09,3.2570528345658e-10,1.4750300376684e-10,-0.0011458320804078,0.0011458294949816,-0.0011458290106388,0.0011458325669958,-0.0011458321686667,0.0011458294217434,-0.0011458291008769,0.00114583249568,-0.0010218756093117,0.0010218669937448,-0.0010218665658671,0.0010218759827842,-2.891191851539e-10,-1.8344498756354e-10,-3.3139621107737e-10,-1.2658543086154e-10,-0.0009238777440309,0.00092387731053203,-0.0011458310615681,0.0011458305291158,-0.0011458309927969,0.0011458306022475,-0.0011458309970394,0.0011458305775774,-0.0011458309283846,0.0011458306509596,-0.0010218716374214,0.0010218710113898,-0.0010218713697903,0.001021871146302,-0.00092634810838995,0.0009263476113671,-0.00092634798629536,0.00092634768153766,5.0759939006942e-09,-4.1477488166502e-09,-0.0013388821135691,0.0013388830087203,6.4449109073957e-10,3.4714075279417e-10,-0.0015826959229242,0.0015826999479816,-0.001582696033998,0.0015826998182592,-0.0015826990049419,0.001582696882015,-0.0015826991177042,0.0015826967540392,-0.0012528024847783,0.0012527942770299,-0.0012527934536796,0.0012528033176363,0.70866202831266,131329,3014,0.0038447180501836,0.0038447180502948,0.005560351544807,17.2655842721,-0.0001018753258232,-0.0001018753258232,-0.0001018753258232,4315464.3452621,0.013339722796209
24219200,0.99101331925394,0.014263912519666,0.0043029272677755,0.0043029272678453,0.0056580579840453,-0.000924746866875,0.00092474730245839,-4.4239750325407e-09,4.8838645716133e-09,2.6856877502592e-10,2.0683659922505e-10,-0.0011469121203398,0.0011469094652942,-0.0011469090171705,0.0011469125685302,-0.0011469121696166,0.0011469094314015,-0.0011469090684356,0.0011469125358184,-0.0010228048658155,0.0010227961978343,-0.0010227957289886,0.0010228052818798,-3.2308396160414e-10,-1.4723133760649e-10,-3.3791321522128e-10,-1.1809112450664e-10,-0.00092474730062297,0.00092474686872975,-0.0011469110809281,0.0011469105210671,-0.0011469110059839,0.0011469105982255,-0.0011469109918048,0.0011469105925075,-0.0011469109168892,0.0011469106691162,-0.0010228008606231,0.0010228002476035,-0.0010228005798622,0.0010228003974006,-0.00092730999187169,0.00092730943514686,-0.00092730980017013,0.00092730957145359,5.1122769857414e-09,-4.1872884797406e-09,-0.0013399260899046,0.0013399269825841,6.464155283905e-10,3.42103310214e-10,-0.001583877989548,0.0015838820404324,-0.0015838781029744,0.001583881908684,-0.0015838810958737,0.0015838789483279,-0.0015838812108219,0.0015838788174284,-0.0012539036192059,0.0012538953305853,-0.0012538945142105,0.0012539044473016,0.68010065556654,131329,3014,0.0038483340785635,0.0038483340786061,0.0055646696127064,17.693256713545,-9.8453946291643e-05,-9.8453946291643e-05,-9.8453946291643e-05,4317716.0954281,0.013351433654797
24419200,0.99121914079315,0.014266687698033,0.0043037554187662,0.0043037554188356,0.0056591768604309,-0.00092521451100959,0.00092521494607739,-4.463111298984e-09,4.9224762931988e-09,2.8165461132143e-10,1.9299180567399e-10,-0.0011475178181486,0.0011475151463245,-0.0011475146902036,0.0011475182763032,-0.0011475178769419,0.0011475151027931,-0.001147514750902,0.0011475182344557,-0.0010233129002877,0.0010233041458138,-0.0010233036878278,0.0010233133066739,-2.697218326424e-10,-2.03468200824e-10,-3.357407058951e-10,-1.2283742917128e-10,-0.00092521494572996,0.00092521451137258,-0.0011475167515495,0.0011475162286851,-0.0011475166800206,0.0011475163043835,-0.0011475167000646,0.0011475162635449,-0.0011475166285977,0.0011475163392681,-0.0010233088689901,0.0010233082225286,-0.0010233085946847,0.0010233083665922,-0.00092783081404185,0.0009278303594118,-0.00092783072947291,0.00092783038890574,5.1604035729778e-09,-4.2338050376917e-09,-0.0013405197838452,0.0013405206780188,6.474051227179e-10,3.4266563788821e-10,-0.001584564701621,0.0015845687857647,-0.0015845648151896,0.0015845686535485,-0.0015845678403209,0.0015845656626885,-0.0015845679554516,0.0015845655319181,-0.0012545269720966,0.0012545185925534,-0.00125451777468,0.0012545278013529,0.67934591834041,131329,3014,0.0038502791499489,0.003850279149982,0.0055671248933861,17.885246576222,-9.6918027390222e-05,-9.6918027390222e-05,-9.6918027390222e-05,4318702.7319074,0.013357867004138
24619200,0.99142263472573,0.014269572635995,0.0043046199912997,0.004304619991369,0.005660332653326,-0.00092568022378622,0.00092568066135376,-4.5080595640513e-09,4.9702672369829e-09,2.4572779189051e-10,2.3194360722319e-10,-0.001148108655321,0.0011481059291593,-0.0011481054961029,0.0011481090903725,-0.0011481086886561,0.0011481059112896,-0.0011481055319595,0.0011481090739232,-0.0010238246250006,0.0010238158073682,-0.0010238153217284,0.0010238250579324,-2.6703800886658e-10,-2.0612021587661e-10,-3.3349123774072e-10,-1.2476022672789e-10,-0.00092568065961762,0.00092568022555632,-0.0011481075600116,0.0011481070400181,-0.0011481074895408,0.001148107114597,-0.0011481075099411,0.0011481070739991,-0.0011481074401486,0.0011481071483492,-0.0010238205608327,0.0010238199170436,-0.0010238202909288,0.0010238200557876,-0.00092834870919512,0.0009283482581926,-0.00092834863175421,0.0009283482834256,5.2007589300905e-09,-4.2730966783002e-09,-0.0013411088026754,0.0013411096975703,6.4318814654363e-10,3.4789808436409e-10,-0.0015852395789455,0.0015852436862651,-0.0015852396889747,0.0015852435574756,-0.0015852427439672,0.0015852405372533,-0.0015852428564144,0.0015852404098802,-0.0012551458952648,0.0012551374414742,-0.0012551366179558,0.0012551467271757,0.70944460480623,131329,3014,0.0038522158624293,0.0038522158625004,0.0055695612137819,18.072027113793,-9.5423783089653e-05,-9.5423783089653e-05,-9.5423783089653e-05,4319728.9071526,0.013364263984937
24819200,0.99162376497995,0.014272198680998,0.0043054013054122,0.0043054013054816,0.0056613960701041,-0.00092611058228449,0.00092611101936029,-4.5484621884259e-09,5.0100646251706e-09,2.4617499222885e-10,2.3094551118493e-10,-0.0011487177224988,0.0011487149700123,-0.0011487145367592,0.0011487181577749,-0.0011487177565673,0.0011487149513232,-0.001148714572971,0.0011487181407694,-0.0010242890685087,0.0010242801710442,-0.0010242796861291,0.0010242895002698,-2.3029136223253e-10,-2.4511788370294e-10,-3.2899851640618e-10,-1.3117010373733e-10,-0.00092611101878085,0.00092611058290978,-0.0011487166003722,0.0011487161078433,-0.0011487165337155,0.0011487161786288,-0.0011487165755923,0.0011487161161121,-0.0011487165092296,0.0011487161869134,-0.0010242849729429,0.001024284312163,-0.0010242847130516,0.0010242844404821,-0.00092885065660203,0.00092885027384386,-0.00092885065275873,0.00092885022460473,5.2469693876281e-09,-4.3190023346787e-09,-0.0013416853485773,0.0013416862437029,6.4003896877826e-10,3.5137902387672e-10,-0.0015859291774576,0.001585933313812,-0.0015859292854548,0.0015859331869858,-0.0015859323733281,0.0015859301337077,-0.0015859324833165,0.0015859300085255,-0.00125577359865,0.0012557650575977,-0.0012557642319067,0.0012557744337961,0.661122295291,131329,3014,0.0038540075012581,0.003854007501354,0.0055719441638256,18.25862908726,-9.3930967301921e-05,-9.3930967301921e-05,-9.3930967301921e-05,4317769.9608859,0.013370315235437
25019200,0.99182479619885,0.014274790053454,0.0043061717561444,0.0043061717562139,0.0056624465410959,-0.00092689964272015,0.00092690008048662,-4.5914471626174e-09,5.0538309096995e-09,2.4055400738726e-10,2.3736865793279e-10,-0.0011496167133562,0.0011496139281209,-0.0011496134985726,0.0011496171448036,-0.0011496167430727,0.0011496139137542,-0.0011496135305003,0.0011496171323003,-0.0010251271035269,0.0010251181251509,-0.0010251176345056,0.001025127537935,-2.1935091231713e-10,-2.5702234646911e-10,-3.2711298833589e-10,-1.3390040902343e-10,-0.00092690007981288,0.00092689964348681,-0.0011496155704595,0.0011496150865821,-0.0011496155052487,0.0011496151557939,-0.0011496155530515,0.0011496150876206,-0.0011496154881565,0.0011496151570028,-0.0010251229702723,0.0010251223041833,-0.0010251227135715,0.0010251224266547,-0.00092968034853628,0.00092967998448706,-0.00092968036820972,0.00092967991431794,5.2904231445574e-09,-4.3611468627217e-09,-0.0013426170612309,0.0013426179570704,6.3787611364611e-10,3.5475476986765e-10,-0.0015869329960908,0.0015869371590171,-0.0015869331021807,0.001586937034082,-0.0015869362204338,0.0015869339505553,-0.001586936328671,0.0015869338275146,-0.0012567132287709,0.0012567046078689,-0.0012567037773991,0.0012567140666065,0.65362539407511,131329,3014,0.003857285762624,0.0038572857628179,0.0055758006286455,18.63048283097,-9.0956137352241e-05,-9.0956137352241e-05,-9.0956137352241e-05,4324801.3152261,0.013380869090678
25219200,0.99202896943586,0.014277520304869,0.0043069861476803,0.00430698614775,0.0056635480094383,-0.00092817999209146,0.00092818043012528,-4.6336479126193e-09,5.0965232641539e-09,2.4737463802167e-10,2.3087930685448e-10,-0.001151014056684,0.0011510112477392,-0.0011510108137462,0.0011510144926942,-0.0011510140908702,0.0011510112289771,-0.0011510108500042,0.0011510144761529,-0.0010264816940804,0.0010264726281811,-0.0010264721419409,0.001026482124601,-2.1933863792574e-10,-2.5651691530858e-10,-3.2732386652744e-10,-1.3305617436342e-10,-0.00092818042908083,0.00092817999321704,-0.0011510129019026,0.0011510124178842,-0.0011510128365039,0.001151012487441,-0.0011510128845617,0.0011510124193249,-0.0011510128193131,0.0011510124893825,-0.0010264775173041,0.0010264768506608,-0.0010264772596526,0.0010264769746062,-0.00093101081644531,0.00093101045232833,-0.00093101083584499,0.00093101038339719,5.3342230380301e-09,-4.4047981204998e-09,-0.0013440784493677,0.0013440793452947,6.3886710696018e-10,3.5388422946206e-10,-0.0015884731550972,0.0015884773477751,-0.0015884732619027,0.0015884772221493,-0.0015884764088425,0.0015884741102911,-0.0015884765177374,0.0015884739869824,-0.0012581776346591,0.0012581689277886,-0.0012581680973316,0.0012581784712164,0.67454675484559,131329,3014,0.0038626036745554,0.0038626036747243,0.0055818510169476,19.271912372961,-8.5824701016308e-05,-8.5824701016308e-05,-8.5824701016308e-05,4337763.0373276,0.013397780654225
25419200,0.99223615850372,0.01428054358078,0.0043078940368854,0.0043078940369554,0.0056647555069395,-0.00092946591643489,0.00092946635373099,-4.6791263104619e-09,5.1409890614602e-09,2.3939605302667e-10,2.3805186744356e-10,-0.0011524565798532,0.0011524537353183,-0.0011524533067017,0.0011524570105368,-0.0011524566089192,0.0011524537216322,-0.0011524533382986,0.0011524569981838,-0.0010278527033101,0.0010278435548898,-0.0010278430645308,0.0010278531389138,-2.3673702581061e-10,-2.383370413475e-10,-3.2737807387787e-10,-1.3255975569937e-10,-0.00092946635284615,0.00092946591737312,-0.0011524554133396,0.0011524549175117,-0.0011524553475235,0.001152454987522,-0.0011524553837938,0.0011524549305789,-0.0011524553186274,0.0011524550002347,-0.0010278484785136,0.0010278478252422,-0.0010278482214219,0.0010278479494194,-0.00093237073509621,0.00093237033867106,-0.00093237071891779,0.00093237030215479,5.37500676388e-09,-4.4463976896615e-09,-0.00134557230083,0.0013455731963048,6.372646532964e-10,3.5477317245252e-10,-0.0015900690837128,0.0015900733029406,-0.001590069189478,0.0015900731784369,-0.0015900723644911,0.0015900700380591,-0.0015900724725329,0.001590069914747,-0.0012596998072585,0.0012596910186499,-0.0012596901897183,0.0012597006452577,0.72789191894464,131329,3014,0.0038679461843719,0.0038679461844833,0.0055880343542195,19.919320951357,-8.064543238914e-05,-8.064543238914e-05,-8.064543238914e-05,4348207.4818476,0.013414879187203
25619200,0.99244614503024,0.01428362641084,0.0043088195876378,0.0043088195877079,0.0056659872354945,-0.00093070842424383,0.00093070886101843,-4.7213787458555e-09,5.1826897455329e-09,2.5100317252537e-10,2.2579741413223e-10,-0.0011539529196427,0.0011539500548345,-0.0011539496186801,0.0011539533578223,-0.001153952956919,0.0011539500329269,-0.0011539496581202,0.0011539533376287,-0.0010291832241145,0.0010291739845905,-0.0010291735030924,0.0010291836517248,-2.3601744169088e-10,-2.3887334888096e-10,-3.2520461552875e-10,-1.3452487148818e-10,-0.00093070886033716,0.00093070842497194,-0.0011539517419232,0.0011539512482155,-0.0011539516776488,0.0011539513166327,-0.0011539517130964,0.0011539512606179,-0.0011539516491102,0.0011539513290665,-0.0010291789519783,0.0010291783022945,-0.0010291786987935,0.0010291784232922,-0.00093373628686759,0.00093373589026828,-0.00093373627149249,0.00093373585300991,5.4189916332901e-09,-4.4907763451005e-09,-0.0013470671367252,0.0013470680319514,6.3632464030727e-10,3.5534040171229e-10,-0.0015917222335868,0.001591726481845,-0.0015917223390429,0.0015917263576199,-0.0015917255440501,0.0015917231873004,-0.0015917256514541,0.0015917230646863,-0.0012612719411438,0.0012612630663344,-0.001261262237439,0.001261272779029,0.73243475776347,131329,3014,0.0038731118998257,0.0038731118999235,0.005594218124454,20.566927216756,-7.5464582265952e-05,-7.5464582265952e-05,-7.5464582265952e-05,4352961.5967448,0.013431624559482
25819200,0.9926534736238,0.014286580253854,0.0043097040271668,0.0043097040272369,0.0056671721994508,-0.00093120921252261,0.00093120965123544,-4.7638263508162e-09,5.2272609130025e-09,2.1237396403294e-10,2.6685982873306e-10,-0.001154686049252,0.0011546831317448,-0.0011546827206858,0.0011546864625784,-0.0011546860612583,0.0011546831355626,-0.0011546827322976,0.0011546864706794,-0.0010297350999381,0.0010297258007573,-0.0010297252924814,0.0010297355590302,-2.6064927684316e-10,-2.1128694248703e-10,-3.1128176000949e-10,-1.4567699363306e-10,-0.00093120964856986,0.00093120921515216,-0.001154684848604,0.0011546843481923,-0.0011546847940582,0.0011546844070748,-0.0011546848036175,0.0011546843771964,-0.00115468474684,0.001154684438708,-0.0010297307764856,0.0010297301695232,-0.0010297305459896,0.0010297302716382,-0.00093434073491783,0.00093434027956886,-0.00093434066386364,0.00093434029616337,5.4616262660078e-09,-4.533535663421e-09,-0.0013477638100285,0.0013477647058199,6.2638941096876e-10,3.6539880302327e-10,-0.0015925603702701,0.0015925646426888,-0.0015925604703408,0.0015925645238651,-0.0015925637105844,0.001592561318608,-0.0015925638101277,0.0015925612040316,-0.0012620460561847,0.001262037106782,-0.0012620362731024,0.0012620468999427,0.71386320031682,131329,3014,0.0038751978393274,0.0038751978392521,0.0055970962953913,20.805445843342,-7.3556433253264e-05,-7.3556433253264e-05,-7.3556433253264e-05,4349630.7187991,0.013438776475949
26019200,0.99285355330302,0.014289306779628,0.0043105174835393,0.0043105174836093,0.005668271812479,-0.00093106122324671,0.00093106166133938,-4.8078288211297e-09,5.2704640955867e-09,2.1341392193941e-10,2.651314902385e-10,-0.0011546991507954,0.0011546962039167,-0.0011546957919438,0.0011546995650227,-0.0011546991629781,0.0011546962074846,-0.0011546958061133,0.0011546995703141,-0.0010296020509606,0.0010295926682375,-0.0010295921614986,0.0010296025081459,-2.2777077049491e-10,-2.4615452595518e-10,-2.9566533857493e-10,-1.6317400695107e-10,-0.00093106165983741,0.00093106122472161,-0.0011546979199362,0.0011546974507876,-0.0011546978751271,0.0011546974998439,-0.0011546978965698,0.001154697457743,-0.0011546978519202,0.0011546975068774,-0.0010295976801742,0.0010295970843627,-0.0010295974853959,0.001029597150387,-0.00093425362876595,0.00093425323113207,-0.00093425362735567,0.00093425317680799,5.5045752290641e-09,-4.5758272134431e-09,-0.0013477323391183,0.0013477332356369,6.0952182243848e-10,3.8309747307634e-10,-0.0015926261415007,0.001592630430375,-0.0015926262287016,0.0015926303242699,-0.0015926295088555,0.0015926270789133,-0.0015926295979959,0.0015926269745677,-0.0012620694776989,0.0012620604538533,-0.0012620596078752,0.001262070334021,0.68688292587244,131329,3014,0.0038745880516426,0.0038745880515865,0.0055969608719783,20.67556667218,-7.4595466622562e-05,-7.4595466622562e-05,-7.4595466622562e-05,4341337.5490488,0.013437407204096
26219200,0.99304657983126,0.014292109566589,0.0043113585187212,0.0043113585187911,0.0056693925290769,-0.00093092801142987,0.00093092845015452,-4.8497880818031e-09,5.3131649870744e-09,2.0785674514853e-10,2.714082776046e-10,-0.0011546602358807,0.0011546572575261,-0.0011546568490709,0.0011546606463866,-0.0011546602443122,0.0011546572648354,-0.0011546568587395,0.0011546606563341,-0.0010294904423506,0.0010294809797383,-0.0010294804678504,0.0010294909028688,-2.0806101286331e-10,-2.6743192086266e-10,-2.8051800988344e-10,-1.7942991827081e-10,-0.0009309284488113,0.00093092801278826,-0.0011546589774126,0.0011546585319097,-0.0011546589432678,0.0011546585699939,-0.0011546589679589,0.001154658525074,-0.0011546589332299,0.0011546585641658,-0.001029486024687,0.001029485442957,-0.0010294858587848,0.0010294854784955,-0.00093415561653792,0.00093415524482819,-0.00093415565525183,0.00093415515285007,5.549226528821e-09,-4.6189623386358e-09,-0.001347687635003,0.0013476885327224,5.9361265477616e-10,4.0057752321987e-10,-0.0015926415008852,0.0015926458090337,-0.001592641577318,0.0015926457136675,-0.0015926448979545,0.001592642428001,-0.0015926449756557,0.0015926423354018,-0.0012620559683603,0.0012620468725588,-0.0012620460127536,0.0012620568367745,0.7252466202979,131329,3014,0.0038740374226632,0.0038740374226953,0.0055967729537961,20.537468820413,-7.5700249436699e-05,-7.5700249436699e-05,-7.5700249436699e-05,4336075.5170388,0.013436101969426
26419200,0.99323283888952,0.014294898195379,0.0043121972118717,0.0043121972119418,0.0056705037715656,-0.00093077191935821,0.00093077235801522,-4.8934112808208e-09,5.3565986808813e-09,1.9994903816472e-10,2.7923911311324e-10,-0.0011546528852869,0.001154649872172,-0.0011546494690324,0.0011546532905514,-0.001154652887923,0.0011546498851867,-0.0011546494738043,0.0011546533052185,-0.0010293554228753,0.0010293458815231,-0.0010293453640764,0.0010293558881242,-1.95220293929e-10,-2.8130270039008e-10,-2.6568209377961e-10,-1.9517508896906e-10,-0.00093077235708499,0.00093077192032101,-0.0011546516005063,0.0011546511729683,-0.0011546515760875,0.0011546512013511,-0.0011546515992955,0.0011546511576177,-0.0011546515751726,0.0011546511860075,-0.0010293509552292,0.0010293503948116,-0.0010293508202484,0.0010293503986882,-0.00093406309160592,0.0009340627360736,-0.00093406315781423,0.00093406261635042,5.5924207267974e-09,-4.6611604323954e-09,-0.0013476370540612,0.0013476379526542,5.7876982444974e-10,4.1653995457855e-10,-0.0015926821253356,0.0015926864520275,-0.0015926821910368,0.0015926863673694,-0.0015926855503174,0.0015926830429256,-0.0015926856181124,0.0015926829599758,-0.0012620686091823,0.001262059439952,-0.0012620585689329,0.0012620694894752,0.74502756345852,131329,3014,0.0038733937532411,0.0038733937533093,0.005596558892048,20.399088605703,-7.6807291154373e-05,-7.6807291154373e-05,-7.6807291154373e-05,4327164.3406027,0.013434584637198
26619200,0.99341670623101,0.01429762341013,0.0043130162416571,0.0043130162417272,0.0056715909267457,-0.00093125034317676,0.00093125078335791,-4.9336333005951e-09,5.3979428682271e-09,1.5312376349766e-10,3.2762200213743e-10,-0.001155341621922,0.0011553385542002,-0.0011553381810682,0.0011553419964104,-0.0011553415954447,0.0011553385964015,-0.0011553381506576,0.001155342045896,-0.0010298813080303,0.0010298717119715,-0.0010298711569951,0.0010298818030141,-2.5385032913714e-10,-2.2136559799727e-10,-2.5387471117316e-10,-2.0624866235503e-10,-0.0009312507807801,0.00093125034590943,-0.0011553403232614,0.0011553398691911,-0.0011553403090569,0.0011553398865509,-0.0011553402848091,0.0011553398903975,-0.0011553402647333,0.0011553399133115,-0.0010298767866209,0.0010298762788411,-0.0010298766626068,0.0010298762653349,-0.00093464261531493,0.00093464212650693,-0.00093464255812754,0.00093464213198288,5.6387344356512e-09,-4.7056623800679e-09,-0.0013482822166526,0.0013482831162464,5.7957788235236e-10,4.1739209807556e-10,-0.0015934512334533,0.0015934555938924,-0.0015934513023046,0.001593455506383,-0.001593454691324,0.0015934521510051,-0.0015934547561081,0.0015934520707313,-0.0012627970478188,0.001262787801879,-0.0012627869260907,0.0012627979317021,0.73848440903511,131329,3014,0.0038753861641262,0.0038753861644502,0.0055992244172358,20.630219861746,-7.4958241106032e-05,-7.4958241106032e-05,-7.4958241106032e-05,4323970.2004982,0.01344133095584
26819200,0.99360039733042,0.014300272888227,0.004313810852096,0.0043138108521661,0.0056726511839653,-0.00093208542935791,0.00093208586913108,-4.9753129793096e-09,5.4385860916634e-09,1.3080851650726e-10,3.4948812770113e-10,-0.0011563961730498,0.001156393065277,-0.0011563927056687,0.0011563965324603,-0.0011563961340658,0.0011563931199984,-0.0011563926591657,0.0011563965972367,-0.0010307764931867,0.0010307668262177,-0.0010307662554143,0.0010307770013372,-3.0408242834465e-10,-1.6920796319339e-10,-2.4854133074214e-10,-2.1071016585512e-10,-0.0009320858660189,0.00093208543264538,-0.0011563948681584,0.001156394387197,-0.0011563948580913,0.001156394398826,-0.0011563947971264,0.0011563944395924,-0.0011563947775532,0.0011563944595194,-0.0010307719163067,0.0010307714481981,-0.0010307717959624,0.0010307714289427,-0.00093558232263289,0.00093558172790445,-0.00093558215952175,0.00093558183635611,5.68290406277e-09,-4.7516299983181e-09,-0.0013493234792924,0.0013493243772124,5.8374353118288e-10,4.1142221521609e-10,-0.0015946200746937,0.0015946244686749,-0.0015946201484867,0.0015946243763372,-0.0015946235634666,0.0015946209932118,-0.0015946236296506,0.0015946209107747,-0.0012639148272417,0.0012639054938261,-0.0012639046231712,0.0012639157078905,0.72121906038759,131329,3014,0.0038788593254275,0.0038788593257954,0.0056035302677714,21.065247290662,-7.14780216747e-05,-7.14780216747e-05,-7.14780216747e-05,4326064.3774675,0.013452740811233
27019200,0.9937838069477,0.01430283790207,0.0043145781634303,0.0043145781635002,0.0056736815751396,-0.00093293573845235,0.00093293617339671,-5.0264544840893e-09,5.4856052590836e-09,2.6691026860392e-10,2.0765962261166e-10,-0.0011574380008957,0.001157434942424,-0.0011574344954421,0.001157438449677,-0.0011574380488842,0.0011574349096161,-0.0011574345487724,0.0011574384151505,-0.0010316837485124,0.0010316739048687,-0.0010316734362593,0.00103168416169,-1.9670253595046e-10,-2.8060029441612e-10,-2.6610096060392e-10,-1.9591502446949e-10,-0.00093293617459735,0.00093293573732654,-0.0011574366941194,0.0011574362651606,-0.0011574366678934,0.001157436295038,-0.0011574366914761,0.0011574362508152,-0.001157436668719,0.0011574362772947,-0.0010316791282606,0.0010316785707955,-0.0010316789968047,0.0010316785684801,-0.00093651872223873,0.0009365183687127,-0.00093651879198808,0.00093651824554018,5.7211173871439e-09,-4.7879658032842e-09,-0.0013503732550591,0.0013503741552562,5.7073509502285e-10,4.2646804634098e-10,-0.001595781274503,0.0015957856793286,-0.0015957813319382,0.0015957856026384,-0.0015957847823463,0.0015957821864678,-0.0015957848455115,0.0015957821082048,-0.0012650216827624,0.0012650122686314,-0.0012650113876581,0.001265022571463,0.70228506617054,131329,3014,0.0038823945723034,0.0038823945724593,0.005607872416105,21.504861140446,-6.7961110876433e-05,-6.7961110876433e-05,-6.7961110876433e-05,4330246.7452414,0.013464311801655
27219200,0.99396677591565,0.01430531038796,0.0043153156056222,0.0043153156056921,0.005674679176646,-0.00093379653416065,0.00093379696890456,-5.0693899655575e-09,5.5285090024037e-09,2.7510646086293e-10,1.9930763711203e-10,-0.0011584557539096,0.0011584526712954,-0.001158452220306,0.0011584562068179,-0.0011584558066074,0.0011584526338483,-0.0011584522776229,0.0011584561683941,-0.0010325995637278,0.001032589629674,-0.0010325891671194,0.0010325999719081,-2.1579391865019e-10,-2.6002190195056e-10,-2.6613385826022e-10,-1.9446216627283e-10,-0.000933796969603,0.00093379653351681,-0.0011584544417533,0.0011584539993839,-0.0011584544156022,0.0011584540292657,-0.0011584544251746,0.0011584539991985,-0.0011584544017912,0.0011584540264528,-0.0010325948917383,0.0010325943473592,-0.0010325947586291,0.0010325943475565,-0.00093744463624527,0.000937444243991,-0.00093744466518715,0.00093744416160695,5.7643959176027e-09,-4.8313783433551e-09,-0.0013514229013314,0.0013514238014396,5.729335366855e-10,4.2414649820386e-10,-0.0015969239622864,0.0015969283987104,-0.0015969240223898,0.0015969283197444,-0.0015969274999466,0.0015969248766145,-0.0015969275644593,0.0015969247966312,-0.0012661062032045,0.0012660967017521,-0.0012660958240328,0.0012661070907814,0.68191773386946,131329,3014,0.0038859720593314,0.0038859720594453,0.0056122153612435,21.944632854316,-6.4442937165469e-05,-6.4442937165469e-05,-6.4442937165469e-05,4336439.1736098,0.013475967683746
27419200,0.99414770445475,0.014307839837549,0.00431607223704,0.00431607223711,0.0056756953633991,-0.00093444436891761,0.00093444480659397,-5.1087914969266e-09,5.5720186663016e-09,2.7350353312539e-10,2.0455370655409e-10,-0.0011592088994158,0.0011592057897304,-0.0011592053402284,0.0011592093529486,-0.0011592089506785,0.0011592057540487,-0.0011592053943835,0.0011592093195037,-0.0010332973139434,0.001033287300423,-0.0010332868369745,0.0010332977310932,-2.3204177265436e-10,-2.4000396510795e-10,-2.6110312026199e-10,-1.9534677499031e-10,-0.00093444480440921,0.00093444437104863,-0.0011592075769315,0.0011592071268774,-0.0011592075548708,0.0011592071548597,-0.0011592075504502,0.0011592071395834,-0.0011592075294627,0.0011592071681535,-0.0010332925930634,0.0010332920680323,-0.0010332924653095,0.0010332920692807,-0.0009381308139513,0.00093813038475899,-0.00093813080586618,0.000938130344103,5.8102508164141e-09,-4.8751779897765e-09,-0.0013522252816224,0.001352226183949,5.756404309035e-10,4.2350390192297e-10,-0.0015977928767339,0.0015977973469404,-0.0015977929387879,0.0015977972655693,-0.0015977964463547,0.0015977937953338,-0.0015977965117351,0.0015977937167298,-0.0012669216235407,0.0012669120363771,-0.0012669111578481,0.0012669225070769,0.70214879180383,131329,3014,0.0038886637617804,0.0038886637616659,0.0056155360065051,22.252694448072,-6.1978444415422e-05,-6.1978444415422e-05,-6.1978444415422e-05,4342056.2964423,0.013484790068212
27619200,0.99432606345911,0.014310375119097,0.0043168314710609,0.0043168314711314,0.0056767121769042,-0.00093500718829205,0.00093500762374526,-5.1542448071827e-09,5.6141460591328e-09,2.5511443537029e-10,2.2030246226394e-10,-0.0011599029061136,0.0011598997553271,-0.0011598993167222,0.0011599033460627,-0.0011599029467493,0.0011598997301076,-0.0011598993592477,0.0011599033223877,-0.0010339099551653,0.0010338998653677,-0.0010338993884716,0.0010339103792855,-2.5714721895314e-10,-2.1607836547632e-10,-2.5989901011245e-10,-1.9823470126956e-10,-0.00093500762307895,0.00093500718898802,-0.0011599015708838,0.0011599011067269,-0.0011599015491431,0.0011599011317131,-0.0011599015272284,0.0011599011333135,-0.0011599015054853,0.0011599011581564,-0.0010339051860511,0.0010339046797272,-0.0010339050595207,0.0010339046747493,-0.00093874600771315,0.00093874552753292,-0.00093874594845782,0.00093874553202514,5.8510892518868e-09,-4.9190274514409e-09,-0.0013529478231545,0.0013529487226151,5.7479415143323e-10,4.213957322967e-10,-0.001598598710567,0.0015986032077624,-0.0015985987736264,0.0015986031259836,-0.0015986023074955,0.0015985996260187,-0.0015986023721607,0.00159859954569,-0.0012676735558589,0.001267663884325,-0.0012676630104424,0.0012676744411635,0.71252807897086,131329,3014,0.0038910035216229,0.0038910035216858,0.0056185250956339,22.519621025778,-5.9843031793779e-05,-5.9843031793779e-05,-5.9843031793779e-05,4344616.1158676,0.013492564815595
27819200,0.99450178402461,0.014312918201154,0.0043175940370915,0.0043175940371619,0.0056777301269001,-0.00093556003552279,0.00093556047102419,-5.1965334852926e-09,5.6565619677677e-09,2.6632477225514e-10,2.0899394023153e-10,-0.001160603340355,0.0011606001688602,-0.0011605997231124,0.0011606037881056,-0.0011606033885859,0.0011606001359567,-0.001160599773199,0.0011606037571391,-0.0010345152147729,0.0010345050339049,-0.0010345045649697,0.0010345156309813,-2.5023711683205e-10,-2.2328959457528e-10,-2.601150024189e-10,-1.9833289651445e-10,-0.00093556047042604,0.00093556003616454,-0.0011606019922394,0.0011606015327323,-0.0011606019708236,0.0011606015580212,-0.0011606019538118,0.0011606015548056,-0.0011606019323884,0.0011606015803614,-0.0010345104034881,0.0010345098909517,-0.0010345102764497,0.0010345098864787,-0.00093936162714319,0.00093936115984854,-0.00093936158234296,0.0009393611517748,5.8953891389086e-09,-4.9624785523337e-09,-0.0013536656914801,0.0013536665916932,5.748272808035e-10,4.2214076844812e-10,-0.0015994093418111,0.0015994138684327,-0.0015994094045484,0.0015994137868396,-0.0015994129682844,0.0015994102577488,-0.0015994130327638,0.0015994101780797,-0.0012684311587709,0.0012684214029414,-0.0012684205267706,0.0012684320441129,0.72383357200618,131329,3014,0.0038933025287255,0.0038933025288168,0.005621494181776,22.785605530918,-5.7715155752652e-05,-5.7715155752652e-05,-5.7715155752652e-05,4346063.7566339,0.013500237621989
28019200,0.99467480996439,0.014315470811988,0.0043183605056853,0.0043183605057558,0.005678749800547,-0.00093610366641606,0.00093610410218846,-5.2399689856326e-09,5.7002484727926e-09,2.6090029811616e-10,2.1474566484382e-10,-0.001161312120714,0.0011613089166516,-0.0011613084744339,0.0011613125649441,-0.0011613121651555,0.0011613088875497,-0.0011613085206988,0.0011613125377938,-0.0010351132112941,0.0010351029490721,-0.0010351024759458,0.0010351136312604,-2.5749736261979e-10,-2.1571865585674e-10,-2.5997266059134e-10,-1.9827921717124e-10,-0.00093610410131347,0.00093610366733511,-0.0011613107586369,0.0011613102944728,-0.00116131073728,0.0011613103197244,-0.0011613107152011,0.0011613103215616,-0.0011613106938027,0.0011613103470938,-0.0010351083567563,0.00103510784936,-0.001035108229612,0.0010351078446473,-0.00093997947868182,0.00093997899690978,-0.00093997941925669,0.0009399790035268,5.9380872171587e-09,-5.0050877840627e-09,-0.0013543802879998,0.001354381188203,5.7541813001817e-10,4.2162015058793e-10,-0.0016002262184397,0.0016002307737862,-0.0016002262815605,0.0016002306918073,-0.0016002298733194,0.001600227134676,-0.0016002299381637,0.0016002270546516,-0.0012691965830046,0.0012691867434812,-0.0012691858675201,0.0012691974681585,0.73612510500394,131329,3014,0.0038955639433004,0.0038955639433925,0.0056244489985128,23.051557465407,-5.5587540276746e-05,-5.5587540276746e-05,-5.5587540276746e-05,4346428.9988399,0.013507820683094
28219200,0.9948444178833,0.014318024673183,0.004319128435027,0.0043191284350975,0.0056797678030583,-0.00093651999295776,0.00093652042906522,-5.2813710307697e-09,5.7423973376443e-09,2.5603873363362e-10,2.2018083130321e-10,-0.00116190650213,0.0011619032669743,-0.0011619028285172,0.0011619069427047,-0.0011619065433919,0.0011619032409188,-0.001161902870725,0.0011619069197061,-0.0010355789532352,0.0010355686113046,-0.0010355681353293,0.0010355793779011,-2.5638604983188e-10,-2.1615248560354e-10,-2.5788552669192e-10,-1.9942978320764e-10,-0.00093652042782798,0.0009365199941967,-0.0011619051237002,0.0011619046612809,-0.0011619051038991,0.001161904685054,-0.0011619050809344,0.0011619046873984,-0.0011619050602292,0.0011619047125772,-0.0010355740579714,0.0010355735529467,-0.0010355739330194,0.0010355735474579,-0.00094047770787409,0.00094047722579656,-0.00094047764756891,0.00094047723255172,5.9824018320246e-09,-5.049675104833e-09,-0.0013549618746633,0.0013549627748796,5.7577711816898e-10,4.2104545432098e-10,-0.0016009157630522,0.0016009203490434,-0.0016009158267575,0.0016009202661588,-0.0016009194478358,0.0016009166796618,-0.0016009195125135,0.001600916599926,-0.0012698406516561,0.0012698307248742,-0.0012698298512724,0.0012698415353063,0.74948917981379,131329,3014,0.003897297368426,0.0038972973684296,0.005626852360806,23.251275115969,-5.3989799072251e-05,-5.3989799072251e-05,-5.3989799072251e-05,4344391.4085996,0.013513775259342
28419200,0.99501051589368,0.014320580829152,0.0043198982198739,0.0043198982199444,0.0056807843893337,-0.00093690890178098,0.00093690933777555,-5.3296036692663e-09,5.7902604041957e-09,2.6170503053214e-10,2.1425444455614e-10,-0.0011624904554954,0.0011624871909657,-0.0011624867480972,0.0011624909004088,-0.0011624904993255,0.0011624871625201,-0.0011624867961468,0.0011624908716675,-0.0010360174636715,0.0010360070286877,-0.0010360065563393,0.00103601788396,-2.4276605669704e-10,-2.3085419455914e-10,-2.6168872608307e-10,-1.9670935122665e-10,-0.00093690933698279,0.00093690890259791,-0.0011624890595934,0.0011624886026,-0.001162489035928,0.0011624886301965,-0.0011624890250812,0.0011624886208684,-0.0011624890037703,0.0011624886465005,-0.0010360125276135,0.0010360120104611,-0.0010360124010406,0.0010360120060919,-0.00094095967428979,0.00094095922649209,-0.00094095964777745,0.00094095920038752,6.0208127180102e-09,-5.0876365851358e-09,-0.001355520217843,0.0013555211183066,5.7232558675795e-10,4.2492650405169e-10,-0.0016015893830889,0.001601593990332,-0.0016015894427421,0.0016015939116771,-0.0016015930917924,0.0016015902974362,-0.0016015931557099,0.0016015902186174,-0.0012704741949527,0.0012704641922035,-0.0012704633141585,0.0012704750817056,0.76402417545038,131329,3014,0.0038989175889199,0.0038989175889707,0.0056291587505853,23.441875419991,-5.2464996640072e-05,-5.2464996640072e-05,-5.2464996640072e-05,4341126.0023546,0.013519402869749
28619200,0.99517310928113,0.01432310104427,0.0043206574858803,0.0043206574859509,0.0056817860724391,-0.00093728309372772,0.00093728352975848,-5.3715799940066e-09,5.8321670282712e-09,2.556908491436e-10,2.2030428909049e-10,-0.0011630795330525,0.001163076237094,-0.0011630757982406,0.0011630799739386,-0.0011630795732309,0.0011630762122515,-0.0011630758416401,0.001163079949691,-0.001036439598158,0.0010364290838945,-0.0010364286071504,0.0010364400221482,-2.3998640127886e-10,-2.3403562777296e-10,-2.613163367879e-10,-1.9752457417804e-10,-0.0009372835291043,0.00093728309441923,-0.0011630781201614,0.0011630776657797,-0.0011630780974269,0.0011630776924404,-0.0011630780879179,0.0011630776815721,-0.001163078066541,0.0011630777071581,-0.0010364346238317,0.0010364341039908,-0.0010364344968577,0.0010364340994691,-0.0009414378144205,0.00094143736995218,-0.00094143779204511,0.00094143733923938,6.065008278925e-09,-5.1319575767482e-09,-0.0013560704974842,0.0013560713977808,5.7315642302353e-10,4.2395112099603e-10,-0.001602263070709,0.0016022677087263,-0.0016022631316438,0.0016022676288672,-0.0016022668095802,0.0016022639856162,-0.0016022668736024,0.0016022639063977,-0.0012711121445058,0.0012711020553932,-0.0012711011781864,0.0012711130310999,0.76896080433386,131329,3014,0.003900477380383,0.0039004773804611,0.0056314309628589,23.632256700091,-5.0941946399269e-05,-5.0941946399269e-05,-5.0941946399269e-05,4336835.0554852,0.013524874142033
28819200,0.99533222856219,0.014325496802833,0.0043213776359512,0.0043213776360219,0.0056827415308595,-0.00093764997168995,0.00093765040807356,-5.4129022258173e-09,5.8738206509875e-09,2.4887239950138e-10,2.2753139348388e-10,-0.0011636657978048,0.0011636624703358,-0.0011636620358664,0.0011636662343472,-0.0011636658337869,0.0011636624497087,-0.0011636620740539,0.0011636662153518,-0.0010368495200908,0.0010368389280831,-0.0010368384461254,0.0010368499488607,-2.3821323757913e-10,-2.3593139733092e-10,-2.6089800091106e-10,-1.9809544200836e-10,-0.0009376504072838,0.00093764997252298,-0.0011636643681519,0.0011636639157619,-0.0011636643462874,0.0011636639415986,-0.0011636643376219,0.0011636639298836,-0.0011636643160986,0.0011636639556816,-0.0010368445079184,0.0010368439860375,-0.0010368443802468,0.0010368439818705,-0.00094190878823562,0.00094190834536055,-0.00094190876806674,0.00094190831256988,6.1097318532975e-09,-5.176675239419e-09,-0.0013566142574974,0.0013566151577265,5.7483978203924e-10,4.222365471692e-10,-0.0016029295404242,0.0016029342097629,-0.0016029296030072,0.0016029341282541,-0.0016029333096336,0.00160293045636,-0.0016029333743011,0.0016029303765235,-0.0012717449155291,0.0012717347393111,-0.0012717338630015,0.0012717458009755,0.74978435830208,131329,3014,0.0039020068719884,0.0039020068720789,0.0056336759961784,23.824856423594,-4.9401148611248e-05,-4.9401148611248e-05,-4.9401148611248e-05,4332619.5079585,0.013530256392339
29019200,0.99548902359156,0.014327718397052,0.0043220422436939,0.0043220422437646,0.005683633909593,-0.00093824100601351,0.00093824143999379,-5.4613969267492e-09,5.9186847168035e-09,2.6756501057259e-10,2.0561095213831e-10,-0.0011644501590056,0.0011644468118159,-0.0011644463641557,0.0011644506080198,-0.001164450207689,0.0011644467784692,-0.0011644464176337,0.0011644505726842,-0.0010374891959931,0.0010374785013417,-0.0010374780327642,0.001037489606069,-2.1950992140017e-10,-2.5806829192244e-10,-2.7157304588216e-10,-1.9132474867066e-10,-0.00093824144167804,0.00093824100447283,-0.0011644487167778,0.0011644482700809,-0.0011644486873963,0.0011644483027892,-0.0011644486986464,0.0011644482709961,-0.0011644486722007,0.0011644483000377,-0.0010374841474263,0.0010374835946734,-0.0010374840051562,0.001037483600891,-0.00094258820018413,0.00094258780424577,-0.00094258822486365,0.00094258772532552,6.1490082904294e-09,-5.2164693180901e-09,-0.0013573893635282,0.0013573902628545,5.73110524161e-10,4.2336096949534e-10,-0.0016038125130031,0.0016038172053276,-0.00160381257357,0.0016038171264917,-0.0016038163070285,0.0016038134268283,-0.0016038163717036,0.001603813345599,-0.0012725862116639,0.0012725759564908,-0.0012725750775798,0.0012725871015352,0.71130254666039,131329,3014,0.0039044658300934,0.0039044658303938,0.0056368802072445,24.140889639598,-4.6872882883213e-05,-4.6872882883213e-05,-4.6872882883213e-05,4333243.489969,0.013538493346004
29219200,0.99564344480076,0.014329849174726,0.004322678359853,0.0043226783599235,0.00568449245495,-0.00093886376978302,0.00093886420626365,-5.4980599455721e-09,5.9588493544778e-09,2.4461333240708e-10,2.3176762118768e-10,-0.0011651972925563,0.0011651939059295,-0.0011651934742622,0.0011651977261694,-0.0011651973259152,0.0011651938879498,-0.0011651935090216,0.0011651977105751,-0.0010381594822259,0.001038148725586,-0.0010381482402935,0.0010381599136409,-2.4244931269793e-10,-2.3175394675983e-10,-2.6713252315151e-10,-1.9206611441028e-10,-0.0009388642054063,0.00093886377069065,-0.0011651958365451,0.0011651953777086,-0.0011651958110419,0.0011651954071055,-0.0011651958034047,0.0011651953944148,-0.0011651957774338,0.0011651954245194,-0.0010381543929248,0.0010381538605722,-0.0010381542520191,0.0010381538691875,-0.00094326049590621,0.00094326004714809,-0.00094326046630701,0.00094326002399682,6.1967184014476e-09,-5.2644270218387e-09,-0.0013581718484637,0.0013581727479065,5.8301197367852e-10,4.1318097972234e-10,-0.0016046662634182,0.0016046709965636,-0.0016046663324369,0.0016046709088472,-0.0016046700914,0.0016046671844986,-0.0016046701614726,0.0016046670990141,-0.001273394152871,0.0012733838001834,-0.0012733829300494,0.0012733950322851,0.69516968374257,131329,3014,0.003907054018898,0.0039070540190025,0.0056401175556312,24.459647142126,-4.4322822862988e-05,-4.4322822862988e-05,-4.4322822862988e-05,4337958.4261032,0.013547022572425
29419200,0.995795419598,0.014331790296357,0.0043232537995092,0.0043232537995798,0.0056852826972683,-0.0009394946055956,0.00093949504168184,-5.5429006759833e-09,6.0033794393202e-09,2.5214984120132e-10,2.2384592913111e-10,-0.0011659206052855,0.0011659171931824,-0.0011659167565062,0.0011659210439063,-0.001165920643365,0.0011659171704179,-0.0011659167972696,0.0011659210222668,-0.0010388345047189,0.0010388236567792,-0.0010388231772198,0.0010388349308164,-2.3487929700445e-10,-2.3956275777771e-10,-2.7289632833822e-10,-1.8645425835578e-10,-0.00093949504114605,0.00093949460617817,-0.0011659191362455,0.0011659186779882,-0.0011659191062826,0.001165918711885,-0.0011659191077959,0.0011659186899443,-0.0011659190786363,0.0011659187232751,-0.001038829377077,0.0010388288300672,-0.0010388292268779,0.0010388288483437,-0.00094391793011636,0.00094391750232131,-0.00094391791744638,0.00094391746188737,6.2382537529829e-09,-5.3060079425701e-09,-0.0013589512757851,0.001358952175214,5.8474139713994e-10,4.1140882450752e-10,-0.0016055032991631,0.0016055080602706,-0.0016055033684483,0.0016055079721317,-0.0016055071539926,0.0016055042212147,-0.0016055072257537,0.0016055041341265,-0.0012741741590336,0.0012741637221523,-0.0012741628534175,0.0012741750371566,0.65089858933779,131329,3014,0.0039096745245129,0.0039096745246106,0.0056433436152052,24.778498269535,-4.1772013843717e-05,-4.1772013843717e-05,-4.1772013843717e-05,4344293.2163537,0.013555604659117
29619200,0.99594479656981,0.014333667754908,0.0043238096174405,0.0043238096175111,0.0056860485199568,-0.00094014246441722,0.0009401429003966,-5.5860224815535e-09,6.0464021583292e-09,2.5218844740428e-10,2.2368460788289e-10,-0.0011665786607688,0.0011665752198798,-0.0011665747833592,0.001166579099347,-0.0011665786988555,0.0011665751971309,-0.0011665748241006,0.0011665790777247,-0.0010395300182856,0.0010395190860391,-0.0010395186070975,0.0010395304449369,-2.3413992756819e-10,-2.4021934286103e-10,-2.7606860554682e-10,-1.8308400780046e-10,-0.00094014289990046,0.00094014246494368,-0.0011665771782508,0.0011665767181584,-0.0011665771462389,0.0011665767542661,-0.0011665771502081,0.0011665767297453,-0.0011665771189785,0.0011665767652941,-0.0010395248515328,0.0010395242982883,-0.001039524695484,0.0010395243234893,-0.00094454928133855,0.00094454885728748,-0.0009445492697339,0.00094454881533191,6.2811933496783e-09,-5.3494164338823e-09,-0.0013597176711431,0.0013597185702887,5.878303691269e-10,4.0784045422466e-10,-0.0016062864431981,0.0016062912353179,-0.0016062865147832,0.0016062911449075,-0.0016062903269032,0.0016062873674889,-0.0016062904008727,0.0016062872780879,-0.0012748940900411,0.0012748835655457,-0.0012748827000528,0.0012748949655373,0.6419138757842,131329,3014,0.0039123628198004,0.0039123628198637,0.0056465187566282,25.088105010496,-3.9295159916034e-05,-3.9295159916034e-05,-3.9295159916034e-05,4354937.9432925,0.013564268988516
29819200,0.99609102278609,0.014335628650968,0.0043243935365665,0.0043243935366371,0.0056868415777643,-0.00094070423825062,0.00094070467422914,-5.6286370298259e-09,6.0891487633027e-09,2.4960365710314e-10,2.2636593549958e-10,-0.0011671252570324,0.0011671217858762,-0.0011671213513747,0.0011671256936607,-0.0011671252934505,0.0011671217646864,-0.0011671213900865,0.0011671256740137,-0.0010401423205138,0.0010401313056594,-0.001040130825796,0.0010401427494149,-2.323298748107e-10,-2.4191039770965e-10,-2.7707088887031e-10,-1.8185280601773e-10,-0.00094070467373006,0.00094070423876874,-0.0011671237592087,0.0011671232995041,-0.0011671237266898,0.0011671233362013,-0.0011671237323692,0.0011671233096866,-0.0011671237002957,0.0011671233462638,-0.0010401371147049,0.0010401365577029,-0.0010401369560232,0.0010401365864465,-0.00094508439202225,0.00094508397165807,-0.00094508438287203,0.00094508392712828,6.32464236987e-09,-5.3931106818765e-09,-0.0013603804714836,0.0013603813705298,5.89648656403e-10,4.0579958310129e-10,-0.0016069570305149,0.0016069618531665,-0.0016069571035067,0.0016069617612046,-0.0016069609433498,0.0016069579560555,-0.0016069610183612,0.0016069578655143,-0.0012755011937436,0.0012754905825011,-0.0012754897196243,0.0012755020677631,0.6783770502123,131329,3014,0.0039146930797702,0.0039146930798098,0.0056492657033552,25.340257371484,-3.727794102813e-05,-3.727794102813e-05,-3.727794102813e-05,4364990.9653677,0.013571773107076
30019200,0.99623406999428,0.014337580001518,0.0043249752297323,0.004324975229803,0.0056876295419827,-0.00094123526257814,0.00094123569882499,-5.6717859641556e-09,6.1324733490899e-09,2.4642247560958e-10,2.2980491170593e-10,-0.0011677112721479,0.0011677077703918,-0.001167707337549,0.0011677117069471,-0.0011677113064246,0.0011677077514243,-0.0011677073741756,0.0011677116894638,-0.0010407269788958,0.0010407158820323,-0.0010407153987214,0.0010407274093528,-2.3210111484259e-10,-2.4235944625991e-10,-2.7840010129825e-10,-1.8084991257949e-10,-0.00094123569822115,0.00094123526322838,-0.0011677097591506,0.0011677092991073,-0.0011677097257453,0.0011677093365561,-0.0011677097326503,0.0011677093091301,-0.001167709699704,0.0011677093463621,-0.0010407217332449,0.0010407211732963,-0.0010407215720121,0.0010407212032253,-0.00094562734680302,0.00094562692758056,-0.00094562733890376,0.00094562688228337,6.3677202147537e-09,-5.436034678225e-09,-0.0013610355416974,0.001361036440641,5.9108405755248e-10,4.0445277495124e-10,-0.0016076613266339,0.0016076661784938,-0.0016076614005587,0.0016076660856998,-0.0016076652681565,0.0016076622527816,-0.0016076653441955,0.0016076621613857,-0.0012761383757123,0.0012761276798354,-0.0012761268164536,0.0012761392487564,0.68873091633414,131329,3014,0.0039168983126108,0.0039168983127077,0.0056519781095124,25.591138045867,-3.5270895633065e-05,-3.5270895633065e-05,-3.5270895633065e-05,4370305.8445799,0.013578992697261
30219200,0.99637392423096,0.014339395094375,0.0043255137927945,0.0043255137928652,0.0056883675087155,-0.00094175065501747,0.00094175109129951,-5.714887169061e-09,6.1756029570982e-09,2.4504309404286e-10,2.3123436941933e-10,-0.001168304717285,0.0011683011858895,-0.0011683007539513,0.0011683051511837,-0.0011683047506352,0.0011683011678375,-0.0011683007896285,0.0011683051346457,-0.0010412925152268,0.0010412813348941,-0.0010412808505573,0.0010412929466136,-2.3056625819136e-10,-2.4398715364302e-10,-2.7954441045895e-10,-1.7979349511188e-10,-0.000941751090708,0.00094175065565716,-0.0011683031893104,0.0011683027295646,-0.0011683031551949,0.0011683027677405,-0.0011683031638775,0.0011683027385204,-0.0011683031301959,0.0011683027765077,-0.0010412872295279,0.0010412866662168,-0.0010412870660607,0.0010412866983165,-0.00094616442691503,0.00094616401136973,-0.00094616442211336,0.00094616396302735,6.4108149325338e-09,-5.47918882866e-09,-0.0013616817076928,0.0013616826065566,5.9219859056309e-10,4.032603479673e-10,-0.0016083696690555,0.0016083745503411,-0.001608369743758,0.001608374456766,-0.0016083736393361,0.00160837059588,-0.0016083737161292,0.0016083705037302,-0.0012767769098782,0.0012767661287401,-0.0012767652661454,0.0012767777821024,0.66008314204861,131329,3014,0.0039190394223397,0.0039190394224403,0.0056546528751428,25.841974954422,-3.3264200364621e-05,-3.3264200364621e-05,-3.3264200364621e-05,4374255.1546204,0.013586045381645
30419200,0.9965108701709,0.01434106306218,0.0043260057787376,0.0043260057788083,0.0056890515046341,-0.00094234536349345,0.00094234579935437,-5.7583913110099e-09,6.2184969541278e-09,2.4425320129119e-10,2.3148941727485e-10,-0.0011689305278853,0.0011689269670479,-0.0011689265356705,0.0011689309611189,-0.0011689305608695,0.0011689269492822,-0.0011689265709971,0.0011689309446798,-0.0010419420118552,0.0010419307469193,-0.0010419302619385,0.0010419424423547,-2.3213379663588e-10,-2.42847722439e-10,-2.8158485564727e-10,-1.7832047587956e-10,-0.00094234579911085,0.00094234536380655,-0.0011689289862939,0.0011689285244372,-0.0011689289509409,0.0011689285637536,-0.0011689289598218,0.001168928534106,-0.0011689289249194,0.0011689285730477,-0.0010419366854946,0.0010419361188695,-0.0010419365180781,0.0010419361537056,-0.0009467571315385,0.00094675671396409,-0.00094675712401917,0.00094675666796872,6.4537722942159e-09,-5.5223098248726e-09,-0.0013623956211594,0.0013623965197434,5.9396603356892e-10,4.0128511254468e-10,-0.0016091215696638,0.0016091264805954,-0.0016091216456258,0.0016091263858271,-0.0016091255685114,0.001609122497344,-0.0016091256464678,0.0016091224037143,-0.0012774535963236,0.0012774427297613,-0.0012774418683933,0.0012774544678941,0.62526528964479,131329,3014,0.00392150806423,0.0039215080643755,0.0056576099943799,26.12998819496,-3.0960094440323e-05,-3.0960094440323e-05,-3.0960094440323e-05,4382075.1983037,0.013594045998806
30619200,0.99664570193528,0.014342823609885,0.0043265285383517,0.0043265285384225,0.0056897665331103,-0.00094316188262023,0.0009431623207955,-5.7997440189484e-09,6.2630277865649e-09,2.5227055686648e-10,2.2633815964223e-10,-0.0011697180182339,0.0011697144346576,-0.0011697139972222,0.0011697184569724,-0.0011697180555825,0.0011697144129319,-0.0011697140368161,0.001169718437711,-0.001042828717666,0.0010428173653144,-0.0010428168827365,0.0010428291449908,-2.3359141308673e-10,-2.3971341921187e-10,-2.8501404726006e-10,-1.7316566709104e-10,-0.00094316231862414,0.00094316188486183,-0.0011697164665406,0.0011697160014768,-0.0011697164282187,0.0011697160433036,-0.0011697164391599,0.0011697160136638,-0.0011697164010488,0.0011697160561399,-0.0010428233512152,0.0010428227776428,-0.0010428231747113,0.001042822820847,-0.00094754493938461,0.00094754451983242,-0.00094754492937958,0.00094754448240639,6.4979121157746e-09,-5.5648403330065e-09,-0.0013633270713775,0.0013633279707559,5.9883554460282e-10,3.978220772792e-10,-0.0016100626428721,0.0016100675849581,-0.0016100627216345,0.0016100674872289,-0.0016100666710139,0.0016100635731164,-0.0016100667524528,0.0016100634783669,-0.0012783147561513,0.0012783038039177,-0.0012783029407144,0.0012783156225349,0.66318231786956,131329,3014,0.0039248955422154,0.0039248955423621,0.0056614700513972,26.524408888425,-2.7804728892603e-05,-2.7804728892603e-05,-2.7804728892603e-05,4395811.3217518,0.01360482202062
30819200,0.99677833831565,0.014344643416366,0.0043270709360872,0.0043270709361582,0.0056905015441203,-0.00094395346637207,0.00094395390236143,-5.8443967062218e-09,6.3048913301624e-09,2.5393630121442e-10,2.2203994856728e-10,-0.001170560268519,0.0011705566565515,-0.0011705562188784,0.0011705607080567,-0.0011705603078852,0.0011705566324566,-0.0011705562605427,0.00117056068559,-0.0010436935936314,0.0010436821535529,-0.0010436816753383,0.0010436940184537,-2.3919902185001e-10,-2.3476172515736e-10,-2.8897782218141e-10,-1.6989451797412e-10,-0.00094395390165274,0.00094395346713066,-0.0011705587060975,0.001170558234549,-0.001170558665583,0.0011705582791162,-0.0011705586747985,0.0011705582495088,-0.0011705586346666,0.0011705582939806,-0.0010436881844495,0.0010436876083409,-0.0010436880018368,0.0010436876593167,-0.00094835079047468,0.00094835036409582,-0.00094835076821356,0.00094835033369674,6.5398762036829e-09,-5.6088071234983e-09,-0.001364263176842,0.0013642640749811,6.0163460359349e-10,3.9314415795113e-10,-0.0016110541049446,0.0016110590781192,-0.0016110541861856,0.0016110589779934,-0.0016110581614658,0.0016110550374422,-0.0016110582448273,0.0016110549389203,-0.0012792235778341,0.0012792125364061,-0.0012792116805336,0.0012792244428324,0.69236329710891,131329,3014,0.0039281824120017,0.0039281824121058,0.0056653465331752,26.921192329485,-2.4630461364121e-05,-2.4630461364121e-05,-2.4630461364121e-05,4404356.8089684,0.013615415061553
31019200,0.9969086826708,0.014346490269425,0.0043276226319306,0.0043276226320017,0.0056912450054932,-0.0009447198245174,0.00094472026033915,-5.8876205898501e-09,6.3479374828673e-09,2.5756031565033e-10,2.1819219073129e-10,-0.0011714359885399,0.0011714323501203,-0.0011714319101519,0.0011714364303903,-0.0011714360303805,0.0011714323235287,-0.0011714319542824,0.0011714364054429,-0.0010445346494763,0.001044523122285,-0.0010445226468012,0.0010445350717193,-2.4269826475797e-10,-2.3098826679054e-10,-2.9210851878618e-10,-1.6653723765432e-10,-0.00094472025960979,0.0009447198252931,-0.0011714344150864,0.0011714339391244,-0.0011714343724417,0.0011714339858628,-0.0011714343813861,0.0011714339565217,-0.0011714343391109,0.0011714340031734,-0.0010445291985748,0.0010445286187815,-0.0010445290096662,0.0010445286762073,-0.00094916429148726,0.00094916386040914,-0.0009491642620508,0.00094916383715953,6.5827993070586e-09,-5.6520903561076e-09,-0.0013651960580667,0.0013651969558998,6.0470069660292e-10,3.8969377279921e-10,-0.0016120740900863,0.0016120790938877,-0.0016120741735138,0.00161207899159,-0.0016120781753427,0.001612075024486,-0.00161207826087,0.0016120749237812,-0.0012801639116195,0.0012801527831782,-0.0012801519299086,0.0012801647740729,0.71215833660052,131329,3014,0.0039313666705292,0.003931366670626,0.0056692075064368,27.318057215757,-2.1455542273945e-05,-2.1455542273945e-05,-2.1455542273945e-05,4409125.4891653,0.013625787420154
31219200,0.99703776485244,0.014348417379502,0.0043282004978706,0.0043282004979417,0.0056920163836899,-0.00094573949315521,0.00094573992851692,-5.931121934208e-09,6.3907201861792e-09,2.5686559063841e-10,2.1819626434214e-10,-0.0011726137444086,0.0011726100768676,-0.0011726096375703,0.0011726141860231,-0.0011726137860633,0.0011726100502677,-0.0011726096813027,0.0011726141611199,-0.0010456450547512,0.0010456334424361,-0.0010456329665865,0.0010456454756829,-2.5835735406704e-10,-2.1545081464205e-10,-2.9803384153313e-10,-1.6098525083008e-10,-0.00094573992798289,0.00094573949377288,-0.0011726121631278,0.0011726116735462,-0.0011726121170144,0.0011726117242281,-0.0011726121191844,0.0011726117011534,-0.0011726120732636,0.0011726117518236,-0.0010456395625109,0.001045638980644,-0.0010456393613037,0.0010456390490113,-0.00095026414074636,0.00095026368167399,-0.00095026408048251,0.0009502636895183,6.6257722854989e-09,-5.6953026462959e-09,-0.0013664257339119,0.0013664266313167,6.1101700432053e-10,3.8300618074761e-10,-0.0016134166288537,0.0016134216653802,-0.0016134167167465,0.001613421558641,-0.0016134207429668,0.0016134175672255,-0.0016134208326092,0.0016134174620152,-0.001281425355159,0.0012814141385305,-0.0012814132895119,0.0012814262140003,0.74546031264453,131329,3014,0.0039356041960045,0.0039356041961788,0.0056742957421547,27.867816289793,-1.7057469681656e-05,-1.7057469681656e-05,-1.7057469681656e-05,4414751.3423252,0.013639541348606
31419200,0.99716553730709,0.014350227086899,0.0043287405771242,0.0043287405771953,0.0056927459325796,-0.00094675163487931,0.00094675206951344,-5.9746684383922e-09,6.4337421089772e-09,2.832505968887e-10,1.910142220584e-10,-0.0011738523298317,0.0011738486502158,-0.0011738481936758,0.0011738527884176,-0.0011738523891289,0.0011738486059691,-0.0011738482557083,0.0011738527453955,-0.001046739848559,0.0010467281338222,-0.0010467276768757,0.0010467402513925,-2.4424345069744e-10,-2.2977659032664e-10,-3.0486319056802e-10,-1.5421472783438e-10,-0.00094675206948366,0.0009467516349701,-0.0011738507403695,0.0011738502550257,-0.0011738506892819,0.001173850310449,-0.0011738507057607,0.0011738502734157,-0.0011738506554817,0.0011738503283242,-0.0010467343158164,0.0010467337122439,-0.0010467341026546,0.0010467337933301,-0.00095138813465878,0.00095138770917786,-0.00095138810329368,0.00095138768822214,6.6685307773152e-09,-5.7384359838374e-09,-0.0013676791261385,0.0013676800231826,6.1490829053264e-10,3.7871165976581e-10,-0.0016148150578375,0.0016148201249244,-0.0016148151480999,0.0016148200157797,-0.0016148192002419,0.0016148159984646,-0.0016148192930136,0.0016148158904496,-0.0012827438937439,0.0012827325887086,-0.0012827317427793,0.0012827447487203,0.71242631784683,131329,3014,0.0039398126659898,0.0039398126661167,0.0056794797967437,28.435956948956,-1.2512344408351e-05,-1.2512344408351e-05,-1.2512344408351e-05,4417290.3453842,0.013653336469564
31619200,0.99729181314319,0.014351923489744,0.0043292445332156,0.0043292445332869,0.0056934344232417,-0.00094777900649809,0.00094777944117312,-6.0176928624961e-09,6.4768420280984e-09,2.8223718920055e-10,1.921130438725e-10,-0.0011750471176206,0.0011750434084201,-0.0011750429528166,0.001175047575169,-0.0011750471760623,0.00117504336509,-0.0011750430137513,0.0011750475332921,-0.0010478455178378,0.0010478337191429,-0.0010478332614763,0.0010478459212674,-2.5476452505671e-10,-2.1828772429442e-10,-3.0869758166898e-10,-1.4955321141074e-10,-0.00094777944074095,0.00094777900697209,-0.0011750455182726,0.0011750450232101,-0.0011750454644297,0.0011750450812661,-0.001175045476122,0.0011750450491065,-0.0011750454228882,0.0011750451068671,-0.001047839943357,0.0010478393392356,-0.0010478397215756,0.0010478394288635,-0.00095249572291402,0.0009524952792513,-0.0009524956694038,0.00095249528034991,6.7114494938249e-09,-5.781855073414e-09,-0.0013689293326377,0.0013689302291429,6.1986278052931e-10,3.732094943826e-10,-0.0016161744301035,0.0016161795290912,-0.0016161745240473,0.0016161794163086,-0.0016161786013986,0.0016161753737274,-0.0016161786975443,0.001616175262268,-0.0012840267390101,0.0012840153456744,-0.0012840145038568,0.001284027590034,0.68057768579591,131329,3014,0.0039440821596944,0.0039440821597817,0.0056846526360144,29.004546351353,-7.9636291891726e-06,-7.9636291891726e-06,-7.9636291891726e-06,4423991.7270285,0.013667240724852
31819200,0.99741426956228,0.014353505282649,0.0043297127303193,0.0043297127303906,0.0056940798219391,-0.00094828669085819,0.00094828712588015,-6.0610270311376e-09,6.5204618751597e-09,2.6045360188007e-10,2.1435241868075e-10,-0.001175635935576,0.0011756321832418,-0.0011756317419383,0.001175636379271,-0.0011756359795067,0.0011756321544681,-0.0011756317884949,0.0011756363516359,-0.0010484030267958,0.0010483911587418,-0.0010483906877452,0.0010484034478297,-2.5939828088827e-10,-2.1310912384821e-10,-3.0307661269638e-10,-1.5452413827591e-10,-0.0009482871252061,0.00094828669152761,-0.0011756343146678,0.0011756338197297,-0.001175634264515,0.0011756338745491,-0.0011756342692925,0.0011756338487068,-0.0011756342199207,0.0011756339029875,-0.0010483974097823,0.0010483968215862,-0.001048397199923,0.0010483969026324,-0.00095303207943171,0.00095303162465805,-0.00095303201522741,0.00095303163370278,6.7538896330725e-09,-5.8249172900105e-09,-0.0013695815851742,0.0013695824818145,6.1575585464014e-10,3.768877507791e-10,-0.0016168863041472,0.0016168914298669,-0.0016168863954087,0.0016168913197375,-0.0016168905038741,0.0016168872461168,-0.0016168905973123,0.0016168871368597,-0.0012846743517778,0.0012846628754125,-0.0012846620341058,0.0012846752053245,0.65805654834307,131329,3014,0.0039461913656195,0.0039461913656094,0.0056873520340327,29.266295976893,-5.8696321848567e-06,-5.8696321848567e-06,-5.8696321848567e-06,4428165.5990736,0.013674254180516
32019200,0.99753129511297,0.01435517783454,0.0043302122958867,0.0043302122959579,0.0056947532426952,-0.00094838849185585,0.0009483889284205,-6.1023470615449e-09,6.5637416653447e-09,2.5648881735446e-10,2.2030053382285e-10,-0.0011757421409018,0.0011757383585841,-0.0011757379187871,0.0011757425817658,-0.0011757421820002,0.0011757383330317,-0.0011757379617536,0.0011757425584213,-0.0010485401864354,0.0010485282394446,-0.0010485277630216,0.0010485406123711,-2.2959743157374e-10,-2.4319886987713e-10,-2.9175782235771e-10,-1.6572282309482e-10,-0.00094838892710991,0.00094838849316851,-0.0011757404914092,0.0011757400237719,-0.0011757404484501,0.0011757400700864,-0.0011757404663328,0.0011757400326512,-0.0011757404232417,0.0011757400793796,-0.0010485345287859,0.0010485339419352,-0.0010485343402557,0.0010485340014217,-0.00095312403694964,0.00095312363236767,-0.00095312403153855,0.00095312358440371,6.7981120489904e-09,-5.8684467854496e-09,-0.0013697611930594,0.0013697620902848,6.0426663215741e-10,3.8918701836844e-10,-0.001617084158903,0.0016170893063135,-0.0016170842426017,0.0016170892038252,-0.0016170883881526,0.0016170850927454,-0.0016170884736469,0.0016170849925339,-0.0012848255425059,0.0012848139897315,-0.0012848131383021,0.0012848264026054,0.71766340573123,131329,3014,0.0039466132976013,0.0039466132976065,0.0056880965826528,29.281042658519,-5.7516587318473e-06,-5.7516587318473e-06,-5.7516587318473e-06,4429954.3025395,0.01367586248632
32219200,0.9976430902205,0.014356815152017,0.0043307021334014,0.0043307021334726,0.0056954108851433,-0.00094843485854592,0.00094843529561033,-6.1462745504432e-09,6.6079586916037e-09,2.2815259535953e-10,2.4917553059388e-10,-0.0011758977650137,0.0011758939344719,-0.001175893513325,0.0011758981877903,-0.0011758977866487,0.0011758939283167,-0.0011758935377134,0.001175898182815,-0.0010486195325998,0.0010486075198621,-0.0010486070237353,0.001048619977272,-2.2681298409108e-10,-2.4712395993523e-10,-2.8021974411795e-10,-1.7833133059917e-10,-0.00094843529439254,0.00094843485979276,-0.0011758960866644,0.0011758956285623,-0.0011758960515236,0.0011758956675297,-0.0011758960633466,0.0011758956354849,-0.001175896029037,0.0011758956739027,-0.0010486138318672,0.0010486132659191,-0.0010486136676106,0.0010486133002352,-0.00095321719968003,0.00095321679317969,-0.00095321720223564,0.00095321673752196,6.840913404556e-09,-5.9098725492739e-09,-0.0013699164438442,0.0013699173423285,5.9407562463275e-10,4.0077812744449e-10,-0.0016173143642415,0.001617319533317,-0.0016173144402206,0.0016173194385297,-0.0016173186211214,0.0016173152922188,-0.0016173186996652,0.0016173151985757,-0.0012850139768384,0.0012850023492985,-0.0012850014891793,0.0012850148463747,0.73340853761163,131329,3014,0.0039468089131489,0.0039468089132101,0.00568873655675,29.290229254304,-5.6781659655665e-06,-5.6781659655665e-06,-5.6781659655665e-06,4424648.2779233,0.013676911564397
32419200,0.99774988416413,0.014358422616395,0.0043311840817314,0.0043311840818027,0.0056960544528612,-0.00094846403879677,0.0009484644755423,-6.1884949526389e-09,6.6497438305964e-09,2.2873365881432e-10,2.4819681981635e-10,-0.0011760631343773,0.0011760592767284,-0.0011760588553245,0.0011760635576806,-0.0011760631570744,0.0011760592693671,-0.0011760588797903,0.0011760635524558,-0.0010486806312122,0.0010486685339466,-0.0010486680383664,0.001048681074554,-1.9869700968835e-10,-2.7702461431981e-10,-2.7068135701695e-10,-1.8947379710118e-10,-0.00094846447519162,0.00094846403918882,-0.00117606142968,0.0011760609971286,-0.001176061402011,0.001176061028859,-0.0011760614262465,0.0011760609840915,-0.0011760613984336,0.0011760610162243,-0.0010486748895132,0.0010486743212015,-0.0010486747437144,0.0010486743363338,-0.00095331022877682,0.00095330986916714,-0.00095331028686504,0.00095330975776837,6.885706284576e-09,-5.9534229366041e-09,-0.0013700617576186,0.0013700626572183,5.8295867689493e-10,4.132209806768e-10,-0.0016175451473735,0.0016175503395635,-0.0016175452159221,0.0016175502521129,-0.0016175494342447,0.0016175460685601,-0.0016175495043471,0.0016175459831868,-0.0012852101495958,0.0012851984463023,-0.0012851975768395,0.0012852110286581,0.75109427400421,131329,3014,0.0039469341225547,0.0039469341226413,0.0056893343191468,29.299223324239,-5.6062134060872e-06,-5.6062134060872e-06,-5.6062134060872e-06,4418036.3045966,0.013677776198303
32619200,0.99785163695406,0.014359826517691,0.0043316019733249,0.0043316019733962,0.0056966225709703,-0.00094838624562164,0.00094838668350317,-6.2321515359309e-09,6.6944673976457e-09,1.9527193101772e-10,2.8310240594524e-10,-0.0011761491755253,0.0011761452661098,-0.0011761448662482,0.0011761495765552,-0.0011761491749104,0.0011761452822778,-0.0011761448680804,0.0011761495939244,-0.0010486214527043,0.0010486092944304,-0.0010486087747246,0.0010486219207862,-2.090690298697e-10,-2.6560012621243e-10,-2.5801080251189e-10,-2.0116581703926e-10,-0.00094838668219801,0.00094838624695012,-0.0011761474447697,0.001176147013016,-0.0011761474244595,0.0011761470366012,-0.0011761474331321,0.001176147007633,-0.0011761474133335,0.0011761470306838,-0.0010486156632811,0.0010486151289695,-0.0010486155428237,0.001048615119307,-0.00095330782640596,0.0009533074399918,-0.00095330786364651,0.00095330734798302,6.9273538989759e-09,-5.995707496781e-09,-0.0013700998714168,0.0013701007706607,5.7366887160387e-10,4.2202384807878e-10,-0.0016176792089173,0.0016176844225976,-0.0016176792711958,0.0016176843416422,-0.0016176835231314,0.0016176801237588,-0.0016176835875032,0.001617680043779,-0.0012853156334505,0.0012853038519873,-0.0012853029779574,0.0012853165184378,0.69653888239534,131329,3014,0.0039466160935377,0.0039466160935875,0.0056894871411083,29.262844119736,-5.8972470421127e-06,-5.8972470421127e-06,-5.8972470421127e-06,4409135.0501642,0.013677292165185
32819200,0.99794847431028,0.014361047440455,0.0043319626165702,0.0043319626166415,0.0056971222072433,-0.00094830556371443,0.00094830600155183,-6.2748891108273e-09,6.7372079146581e-09,2.0016279969328e-10,2.7811654543633e-10,-0.0011761273390819,0.0011761234047936,-0.0011761230017559,0.0011761277439648,-0.0011761273421344,0.0011761234172167,-0.0011761230071312,0.0011761277579422,-0.0010485535255075,0.0010485412795899,-0.00104854076332,0.0010485539895833,-1.9021991552546e-10,-2.8561649849989e-10,-2.5016565950145e-10,-2.1007328972818e-10,-0.00094830600071678,0.00094830556458818,-0.001176125586682,0.0011761251730542,-0.0011761255723236,0.001176125191328,-0.0011761255886521,0.001176125154553,-0.0011761255747066,0.0011761251726589,-0.0010485476917833,0.001048547158879,-0.0010485475870116,0.0010485471329101,-0.00095324580379618,0.00095324544848044,-0.00095324587959872,0.00095324531904975,6.9715737915591e-09,-6.0383761775762e-09,-0.0013700882168326,0.0013700891173909,5.642902405852e-10,4.3298828753444e-10,-0.0016177050232544,0.0016177102601713,-0.0016177050786612,0.0016177101858575,-0.0016177093667296,0.0016177059325107,-0.0016177094242666,0.0016177058596971,-0.0012853140052976,0.0012853021475924,-0.0012853012644362,0.0012853148981119,0.64446137284873,131329,3014,0.0039462823383561,0.0039462823384373,0.0056894375447757,29.204331727859,-6.3653461771283e-06,-6.3653461771283e-06,-6.3653461771283e-06,4406293.8009545,0.013676565695502
33019200,0.99804064472431,0.014362318378018,0.0043323413502804,0.0043323413503517,0.0056976356773863,-0.00094827925052115,0.0009482796884721,-6.3178862311477e-09,6.7803281406295e-09,1.9677295630949e-10,2.8167596487498e-10,-0.0011760491278447,0.0011760451625402,-0.0011760447618342,0.001176049530395,-0.0011760491284618,0.0011760451773741,-0.0011760447647219,0.0011760495468099,-0.001048544625743,0.0010485322977884,-0.0010485317793639,0.0010485450923732,-1.8498418368487e-10,-2.9124699098486e-10,-2.4214331911107e-10,-2.1836892287544e-10,-0.00094827968772263,0.00094827925131535,-0.0011760473555694,0.0011760469506495,-0.0011760473466593,0.0011760469634657,-0.0011760473610211,0.0011760469286321,-0.0011760473524943,0.0011760469413145,-0.0010485387449726,0.0010485382241671,-0.0010485386562953,0.0010485381823983,-0.00095318223948635,0.00095318188868283,-0.00095318232575706,0.00095318174886746,7.0153054765861e-09,-6.0808903477387e-09,-0.0013700882664049,0.0013700891682284,5.5669928154261e-10,4.4187878302414e-10,-0.0016176843474685,0.0016176896089667,-0.0016176843974162,0.0016176895400943,-0.0016176887197149,0.0016176852525684,-0.0016176887717196,0.0016176851852389,-0.0012852681547166,0.00128525621917,-0.0012852553295086,0.0012852690541825,0.69524137076145,131329,3014,0.0039461705414472,0.0039461705415409,0.0056894403034081,29.145316211948,-6.837470304412e-06,-6.837470304412e-06,-6.837470304412e-06,4409531.579179,0.013676337425134
33219200,0.9981283861421,0.014363596257935,0.0043327237887004,0.0043327237887718,0.0056981486804625,-0.00094821757506883,0.00094821801299056,-6.3610072654768e-09,6.8234054129425e-09,1.9570583643868e-10,2.827111649268e-10,-0.0011760277948031,0.0011760238000299,-0.0011760234000707,0.001176028196645,-0.0011760277947401,0.0011760238155769,-0.0011760234022633,0.0011760282137862,-0.0010485025820749,0.0010484901703398,-0.0010484896509591,0.0010485030489442,-1.8278235417781e-10,-2.9349413033997e-10,-2.3524538255061e-10,-2.2534635499447e-10,-0.00094821801225983,0.00094821757584268,-0.001176026004773,0.0011760256059497,-0.0011760260004798,0.0011760256141385,-0.0011760260117092,0.0011760255824561,-0.0011760260077702,0.0011760255905247,-0.0010484966535247,0.0010484961445131,-0.0010484965780784,0.0010484960888456,-0.00095313286044785,0.00095313250933533,-0.00095313295106878,0.00095313236517587,7.0587711395047e-09,-6.1235710315201e-09,-0.0013700812386824,0.0013700821411859,5.5014135385339e-10,4.4927694739765e-10,-0.0016177091599692,0.0016177144461072,-0.0016177092052652,0.0016177143818957,-0.001617713560924,0.0016177100609989,-0.0016177136082797,0.0016177099983319,-0.0012852655628182,0.001285253548549,-0.0012852526531861,0.0012852664678701,0.72922792378732,131329,3014,0.003945915360278,0.0039459153603683,0.0056894104796351,29.086283240872,-7.3097340730252e-06,-7.3097340730252e-06,-7.3097340730252e-06,4406652.469034,0.013675790514873
33419200,0.99821327823174,0.014364858881346,0.004333102247976,0.0043331022480474,0.0056986543853229,-0.0009486298199748,0.0009486302582171,-6.4030911900771e-09,6.8656639200036e-09,1.8607850781167e-10,2.9256626891896e-10,-0.001176565365544,0.0011765613371197,-0.0011765609434658,0.0011765657614242,-0.0011765653594646,0.0011765613586069,-0.0011765609384504,0.0011765657856982,-0.0010489545268915,0.0010489420374399,-0.0010489415102612,0.0010489549991032,-2.1723279440129e-10,-2.5803128679006e-10,-2.3522585853125e-10,-2.2470275172716e-10,-0.00094863025675227,0.00094862982152983,-0.0011765635692672,0.0011765631490301,-0.0011765635655563,0.0011765631569992,-0.0011765635536098,0.0011765631484336,-0.0011765635490663,0.001176563157473,-0.0010489485492569,0.001048948061037,-0.0010489484703787,0.0010489480067306,-0.00095360762674292,0.00095360720521152,-0.00095360764777756,0.00095360713229534,7.1030088854837e-09,-6.1673644918953e-09,-0.0013706140580626,0.0013706149606166,5.5420895403217e-10,4.4551214132166e-10,-0.001618319770607,0.0016183250890827,-0.0016183198191346,0.0016183250216567,-0.0016183242015843,0.0016183206741605,-0.0016183242509953,0.0016183206094853,-0.001285842414995,0.0012858303147735,-0.0012858294204148,0.001285843318164,0.74278654204649,131329,3014,0.0039476303102129,0.0039476303104009,0.0056916135454184,29.312235785866,-5.5021137130725e-06,-5.5021137130725e-06,-5.5021137130725e-06,4405747.4973926,0.013681505130441
33619200,0.99829571297887,0.014366085257174,0.0043334698038143,0.0043334698038857,0.0056991456494736,-0.00094915712569116,0.000949157561722,-6.4500784713243e-09,6.9108471827741e-09,2.5947600130392e-10,2.1654872661446e-10,-0.0011772522185819,0.0011772482054832,-0.0011772477649844,0.0011772526631664,-0.0011772522608304,0.0011772481782119,-0.0011772478118142,0.0011772526359449,-0.0010495270848371,0.0010495144569262,-0.0010495139832292,0.0010495275046525,-1.7648787478894e-10,-3.0044929350606e-10,-2.4693622331522e-10,-2.144999698959e-10,-0.00094915756210621,0.00094915712536864,-0.0011772504207116,0.0011772500179501,-0.0011772504089336,0.0011772500358664,-0.0011772504323658,0.0011772499916691,-0.0011772504233386,0.0011772500079513,-0.0010495210619807,0.0010495205267122,-0.001049520966368,0.0010495204898271,-0.00095421497995466,0.00095421465030837,-0.00095421508814685,0.00095421449276088,7.1441756959835e-09,-6.2065324659288e-09,-0.001371292090472,0.0013712929946304,5.5492361352335e-10,4.4668635709723e-10,-0.0016190920920815,0.0016190974363842,-0.0016190921384188,0.0016190973706059,-0.0016190965487493,0.0016190929973382,-0.0016190965998651,0.0016190929318702,-0.0012865788082038,0.0012865666269057,-0.0012865657293886,0.001286579711717,0.74303043833008,131329,3014,0.0039498239312924,0.0039498239314186,0.0056944168662033,29.614149232017,-3.0868061438625e-06,-3.0868061438625e-06,-3.0868061438625e-06,4405396.0330638,0.013688799893877
33819200,0.99837570009067,0.014367279140887,0.0043338276848835,0.0043338276849551,0.0056996237710481,-0.00094967928944,0.0009496797245276,-6.4930595342824e-09,6.9527176464837e-09,2.6152546751766e-10,2.1353806726451e-10,-0.0011779361772236,0.0011779321366169,-0.0011779316948955,0.0011779366210716,-0.0011779362210178,0.0011779321079313,-0.0011779317421045,0.0011779365928798,-0.0010500934192692,0.0010500807052376,-0.0010500802334861,0.0010500938373145,-2.0523859960897e-10,-2.6997232611531e-10,-2.5090727323582e-10,-2.089480926432e-10,-0.00094967972473677,0.00094967928927629,-0.0011779343769878,0.0011779339523534,-0.0011779343616632,0.0011779339719204,-0.0011779343678751,0.0011779339451821,-0.0011779343540441,0.0011779339635089,-0.0010500873466234,0.0010500868235906,-0.0010500872411529,0.0010500867970272,-0.00095482035662616,0.00095481997235139,-0.00095482040318212,0.00095481987299168,7.1864440441851e-09,-6.2517127965831e-09,-0.0013719660812134,0.0013719669829249,5.611242715975e-10,4.3764792421515e-10,-0.0016198593346311,0.0016198647122197,-0.0016198593870579,0.0016198646409115,-0.0016198638204155,0.0016198602425252,-0.0016198638759473,0.0016198601716197,-0.0012873142059637,0.0012873019314247,-0.0012873010438527,0.0012873151031555,0.74517770527111,131329,3014,0.0039519962537164,0.0039519962538108,0.0056972032052373,29.917824784656,-6.5740172275258e-07,-6.5740172275258e-07,-6.5740172275258e-07,4405282.6112947,0.013696034044765
34019200,0.99845324388066,0.014368399126225,0.0043341624912441,0.0043341624913158,0.0057000741436653,-0.00095019412054639,0.00095019455589215,-6.5349696575745e-09,6.9948479021981e-09,2.5771693630685e-10,2.1755513536936e-10,-0.0011786138232067,0.0011786097527028,-0.0011786093133562,0.0011786142646403,-0.001178613864875,0.0011786097261825,-0.0011786093574396,0.0011786142396377,-0.0010506500875436,0.0010506372928489,-0.0010506368182532,0.0010506505089571,-2.3801220430068e-10,-2.3533936485461e-10,-2.5472119917061e-10,-2.0358098098753e-10,-0.00095019455522981,0.00095019412125684,-0.001178612019795,0.001178611571552,-0.0011786120019281,0.0011786115936568,-0.0011786119887972,0.0011786115864287,-0.0011786119714221,0.0011786116083153,-0.0010506439677114,0.0010506434583947,-0.0010506438519602,0.0010506434426482,-0.00095541873390083,0.00095541828703884,-0.00095541871318426,0.00095541825515255,7.2301842784215e-09,-6.2963077873544e-09,-0.0013726330119494,0.001372633912945,5.6907408126568e-10,4.2876418531316e-10,-0.0016206184432785,0.0016206238557712,-0.0016206185018591,0.0016206237783916,-0.0016206229590036,0.0016206193561398,-0.0016206230196844,0.0016206192801495,-0.0012880431448706,0.0012880307787621,-0.0012880298976375,0.0012880440354139,0.7242654656082,131329,3014,0.0039541381330948,0.003954138133195,0.0056999602190881,30.221561703452,1.7724936276142e-06,1.7724936276142e-06,1.7724936276142e-06,4405232.7381671,0.013703176635155
34219200,0.99852965108527,0.014369470622739,0.0043344820388878,0.0043344820389595,0.0057005065448921,-0.00095126487809073,0.00095126531183128,-6.5780937997204e-09,7.0354373568651e-09,2.5418004400354e-10,2.1883916755483e-10,-0.0011798316237851,0.0011798275236458,-0.0011798270861915,0.0011798320626265,-0.0011798316645768,0.0011798274977386,-0.0011798271281822,0.0011798320385721,-0.0010517905752039,0.0010517776971665,-0.00105177721909,0.001051790993091,-2.8483498629468e-10,-1.8874022754208e-10,-2.6679484460017e-10,-1.9260215038677e-10,-0.00095126531183271,0.00095126487824857,-0.0011798298240321,0.0011798293392502,-0.0011798297986925,0.0011798293681594,-0.00117982976214,0.0011798293836487,-0.0011798297360872,0.001179829412686,-0.0010517844112469,0.0010517839066977,-0.0010517842688022,0.0010517839121758,-0.00095656918419989,0.00095656865050943,-0.0009565690706165,0.00095656871065497,7.2736311582668e-09,-6.3414774266294e-09,-0.0013738977738491,0.0013738986726277,5.8522212218941e-10,4.1060166931262e-10,-0.0016219694009433,0.0016219748526988,-0.0016219694716671,0.001621974763599,-0.0016219739461908,0.0016219703223957,-0.0016219740173507,0.001621970234626,-0.0012893488846949,0.0012893364220117,-0.0012893355528023,0.0012893497655491,0.7059435007416,131329,3014,0.0039585870650646,0.0039585870653978,0.0057051936285158,30.83362078259,6.6689662607228e-06,6.6689662607228e-06,6.6689662607228e-06,4413868.2026864,0.013717505913684
34419200,0.99860492474484,0.014370530846486,0.0043347982868028,0.0043347982868744,0.005700934272809,-0.00095240545764563,0.0009524058914538,-6.6214904896872e-09,7.079500126866e-09,2.8272072007607e-10,1.904611562483e-10,-0.0011810900038747,0.0011810858930863,-0.0011810854370402,0.0011810904617075,-0.001181090063588,0.0011810858482836,-0.0011810854986513,0.0011810904187656,-0.0010530037028173,0.0010529907209477,-0.0010529902641626,0.0010530041044537,-2.9082608320284e-10,-1.8064459165967e-10,-2.8107824230503e-10,-1.7605428259355e-10,-0.00095240589072524,0.0009524054584497,-0.0011810882057824,0.0011810877065258,-0.0011810881701333,0.0011810877462711,-0.0011810881397214,0.0011810877562094,-0.0011810881040186,0.0011810877960509,-0.0010529974978097,0.0010529969715436,-0.0010529973278032,0.0010529970088135,-0.00095777160534384,0.00095777107201117,-0.00095777147926851,0.00095777114575836,7.315665006044e-09,-6.3844805184438e-09,-0.0013752302103117,0.0013752311084864,5.978974100563e-10,3.9691029269242e-10,-0.001623373807669,0.0016233792954373,-0.0016233738865696,0.0016233791977851,-0.001623378381131,0.0016233747374702,-0.0016233784616235,0.0016233746414922,-0.0012907016270597,0.0012906890694673,-0.0012906882106839,0.0012907024954993,0.70867959849046,131329,3014,0.0039633247615651,0.0039633247617223,0.0057107083435845,31.477533598817,1.1820268790538e-05,1.1820268790538e-05,1.1820268790538e-05,4425106.5401872,0.013732704499582
34619200,0.998678928497,0.014371619633268,0.004335124121414,0.0043351241214856,0.0057013713903683,-0.00095354551471422,0.00095354594792822,-6.6653674200124e-09,7.1229963606741e-09,3.0592993760923e-10,1.6659842032673e-10,-0.0011823517907049,0.0011823476654642,-0.0011823471946289,0.0011823522635097,-0.001182351865714,0.0011823476052846,-0.0011823472719694,0.0011823522049249,-0.0010542199480932,0.0010542068649925,-0.0010542064249873,0.0010542203338969,-2.9345199539216e-10,-1.7752019065393e-10,-2.9532360711432e-10,-1.6130186349955e-10,-0.00095354594734894,0.00095354551535087,-0.0011823499911264,0.0011823494801275,-0.0011823499457819,0.0011823495298372,-0.0011823499230179,0.0011823495322595,-0.0011823498780545,0.0011823495817968,-0.0010542137050942,0.0010542131536041,-0.0010542135076871,0.0010542132191076,-0.00095897637958863,0.00095897585139263,-0.00095897624836876,0.00095897593065576,7.3577649825657e-09,-6.4274600062147e-09,-0.0013765671527441,0.00137656805004,6.0954579282385e-10,3.8426823086932e-10,-0.0016247863091172,0.0016247918322417,-0.0016247863959035,0.0016247917266273,-0.0016247909108791,0.0016247872462914,-0.0016247909997563,0.0016247871421535,-0.0012920604955128,0.0012920478447402,-0.0012920469951866,0.0012920613545394,0.73613740086804,131329,3014,0.0039680604633937,0.0039680604635131,0.0057162415430444,32.122238123658,1.6977904989266e-05,1.6977904989266e-05,1.6977904989266e-05,4435855.1945122,0.013747918378233
34819200,0.99875266715002,0.014372714430612,0.0043354518219902,0.0043354518220618,0.0057018107865602,-0.00095516302636809,0.00095516346209722,-6.7051640666051e-09,7.1655495760556e-09,2.9864331035775e-10,1.7666933834357e-10,-0.0011841663045781,0.0011841621491232,-0.0011841616816183,0.0011841667733467,-0.0011841663743775,0.0011841620944028,-0.0011841617520154,0.0011841667225851,-0.0010559403875771,0.0010559272294624,-0.001055926776984,0.0010559407773735,-3.3407279288803e-10,-1.3487000818883e-10,-3.0987698509168e-10,-1.4553045298452e-10,-0.00095516345910959,0.00095516302955679,-0.0011841645064607,0.0011841639614246,-0.0011841644517054,0.0011841640201276,-0.0011841644119257,0.0011841640416343,-0.0011841643554593,0.0011841641022156,-0.0010559341089108,0.0010559335517436,-0.0010559338774483,0.0010559336453597,-0.00096070354389237,0.00096070294110241,-0.00096070333178546,0.00096070310677758,7.4030501923101e-09,-6.4722478636823e-09,-0.0013784558390052,0.0013784567352193,6.3136433278243e-10,3.6245253673557e-10,-0.0016267935377007,0.0016267991035436,-0.0016267936400767,0.0016267989826159,-0.0016267981707624,0.0016267944868826,-0.0016267982739947,0.0016267943702359,-0.0012940014447803,0.0012939886968144,-0.0012939878536313,0.0012940022871191,0.74236048763856,131329,3014,0.003974780670513,0.0039747806709331,0.0057240569898062,33.053417451064,2.4427339608509e-05,2.4427339608509e-05,2.4427339608509e-05,4449138.3515205,0.013769473331292
35019200,0.99882629272974,0.014373771304025,0.0043357671085231,0.0043357671085949,0.0057022370869073,-0.00095694106151521,0.00095694149384514,-6.7509767700879e-09,7.2077188890767e-09,3.2040554794809e-10,1.5108424377418e-10,-0.001186171277091,0.0011861671047919,-0.0011861666246215,0.001186171759185,-0.0011861713625096,0.0011861670339501,-0.0011861667115133,0.0011861716908487,-0.001057829120773,0.0010578158587678,-0.0010578154284507,0.001057829494622,-3.3327912276126e-10,-1.3544644248541e-10,-3.291100704298e-10,-1.2579805411567e-10,-0.00095694149265974,0.00095694106278804,-0.0011861694774686,0.0011861689190739,-0.0011861694095797,0.0011861689915077,-0.0011861693828271,0.0011861689980512,-0.0011861693143915,0.0011861690711615,-0.0010578228086716,0.0010578222162876,-0.0010578225414456,0.0010578223502087,-0.0009626067086962,0.00096260612331348,-0.0009626064969041,0.00096260628459692,7.443779521057e-09,-6.5160863672696e-09,-0.0013805360613057,0.0013805369555867,6.4622712876363e-10,3.4451841702238e-10,-0.0016290082025024,0.0016290138063794,-0.0016290083151087,0.0016290136748978,-0.0016290128628355,0.0016290091618357,-0.0016290129767757,0.001629009032804,-0.0012961433038213,0.0012961304558761,-0.0012961296332712,0.0012961441348523,0.72136489614943,131329,3014,0.0039821681121757,0.0039821681123575,0.0057326644405587,34.085672912402,3.2685383299217e-05,3.2685383299217e-05,3.2685383299217e-05,4463582.5990461,0.013793185476509
35219200,0.99889952301713,0.014374789671211,0.0043360699425738,0.0043360699426456,0.0057026497859915,-0.00095873033577064,0.00095873076738072,-6.7953182520448e-09,7.2514039347638e-09,3.3439208293376e-10,1.3626807754495e-10,-0.0011881551190125,0.0011881509258336,-0.0011881504368588,0.0011881556098559,-0.0011881552136498,0.0011881508457326,-0.0011881505336124,0.0011881555316697,-0.001059731106392,0.0010597177488299,-0.0010597173295771,0.0010597314706641,-3.2818872067622e-10,-1.4038835040138e-10,-3.4564219846185e-10,-1.0900129339517e-10,-0.00095873076656728,0.00095873033665447,-0.001188153313079,0.0011881527463714,-0.0011881532338298,0.0011881528302073,-0.0011881532214478,0.0011881528223892,-0.0011881531422867,0.001188152906302,-0.0010597247636228,0.0010597241369019,-0.0010597244653371,0.001059724303173,-0.00096450322939471,0.00096450266637875,-0.00096450302784041,0.00096450281690756,7.4852656512725e-09,-6.5591056474131e-09,-0.0013826210358358,0.0013826219288044,6.5894210700624e-10,3.3018557029277e-10,-0.0016312101266292,0.0016312157662577,-0.001631210247971,0.0016312156260302,-0.0016312148148335,0.0016312110938812,-0.001631214938114,0.0016312109554833,-0.0012982697683375,0.0012982568256976,-0.0012982560142551,0.0012982705885853,0.70214230557763,131329,3014,0.003989601016775,0.0039896010169215,0.0057412925202531,35.120255201372,4.0962041610977e-05,4.0962041610977e-05,4.0962041610977e-05,4480200.9695195,0.013817009359271
35419200,0.99897120957525,0.014375752224563,0.0043363551358051,0.0043363551358769,0.0057030419528815,-0.00096013829256098,0.00096013872438204,-6.8383560820628e-09,7.2949255635609e-09,3.3169925713891e-10,1.3940427579507e-10,-0.0011897042544905,0.0011897000303655,-0.0011896995433716,0.0011897047431441,-0.0011897043471202,0.0011896999524495,-0.0011896996381585,0.0011897046671972,-0.0010612340400251,0.0010612206002844,-0.0010612201806019,0.0010612344089171,-3.0815178480889e-10,-1.6012613321794e-10,-3.5148894877778e-10,-1.0242544608949e-10,-0.00096013872349943,0.00096013829344956,-0.0011897024290367,0.0011897018706095,-0.0011897023455811,0.0011897019584748,-0.0011897023504529,0.0011897019335492,-0.0011897022671194,0.0011897020215428,-0.0010612276677841,0.0010612270176907,-0.0010612273590395,0.0010612271978346,-0.00096598506552448,0.00096598454719681,-0.00096598490216478,0.00096598465813883,7.5275236469079e-09,-6.6027208624688e-09,-0.0013842752085817,0.0013842761007869,6.6281754596718e-10,3.2504827829234e-10,-0.0016329524099249,0.0016329580809188,-0.0016329525343129,0.0016329579376188,-0.0016329571267733,0.0016329533799102,-0.0016329572531268,0.0016329532384929,-0.0012999415933649,0.0012999285609115,-0.0012999277557002,0.0012999424085743,0.6816229870809,131329,3014,0.0039954492522234,0.0039954492522357,0.005748138333036,35.931952555241,4.7455620441931e-05,4.7455620441931e-05,4.7455620441931e-05,4494236.5546962,0.013835811217299
35619200,0.99904054165902,0.014376644060291,0.0043366182205326,0.0043366182206044,0.0057034076191539,-0.0009612659186204,0.00096126635308458,-6.8803073467452e-09,7.3398170438629e-09,2.8981909449031e-10,1.8442767962569e-10,-0.0011909167168194,0.0011909124372418,-0.0011909119762618,0.0011909171788602,-0.001190916780562,0.0011909123887958,-0.0011909120426255,0.0011909171320032,-0.0010624442987191,0.0010624308069189,-0.001062430355703,0.001062444700466,-3.0703688970734e-10,-1.6004975477552e-10,-3.4611913747808e-10,-1.0622633914858e-10,-0.0009612663504015,0.0009612659212897,-0.001190914861713,0.0011909143071661,-0.0011909147808079,0.0011909143919897,-0.0011909147835019,0.0011909143703472,-0.0011909147030615,0.0011909144548109,-0.0010624378935716,0.0010624372555461,-0.0010624375961065,0.0010624374260659,-0.00096715376166844,0.00096715324321951,-0.0009671535992534,0.00096715335176933,7.5698171979278e-09,-6.6459114996127e-09,-0.0013856047501724,0.001385605641862,6.612627487887e-10,3.257930411874e-10,-0.0016343406200688,0.001634346318224,-0.0016343407435623,0.0016343461760402,-0.0016343453653836,0.0016343415890361,-0.0016343454914557,0.0016343414484921,-0.0013012624862574,0.0013012493684782,-0.001301248562906,0.0013012632996814,0.65729900350949,131329,3014,0.004000131956404,0.004000131956376,0.0057536417302413,36.575945951471,5.2607567611765e-05,5.2607567611765e-05,5.2607567611765e-05,4506996.4691266,0.013850886686164
35819200,0.99910740678213,0.014377564050499,0.0043368912895116,0.0043368912895834,0.0057037814714038,-0.00096241151371048,0.00096241194703349,-6.9237480003689e-09,7.3816249161905e-09,2.8928004910483e-10,1.8359839995961e-10,-0.0011920944786757,0.0011920901701908,-0.0011920897103549,0.0011920949401836,-0.0011920945427731,0.0011920901209553,-0.0011920897762652,0.0011920948931817,-0.0010636797940601,0.0010636662158989,-0.0010636657650514,0.0010636801926881,-2.6293989128389e-10,-2.0819932218303e-10,-3.4468229980172e-10,-1.1161790611374e-10,-0.00096241194646342,0.00096241151433116,-0.0011920925936336,0.0011920920701411,-0.0011920925156823,0.0011920921525165,-0.0011920925462359,0.0011920921017204,-0.001192092468064,0.0011920921844889,-0.0010636733618685,0.0010636726931246,-0.0010636730678601,0.001063672857443,-0.0009683150878186,0.00096831465266413,-0.0009683150162811,0.00096831467208578,7.6142488956876e-09,-6.6885867084438e-09,-0.0013869345251982,0.0013869354181579,6.552962174739e-10,3.3343103761656e-10,-0.0016357053890682,0.0016357111130872,-0.0016357055083319,0.0016357109749604,-0.0016357101636865,0.0016357063544314,-0.0016357102845179,0.0016357062184462,-0.0013025554639646,0.0013025422695019,-0.0013025414573126,0.0013025562856662,0.69619236294571,131329,3014,0.0040048875385811,0.0040048875386872,0.0057591478719976,37.21613849629,5.7729107970322e-05,5.7729107970322e-05,5.7729107970322e-05,4522242.1979386,0.013866110856661
36019200,0.99917171896861,0.014378506866301,0.0043371724875408,0.0043371724876127,0.0057041618911477,-0.00096352543019845,0.00096352586477556,-6.9664952400289e-09,7.4255799078074e-09,2.5725108468536e-10,2.171406091505e-10,-0.0011933166173102,0.0011933122591024,-0.0011933118199045,0.0011933170582394,-0.0011933166594229,0.0011933122319052,-0.0011933118642573,0.0011933170328563,-0.0010648861941216,0.0010648725543305,-0.0010648720803721,0.0010648866148872,-2.5154043747466e-10,-2.2026309462101e-10,-3.3786406348662e-10,-1.1904457970593e-10,-0.00096352586381254,0.00096352543122144,-0.0011933147014368,0.0011933141899156,-0.0011933146280405,0.0011933142677998,-0.0011933146616355,0.0011933142138522,-0.0011933145884329,0.0011933142916917,-0.0010648797283332,0.0010648790652252,-0.0010648794485156,0.0010648792145104,-0.0009694866280417,0.00096948621051811,-0.0009694865796997,0.0009694862066379,7.6574093667531e-09,-6.7310687105889e-09,-0.0013882611146404,0.0013882620081102,6.5011078515e-10,3.393205721365e-10,-0.0016371083315501,0.0016371140806011,-0.0016371084469203,0.0016371139463595,-0.0016371131344898,0.0016371092936694,-0.0016371132518477,0.001637109161093,-0.0013038876328516,0.0013038743584378,-0.0013038735414246,0.0013038884587842,0.7358631109631,131329,3014,0.0040095143423638,0.0040095143424892,0.0057646381875619,37.856198574936,6.2849588599488e-05,6.2849588599488e-05,6.2849588599488e-05,4532390.2771375,0.013881062291836
36219200,0.99923131009863,0.014379349340717,0.004337422814354,0.0043374228144259,0.0057045037119375,-0.00096341993699904,0.00096342037227174,-7.0106155406252e-09,7.4708200098416e-09,2.4009446063198e-10,2.3516779881458e-10,-0.0011933451142404,0.001193340714521,-0.0011933402861423,0.0011933455441652,-0.0011933451442627,0.0011933406998618,-0.001193340319983,0.0011933455296872,-0.0010648055361099,0.0010647918253526,-0.0010647913400707,0.0010648059736708,-1.8453472345174e-10,-2.8915423516344e-10,-3.1714599274172e-10,-1.4043904323533e-10,-0.00096342037190451,0.00096341993732459,-0.0011933431498395,0.0011933426942959,-0.0011933430894874,0.0011933427588271,-0.0011933431545881,0.0011933426736104,-0.0011933430960459,0.001193342736505,-0.0010647990344145,0.0010647983715506,-0.0010647988003878,0.0010647984794331,-0.00096944071411996,0.00096944041909278,-0.00096944080140601,0.00096944027821258,7.6993096753156e-09,-6.7721256668565e-09,-0.0013882729121311,0.0013882738072793,6.2429352193791e-10,3.6642309934937e-10,-0.00163720058775,0.0016372063482335,-0.0016372006846085,0.0016372062323999,-0.0016372054175538,0.0016372015344705,-0.0016372055180291,0.0016372014187477,-0.0013039464627249,0.0013039331219773,-0.0013039322893833,0.0013039473077468,0.71361056376723,131329,3014,0.0040090805307881,0.0040090805307015,0.0057646827734135,37.82719978307,6.2617598264563e-05,6.2617598264563e-05,6.2617598264563e-05,4524309.7403096,0.013880232359826
36419200,0.99928567217642,0.014380106722284,0.0043376476586196,0.0043376476586915,0.0057048114049733,-0.00096279534295915,0.00096279577987958,-7.0521749570135e-09,7.5136624696809e-09,1.9261155396689e-10,2.8490914677996e-10,-0.0011927753843897,0.0011927709257254,-0.0011927705287182,0.0011927757830626,-0.0011927753820528,0.0011927709434446,-0.0011927705292159,0.0011927758019308,-0.0010641849425961,0.0010641711806083,-0.0010641706615791,0.0010641854120552,-1.4735493622822e-10,-3.2852787012739e-10,-2.8959431759422e-10,-1.704255933944e-10,-0.00096279577960037,0.00096279534323212,-0.0011927733690863,0.0011927729566749,-0.0011927733283683,0.0011927730015278,-0.0011927733990718,0.0011927729102898,-0.0011927733591986,0.0011927729544936,-0.0010641784027406,0.0010641777655119,-0.0010641782227651,0.0010641778175904,-0.00096883646612735,0.00096883622303351,-0.00096883662602849,0.00096883600843603,7.7441829289391e-09,-6.8149601988204e-09,-0.0013876992395324,0.0013877001364926,5.9828748175753e-10,3.9466335027615e-10,-0.0016366590395447,0.0016366648134309,-0.001636659118939,0.001636664715127,-0.0016366638991356,0.0016366599698911,-0.0016366639810213,0.0016366598725724,-0.0013033946076125,0.0013033812026434,-0.0013033803488608,0.0013033954721745,0.70434021238268,131329,3014,0.0040064895072623,0.00400648950725,0.0057623052715066,37.495718741564,5.9965749932511e-05,5.9965749932511e-05,5.9965749932511e-05,4513412.7796756,0.013872568880458
36619200,0.99933530835088,0.014380755759356,0.0043378392914213,0.0043378392914933,0.0057050771764418,-0.00096217227337411,0.00096217271154939,-7.0949434557005e-09,7.5573208553884e-09,1.2913195957786e-10,3.4989407297625e-10,-0.0011921746950085,0.0011921701658873,-0.0011921698108127,0.0011921750525119,-0.0011921746496038,0.0011921702262696,-0.0011921697685028,0.0011921751136066,-0.0010635613400909,0.0010635475371494,-0.0010635469743462,0.001063561852931,-1.4455393979837e-10,-3.326785681481e-10,-2.6020889150608e-10,-2.0090534767761e-10,-0.0009621727110696,0.00096217227388789,-0.0011921726340094,0.0011921722428603,-0.0011921726133302,0.0011921722682742,-0.0011921726656902,0.0011921721937516,-0.0011921726461836,0.0011921722181357,-0.0010635547528544,0.0010635541707475,-0.0010635546312595,0.0010635541641462,-0.00096821707247827,0.00096821681421357,-0.00096821723901025,0.00096821659296701,7.7881208135493e-09,-6.8567204187802e-09,-0.0013871065531667,0.0013871074521201,5.7652414784773e-10,4.187940094246e-10,-0.0016360807368661,0.0016360865260484,-0.0016360808005116,0.0016360864429552,-0.0016360856245181,0.0016360816537197,-0.0016360856908386,0.0016360815710786,-0.0013028105022973,0.0013027970306684,-0.0013027961608488,0.0013028113856021,0.66675282167783,131329,3014,0.0040039037011292,0.0040039037012004,0.0057598502225109,37.15729581415,5.7258366513202e-05,5.7258366513202e-05,5.7258366513202e-05,4503961.2728421,0.01386483619966
36819200,0.99938068615066,0.014381331708326,0.0043380089582396,0.0043380089583115,0.0057053137917746,-0.00096158726553953,0.00096158770530575,-7.1365574309222e-09,7.6007351801106e-09,1.1758653698848e-10,3.6332456903675e-10,-0.001191532189389,0.0011915276258268,-0.0011915272768722,0.0011915325402469,-0.0011915321365995,0.0011915276942016,-0.0011915272265022,0.0011915326101198,-0.0010629735443213,0.0010629596678453,-0.0010629590936427,0.0010629740665583,-1.0791683475819e-10,-3.7067192612967e-10,-2.3765013483019e-10,-2.2445784054833e-10,-0.0009615877044944,0.00096158726639293,-0.0011915300910289,0.0011915297400991,-0.0011915300856888,0.001191529749565,-0.0011915301485574,0.001191529665954,-0.0011915301436594,0.0011915296751307,-0.001062966910676,0.0010629663468822,-0.0010629668326482,0.0010629662946126,-0.00096759257212922,0.00096759236985966,-0.00096759281219169,0.00096759207593162,7.8322702113449e-09,-6.8996747355553e-09,-0.0013865162540046,0.001386517153958,5.5129194058611e-10,4.4544576032014e-10,-0.0016354625927981,0.0016354683943615,-0.0016354626395106,0.001635468328501,-0.001635467510102,0.0016354634930348,-0.0016354675590521,0.0016354634286456,-0.0013021858608652,0.0013021723238443,-0.0013021714329111,0.0013021867615172,0.6495783505406,131329,3014,0.0040014730937693,0.0040014730938573,0.0057574079695013,36.818630320432,5.4549042563456e-05,5.4549042563456e-05,5.4549042563456e-05,4499232.500274,0.013857427573563
37019200,0.99942340698148,0.014381913628833,0.0043381816002335,0.0043381816003055,0.0057055504282944,-0.00096197396506221,0.00096197440433825,-7.1803106152924e-09,7.6438782321199e-09,1.2606276039861e-10,3.5406441181055e-10,-0.0011918692175623,0.0011918646304595,-0.001191864275923,0.0011918695741305,-0.0011918691704288,0.0011918646930341,-0.0011918642316405,0.0011918696377578,-0.0010634051238967,0.0010633911563574,-0.0010633905866658,0.0010634056373272,-1.2298252679878e-10,-3.5609305511447e-10,-2.2791343158264e-10,-2.3460123214303e-10,-0.00096197440369482,0.00096197396582022,-0.0011918671086431,0.0011918667550594,-0.0011918671097319,0.0011918667581798,-0.0011918671562361,0.0011918666910423,-0.0011918671581787,0.0011918666934096,-0.0010633984303907,0.0010633978951839,-0.0010633983708519,0.0010633978207978,-0.00096795409977524,0.00096795386001223,-0.00096795431234472,0.0009679535957364,7.8757950282798e-09,-6.9415465911636e-09,-0.0013869453091155,0.0013869462100432,5.4194695124559e-10,4.564110325739e-10,-0.0016358767576909,0.0016358825811371,-0.0016358767973905,0.0016358825222616,-0.0016358817032682,0.001635877651608,-0.0016358817456958,0.0016358775938179,-0.0013025657159001,0.0013025521041218,-0.001302551202869,0.0013025666254142,0.68961816924966,131329,3014,0.0040030761502422,0.0040030761504813,0.0057591868674111,37.016532804491,5.6132262435927e-05,5.6132262435927e-05,5.6132262435927e-05,4506870.5339312,0.013862478167493
37219200,0.99946386630532,0.014382505315814,0.0043383581537319,0.0043383581538039,0.0057057890082784,-0.00096255520425932,0.00096255564263676,-7.2238754528871e-09,7.6866433209111e-09,1.4644910519801e-10,3.3268579326562e-10,-0.001192501343669,0.0011924967406925,-0.0011924963735047,0.0011925017134196,-0.0011925013103568,0.0011924967893416,-0.0011924963430969,0.0011925017631862,-0.0010640387903382,0.0010640247235474,-0.0010640241700518,0.0010640392903157,-1.5409138337668e-10,-3.2244953552406e-10,-2.2239466562798e-10,-2.3808121208795e-10,-0.00096255564153918,0.00096255520542323,-0.0011924992352791,0.0011924988645109,-0.001192499239622,0.0011924988649067,-0.0011924992615237,0.0011924988223396,-0.0011924992668151,0.0011924988220718,-0.0010640320310579,0.001064031528669,-0.0010640319811697,0.0010640314467598,-0.00096856212796436,0.00096856182477566,-0.00096856227649097,0.00096856162395997,7.9187892994226e-09,-6.9845520182008e-09,-0.0013876150793896,0.0013876159806209,5.3829966293245e-10,4.6013938776344e-10,-0.0016365881940842,0.0016365940442645,-0.0016365882312799,0.0016365939878065,-0.0016365931684726,0.0016365890863183,-0.0016365932084748,0.0016365890310264,-0.001303233494399,0.0013032198002778,-0.0013032188974496,0.0013032344060468,0.73362544521195,131329,3014,0.0040054901182631,0.0040054901184008,0.0057619592438617,37.343582376496,5.8748659011972e-05,5.8748659011972e-05,5.8748659011972e-05,4511785.5443532,0.013870185259537
37419200,0.99950213870238,0.014383023417617,0.004338511656176,0.004338511656248,0.0057060001051935,-0.00096309621363443,0.00096309665000835,-7.2675600032953e-09,7.7283336340948e-09,1.8707428721482e-10,2.8977025651169e-10,-0.0011931830734141,0.0011931784679696,-0.0011931780747508,0.0011931834686405,-0.0011931830680539,0.0011931784885253,-0.0011931780717588,0.0011931834907391,-0.0010646243097273,0.001064610128885,-0.0010646096050973,0.0010646247800316,-1.7255391670602e-10,-3.0257403773996e-10,-2.209287585437e-10,-2.3850661279221e-10,-0.00096309664940935,0.00096309621429067,-0.0011931809693663,0.001193180587558,-0.0011931809743133,0.001193180586784,-0.001193180982907,0.0011931805577641,-0.0011931809882498,0.001193180556746,-0.001064617485696,0.0010646169985354,-0.0010646174370378,0.0010646169154856,-0.00096917473738263,0.00096917439699434,-0.00096917484722808,0.00096917423420489,7.9631581322205e-09,-7.0270678183723e-09,-0.0013882807058075,0.0013882816089849,5.3710566020253e-10,4.6322309152899e-10,-0.0016373400999175,0.0016373459799082,-0.0016373401360074,0.0016373459246906,-0.0016373451033139,0.0016373409925088,-0.0016373451416187,0.0016373409388368,-0.0013039467135837,0.0013039329381657,-0.0013039320325491,0.0013039476286963,0.68665560378332,131329,3014,0.0040077400783568,0.0040077400784762,0.0057647114614991,37.673663130522,6.1389305044179e-05,6.1389305044179e-05,6.1389305044179e-05,4511638.3517455,0.01387754367249
37619200,0.99953829304273,0.014383494376376,0.0043386507410321,0.0043386507411042,0.00570619289424,-0.00096366981263703,0.00096367024774673,-7.3113323629621e-09,7.7708890619968e-09,2.1522300343792e-10,2.6009124439102e-10,-0.0011938065947936,0.0011938019784348,-0.0011938015673002,0.0011938070079081,-0.0011938066084964,0.0011938019798334,-0.0011938015834268,0.0011938070107914,-0.0010652484150846,0.0010652341291959,-0.0010652336262679,0.0010652488650271,-2.0460006001074e-10,-2.6861973575771e-10,-2.1999839561225e-10,-2.3783621331675e-10,-0.00096367024700265,0.00096366981342653,-0.0011938044955185,0.0011938040931465,-0.0011938045005151,0.0011938040922889,-0.0011938044870386,0.0011938040855221,-0.0011938044924863,0.0011938040843684,-0.0010652415265763,0.0010652410633151,-0.0010652414784906,0.0010652409801548,-0.00096977537592798,0.0009697749724194,-0.00096977542102726,0.00096977487459187,8.0061445573677e-09,-7.0700565817422e-09,-0.001388958964003,0.0013889598672822,5.3725264224174e-10,4.6308520374137e-10,-0.0016380539593873,0.0016380598682749,-0.001638053995599,0.0016380598129931,-0.0016380589913661,0.0016380548522669,-0.0016380590298554,0.0016380547984512,-0.0013046213169051,0.0013046074570053,-0.0013046065516625,0.0013046222318423,0.66415287182891,131329,3014,0.0040101221329305,0.0040101221330253,0.0057675190909056,38.003850244582,6.403080195666e-05,6.403080195666e-05,6.403080195666e-05,4517491.0892853,0.013885221412597
37819200,0.99957147721053,0.014383908407491,0.0043387725046752,0.0043387725047473,0.0057063633980686,-0.00096332846184572,0.00096332889768706,-7.3552992888615e-09,7.8156324657048e-09,2.0313512627309e-10,2.7306848994507e-10,-0.0011934257475943,0.001193421093947,-0.0011934206896784,0.0011934261535679,-0.0011934257527826,0.0011934211042746,-0.0011934206987826,0.0011934261637636,-0.0010649098160773,0.0010648954558785,-0.0010648949446817,0.0010649102778344,-2.3434354837521e-10,-2.3586759565502e-10,-2.1247136910738e-10,-2.4274490331678e-10,-0.00096332889554959,0.00096332846396528,-0.0011934236374345,0.0011934232195618,-0.001193423645665,0.0011934232152272,-0.0011934236080179,0.0011934232334249,-0.0011934236181652,0.0011934232271521,-0.0010649028693735,0.0010649024461812,-0.0010649028381002,0.0010649023496117,-0.00096940302498526,0.00096940256319946,-0.00096940300981943,0.00096940252203956,8.0473306360436e-09,-7.1123743163174e-09,-0.0013886205597151,0.0013886214625385,5.3168284974802e-10,4.6774165798989e-10,-0.0016377003648037,0.001637706297479,-0.0016377003969087,0.0016377062464718,-0.0016377054240178,0.001637701254441,-0.0016377054599962,0.001637701203398,-0.0013042498258198,0.0013042358830563,-0.001304234975885,0.0013042507418298,0.64016142647695,131329,3014,0.0040087034104172,0.0040087034103804,0.0057661196246138,37.803862252959,6.2430898023674e-05,6.2430898023674e-05,6.2430898023674e-05,4515433.6588567,0.01388092273963
38019200,0.99960188866121,0.014384305915223,0.0043388899817696,0.0043388899818416,0.0057065259516119,-0.00096293511123791,0.00096293554574337,-7.3979982845541e-09,7.85701988373e-09,2.2805135459942e-10,2.4660068860647e-10,-0.0011929320290816,0.0011929273631407,-0.0011929269438071,0.0011929324503411,-0.0011929320514139,0.0011929273558864,-0.0011929269688912,0.001192932444242,-0.0010645187803745,0.0010645043168716,-0.001064503823782,0.0010645192221226,-2.2309064951039e-10,-2.4861438610778e-10,-2.103859951257e-10,-2.4612397228794e-10,-0.00096293554475043,0.00096293511225684,-0.0011929299080357,0.0011929294995715,-0.0011929299187759,0.0011929294928915,-0.0011929298867013,0.0011929295049521,-0.0011929298982234,0.0011929294976476,-0.001064511786583,0.0010645113562037,-0.0010645117572257,0.001064511255642,-0.00096895038745291,0.00096894994279396,-0.00096895039524891,0.00096894988176685,8.0920728308473e-09,-7.1557723150677e-09,-0.0013881985299846,0.0013881994337603,5.2856242078087e-10,4.7214453792611e-10,-0.00163723146799,0.0016372374286649,-0.0016372314981455,0.0016372373795059,-0.0016372365570546,0.0016372323556493,-0.0016372365897808,0.0016372323075966,-0.0013037692661402,0.0013037552432236,-0.0013037543321808,0.0013037701867282,0.66569814936473,131329,3014,0.0040070669640446,0.004007066964099,0.0057643758105786,37.559452857524,6.047562286019e-05,6.047562286019e-05,6.047562286019e-05,4515270.2425318,0.01387583115395
38219200,0.99962978363153,0.014384673775989,0.0043389987823932,0.0043389987824652,0.0057066762111307,-0.00096251822053631,0.00096251865463853,-7.4411656498208e-09,7.8997357180847e-09,2.3583438953893e-10,2.3828912637193e-10,-0.0011924690546683,0.0011924643651748,-0.0011924639408981,0.0011924694808841,-0.001192469082405,0.0011924643524453,-0.0011924639711182,0.0011924694695659,-0.0010641041666944,0.0010640896128707,-0.0010640891251448,0.0010641046021082,-2.2688629788373e-10,-2.4488105327434e-10,-2.0969247610313e-10,-2.4690551230179e-10,-0.00096251865382124,0.00096251822139394,-0.0011924669226888,0.0011924665124836,-0.0011924669340604,0.0011924665051892,-0.0011924668989403,0.0011924665202794,-0.001192466910822,0.0011924665126132,-0.0010640971261583,0.0010640966989662,-0.0010640970974555,0.0010640965969425,-0.00096850454849531,0.0009685040951245,-0.00096850454868505,0.00096850404213743,8.1353737992677e-09,-7.198795269393e-09,-0.0013877680975718,0.0013877690014901,5.2791075854164e-10,4.7305631680718e-10,-0.0016367836103655,0.0016367895994508,-0.0016367836401379,0.0016367895506833,-0.0016367887283233,0.0016367844975269,-0.0016367887603815,0.0016367844501182,-0.0013033108787733,0.0013032967727698,-0.0013032958606741,0.0013033118004663,0.67076172822168,131329,3014,0.004005334783378,0.0040053347834623,0.0057625952866873,37.313903959246,5.851123167397e-05,5.851123167397e-05,5.851123167397e-05,4511539.4413362,0.013870511273278
38419200,0.99965556599575,0.014385038577716,0.0043391073696471,0.0043391073697191,0.0057068238383497,-0.00096232519302328,0.0009623256269354,-7.4847495403334e-09,7.9429432130371e-09,2.3859403167493e-10,2.3513885266946e-10,-0.0011922516493417,0.0011922469328986,-0.0011922465065188,0.0011922520776327,-0.0011922516790203,0.0011922469182174,-0.0011922465388803,0.0011922520640701,-0.0010639238055396,0.0010639091651001,-0.0010639086780655,0.0010639242374889,-2.4219628237254e-10,-2.2947429986839e-10,-2.1391489574346e-10,-2.4272544666582e-10,-0.0009623256260366,0.00096232519400975,-0.0011922495099528,0.0011922490874833,-0.0011922495184221,0.0011922490831,-0.0011922494760424,0.0011922491055785,-0.0011922494851952,0.0011922491005058,-0.0010639167204688,0.0010639162952165,-0.0010639166831082,0.0010639161997405,-0.00096829762552287,0.00096829714450346,-0.0009682975965776,0.0009682971214885,8.1781879593834e-09,-7.2414406463708e-09,-0.0013875787882788,0.0013875796919954,5.3221853088333e-10,4.6880687974221e-10,-0.0016365892780395,0.0016365952978863,-0.0016365893105966,0.0016365952464192,-0.0016365944243899,0.0016365901675806,-0.001636594459442,0.0016365901171955,-0.0013031028237067,0.0013030886317919,-0.0013030877207761,0.0013031037430391,0.71253733417059,131329,3014,0.0040045325795589,0.0040045325797421,0.0057618125401788,37.196398571715,5.7571188573719e-05,5.7571188573719e-05,5.7571188573719e-05,4509590.2172288,0.013868089889211
38619200,0.9996795497891,0.014385379905893,0.0043392089990605,0.0043392089991325,0.0057069619076995,-0.00096229759817123,0.00096229803185197,-7.5276962638699e-09,7.9858750848508e-09,2.4704918243471e-10,2.2646455075166e-10,-0.0011922942523077,0.0011922895124123,-0.0011922890810114,0.0011922946857286,-0.0011922942875434,0.0011922894919988,-0.0011922891187446,0.0011922946667739,-0.0010639143118603,0.0010638995806286,-0.0010638990997736,0.0010639147374652,-2.5490175772628e-10,-2.1604542036144e-10,-2.2166911008548e-10,-2.3434606762649e-10,-0.00096229803078338,0.00096229759932367,-0.0011922921079611,0.0011922916718347,-0.0011922921112567,0.0011922916727884,-0.0011922920653077,0.0011922916986788,-0.0011922920690944,0.0011922916992765,-0.0010639071854086,0.0010639067527944,-0.001063907131531,0.001063906673602,-0.00096830709174591,0.00096830659013441,-0.00096830703652023,0.00096830659382508,8.2213458040585e-09,-7.2847311952271e-09,-0.0013875985238973,0.0013875994273962,5.4049925397175e-10,4.602856302076e-10,-0.0016366539393073,0.0016366599933605,-0.0016366539775312,0.0016366599361311,-0.0016366591145432,0.0016366548341527,-0.0016366591550715,0.0016366547783266,-0.0013031519384264,0.0013031376562814,-0.0013031367514948,0.0013031528518534,0.71625967166173,131329,3014,0.0040044202782017,0.0040044202783766,0.0057618922231683,37.19370610969,5.7549648877524e-05,5.7549648877524e-05,5.7549648877524e-05,4504816.4653671,0.013867946359002
38819200,0.99970186371133,0.01438569865267,0.004339303943259,0.0043393039433311,0.0057070907660796,-0.00096227155369811,0.00096227198669089,-7.5710563932771e-09,8.0285017377829e-09,2.597638463928e-10,2.1298759105176e-10,-0.0011923419631131,0.0011923372027528,-0.0011923367631259,0.0011923424046351,-0.0011923420071961,0.0011923371735218,-0.0011923368096199,0.0011923423769049,-0.0010639016399785,0.0010638868153158,-0.0010638863446388,0.0010639020573802,-2.5754325401534e-10,-2.1283584494302e-10,-2.3090025147613e-10,-2.2464254155123e-10,-0.00096227198582911,0.00096227155461184,-0.0011923398126002,0.0011923393684041,-0.0011923398096097,0.0011923393755636,-0.0011923397680796,0.0011923393970583,-0.0011923397654963,0.0011923394039066,-0.0010638944744687,0.0010638940263175,-0.0010638944027866,0.0010638939666796,-0.0009683186897664,0.00096831819009771,-0.00096831862847936,0.00096831819906437,8.26398319828e-09,-7.3284209593584e-09,-0.0013876208736704,0.0013876217764017,5.4924229790717e-10,4.5045437678094e-10,-0.0016367206190735,0.0016367267076474,-0.0016367206635761,0.0016367266441945,-0.001636725823086,0.0016367215195934,-0.0016367258697675,0.0016367214575583,-0.001303206909342,0.0013031925350324,-0.0013031916382567,0.0013032078154576,0.71844600764036,131329,3014,0.0040043144739634,0.0040043144740718,0.0057619825808648,37.193612064308,5.7548896514464e-05,5.7548896514464e-05,5.7548896514464e-05,4500199.0179616,0.013867826781182
38880000,0.99970849626103,0.014385793530104,0.0043393322139615,0.0043393322140336,0.0057071291021088,-0.00096226032713519,0.00096226076000868,-7.5842336277216e-09,8.0415819126631e-09,2.6313381732486e-10,2.0947625258545e-10,-0.0011923561723836,0.0011923514054065,-0.0011923509636156,0.0011923566160792,-0.0011923562187199,0.0011923513739017,-0.0011923510124284,0.0011923565860303,-0.0010638959868145,0.0010638811340665,-0.0010638806659531,0.0010638964018602,-2.5583358389878e-10,-2.1457829359476e-10,-2.3447229681445e-10,-2.2108874791475e-10,-0.00096226075923131,0.00096226032796167,-0.0011923540192022,0.0011923535736848,-0.0011923540138288,0.0011923535832579,-0.001192353975829,0.0011923536012386,-0.0011923539709302,0.0011923536104564,-0.0010638888113106,0.0010638883550749,-0.0010638887328158,0.0010638883024406,-0.00096832073458699,0.00096832024073098,-0.00096832067669747,0.00096832024628791,8.2769449617777e-09,-7.3415866943307e-09,-0.001387626290745,0.001387627193289,5.5230587855218e-10,4.4715521445043e-10,-0.0016367404019896,0.001636746501178,-0.0016367404485586,0.0016367464356141,-0.0016367456146741,0.00163674130447,-0.0016367456635319,0.0016367412403014,-0.0013032244575914,0.0013032100552219,-0.0013032091609085,0.0013032253613858,0.71909631057079,131329,3014,0.0040042686310081,0.0040042686311106,0.0057620042468546,37.193608841345,5.7548870730763e-05,5.7548870730763e-05,5.7548870730763e-05,4498773.3834735,0.013867756858914
