time,ASR_ext,ASR_strain,ASR_strain_xx,ASR_strain_yy,ASR_strain_zz,disp_x_101,disp_x_102,disp_x_103,disp_x_104,disp_x_105,disp_x_106,disp_x_p1_neg,disp_x_p1_pos,disp_x_p2_neg,disp_x_p2_pos,disp_x_p3_neg,disp_x_p3_pos,disp_x_p4_neg,disp_x_p4_pos,disp_x_p5_neg,disp_x_p5_pos,disp_x_p6_neg,disp_x_p6_pos,disp_y_101,disp_y_102,disp_y_103,disp_y_104,disp_y_105,disp_y_106,disp_y_p1_neg,disp_y_p1_pos,disp_y_p2_neg,disp_y_p2_pos,disp_y_p3_neg,disp_y_p3_pos,disp_y_p4_neg,disp_y_p4_pos,disp_y_p5_neg,disp_y_p5_pos,disp_y_p6_neg,disp_y_p6_pos,disp_y_p7_neg,disp_y_p7_pos,disp_y_p8_neg,disp_y_p8_pos,disp_z_101,disp_z_102,disp_z_103,disp_z_104,disp_z_105,disp_z_106,disp_z_p1_neg,disp_z_p1_pos,disp_z_p2_neg,disp_z_p2_pos,disp_z_p3_neg,disp_z_p3_pos,disp_z_p4_neg,disp_z_p4_pos,disp_z_p5_neg,disp_z_p5_pos,disp_z_p6_neg,disp_z_p6_pos,humidity,ndof,nelem,strain_xx,strain_yy,strain_zz,temp,thermal_strain_xx,thermal_strain_yy,thermal_strain_zz,vonmises,vstrain
2419200,0,0,0,0,0,0,0,0,0,0,0,0,0,0,0,0,0,0,0,0,0,0,0,0,0,0,0,0,0,0,0,0,0,0,0,0,0,0,0,0,0,0,0,0,0,0,0,0,0,0,0,0,0,0,0,0,0,0,0,0,0,0,0,0,0,0,0,0,0,0,0,0,0,0,0
2619200,0.019526774541664,0.00040058005569578,0.00013352668523193,0.00013352668523193,0.00013352668523193,-3.5399971605931e-05,3.5399488602382e-05,-2.2700559021225e-10,-2.5434895789481e-10,4.7510846363205e-10,-9.7707722526477e-10,-3.4732554207996e-05,3.4732560080915e-05,-3.4732550815407e-05,3.4732538506564e-05,-3.4733011648021e-05,3.4732068904913e-05,-3.4733020823136e-05,3.4732059777744e-05,-3.5608380710601e-05,3.5607443617738e-05,-3.5608406030495e-05,3.5607415214166e-05,-4.7486000500905e-10,9.7799599509762e-10,-2.4325430711308e-09,2.9120525012534e-09,-3.5399488706723e-05,3.539997150176e-05,-3.4733392918427e-05,3.4731646020087e-05,-3.4731685669e-05,3.473343845317e-05,-3.4732928690923e-05,3.4732130945182e-05,-3.473122150712e-05,3.4733923323341e-05,-3.5610018730866e-05,3.5605733760285e-05,-3.5604850058922e-05,3.5611055075143e-05,-3.6056062967907e-05,3.6056897755406e-05,-3.6054644602231e-05,3.6058347160166e-05,-5.8791601335277e-10,-5.6045546816134e-10,-3.2997973233158e-05,3.2996815407853e-05,2.0225738700632e-09,-3.2673183856017e-09,-3.2689715868564e-05,3.2690327710543e-05,-3.2691470492502e-05,3.2688575131601e-05,-3.2689705864613e-05,3.2690336057237e-05,-3.26914605239e-05,3.2688583411163e-05,-3.4280226949828e-05,3.4277342182957e-05,-3.4280254924994e-05,3.4277316449895e-05,0.81992965368171,125803,2834,0.0001474879363765,0.00014748793637692,0.00013747967815654,31.519551508462,1.2156412067699e-05,1.2156412067699e-05,1.2156412067699e-05,551395.38989464,0.00043254929789593
2819200,0.041122837528901,0.00083755725308075,0.00028068258501705,0.00028068258450299,0.00027619208356072,-7.3532951023289e-05,7.3531952567056e-05,-4.0557082778814e-10,-5.861323966238e-10,1.3347422825836e-09,-2.3813747127953e-09,-7.289858385875e-05,7.2898873477269e-05,-7.2898647790664e-05,7.2898813627457e-05,-7.2899775207232e-05,7.2897633571054e-05,-7.2899832104705e-05,7.2897573753729e-05,-7.3366496738141e-05,7.3364443216784e-05,-7.3366668186151e-05,7.3364270980776e-05,-1.4040380975558e-09,2.5274261175657e-09,1.3032281744868e-09,-2.4236960028289e-10,-7.3531916657653e-05,7.3532986696769e-05,-7.2898572116765e-05,7.2898851057279e-05,-7.2899058684379e-05,7.289832557627e-05,-7.2897317602873e-05,7.2900161499381e-05,-7.2897800618352e-05,7.2899639532616e-05,-7.3363558313257e-05,7.3367431318169e-05,-7.3365035335707e-05,7.3365889505209e-05,-7.4385155347761e-05,7.4381861800081e-05,-7.4381311589146e-05,7.4385794022687e-05,3.7329508074664e-10,6.3059309842767e-10,-6.7423078881751e-05,6.7424082691198e-05,-2.5765417167142e-10,1.2917541965525e-09,-6.7921252454637e-05,6.7921650852953e-05,-6.7920749072591e-05,6.7922160604126e-05,-6.7921166352858e-05,6.7921732814696e-05,-6.7920659921263e-05,6.792224659814e-05,-6.984861214147e-05,6.9850385121256e-05,-6.9848874171003e-05,6.9850132825726e-05,0.82138489005453,125803,2834,0.00030633811953489,0.00030633811904355,0.00028089233387461,32.736193398617,2.188954718894e-05,2.188954718894e-05,2.188954718894e-05,736603.56193417,0.00089396833643943
3019200,0.062601869048415,0.0012707922872935,0.00042919668803773,0.00042919668885588,0.00041239891039993,-0.00010915859579409,0.00010915759856401,-3.035007693113e-10,-6.873167546692e-10,1.8364955738025e-09,-2.8927479990086e-09,-0.0001085542140045,0.00010855491335207,-0.0001085543521001,0.00010855479468109,-0.00010855574284149,0.00010855333418732,-0.00010855586576975,0.00010855320445765,-0.0001082978630996,0.00010829566921496,-0.00010829823596595,0.00010829529370404,-1.9041255336838e-09,2.993705111104e-09,3.9975175760428e-09,-2.9795329264136e-09,-0.00010915758381472,0.00010915861094643,-0.00010855371304539,0.00010855541557271,-0.00010855594070295,0.00010855307316303,-0.00010855215193549,0.00010855704257126,-0.00010855437790186,0.00010855470257801,-0.00010829208291772,0.00010830157124806,-0.00010829882313508,0.00010829462092194,-0.000110341703336,0.00011033562377875,-0.00011033692129002,0.00011034051567295,6.7194159604129e-10,1.111625174125e-09,-9.7649082143798e-05,9.7650874232471e-05,-2.493414117198e-09,4.4021830958016e-09,-9.8858925495714e-05,9.8858256799563e-05,-9.885665066182e-05,9.8860541794075e-05,-9.8858776090878e-05,9.8858396182489e-05,-9.8856499563527e-05,9.8860688213277e-05,-0.00010176841100565,0.00010177292337396,-0.00010176885337795,0.00010177249385502,0.82013323415392,125803,2834,0.00045472158821913,0.00045472158905856,0.00040679296336615,32.491947826009,1.9935582608076e-05,1.9935582608076e-05,1.9935582608076e-05,993520.17583929,0.0013171035996307
3219200,0.083856895369809,0.0016900427764277,0.00057483958087541,0.0005748395821238,0.0005403636134285,-0.00014401287256577,0.00014401196984137,-1.6037382638087e-10,-7.3850779462322e-10,2.0312615095905e-09,-2.990942472959e-09,-0.00014367667419767,0.00014367763028065,-0.0001436768776764,0.00014367744847468,-0.0001436783043266,0.0001436759559352,-0.00014367848913805,0.00014367575799132,-0.00014197430383452,0.00014197229093551,-0.00014197485920402,0.00014197171541913,-2.0790854921889e-09,3.0446381807666e-09,5.7185563444565e-09,-4.818326031296e-09,-0.00014401196812435,0.00014401287489097,-0.00014367582058926,0.00014367850234953,-0.00014367920605129,0.00014367497541081,-0.00014367418469012,0.00014368020110335,-0.00014367756950877,0.00014367667605089,-0.00014196689563893,0.00014197984441734,-0.00014197709888918,0.00014196935916757,-0.00014539657069185,0.00014538896836901,-0.00014539156664327,0.00014539408002695,7.4358090332512e-10,1.3745792001262e-09,-0.00012584292944128,0.0001258450548385,-4.0606288305097e-09,6.3612358446685e-09,-0.00012795338957656,0.00012795180321865,-0.00012794994300508,0.00012795526065314,-0.00012795317620568,0.00012795200635455,-0.00012794972759684,0.00012795547089981,-0.00013177711430826,0.00013178332552995,-0.00013177774286453,0.00013178270719949,0.80675912455695,125803,2834,0.00059987100871692,0.00059987100998347,0.00052421458122186,32.204230278623,1.7633842228985e-05,1.7633842228985e-05,1.7633842228985e-05,1206755.7715035,0.0017254447819628
3419200,0.10486057126835,0.0020913509132463,0.00071609730985676,0.00071609731117231,0.00065915629221725,-0.00017780474767652,0.00017780397492603,8.7000923063873e-14,-7.7122526647985e-10,2.0881419619464e-09,-2.9147110878564e-09,-0.00017807248243545,0.00017807362735709,-0.00017807274888573,0.00017807337999184,-0.00017807411087739,0.00017807196047897,-0.00017807435784218,0.00017807169570859,-0.00017401434237198,0.00017401265119328,-0.00017401507768594,0.00017401187703265,-2.1320933909001e-09,2.9634858064028e-09,6.8373726590517e-09,-6.0656868069368e-09,-0.00017780397365486,0.00017780474958746,-0.00017807139797685,0.00017807473879169,-0.00017807555924596,0.00017807042629412,-0.00017806976770142,0.00017807642687121,-0.00017807392871906,0.00017807211620357,-0.00017400600614676,0.00017402114515662,-0.00017401851054432,0.00017400831079352,-0.00017918796910585,0.00017917947900613,-0.00017918299018984,0.00017918455971205,7.1369285218133e-10,1.5371330240383e-09,-0.00015188068283809,0.00015188293692681,-5.1427931714221e-09,7.6163117687576e-09,-0.00015512054772009,0.00015511823536268,-0.00015511632419665,0.00015512246884178,-0.00015512027055109,0.00015511850307861,-0.00015511604479868,0.00015512274350626,-0.00015959082781532,0.00015959814012127,-0.00015959164322883,0.00015959733200965,0.78589835489664,125803,2834,0.00074057590808564,0.00074057590941791,0.0006326448332836,31.914758506017,1.5318068048134e-05,1.5318068048134e-05,1.5318068048134e-05,1411116.5326648,0.0021160339975404
3619200,0.12612933056472,0.0024863020324543,0.00085654877091681,0.00085654877230052,0.00077320448923698,-0.00021211695986755,0.00021211625757313,1.3040597045918e-10,-8.3194122560486e-10,2.0389297315154e-09,-2.792942070706e-09,-0.00021338403632063,0.0002133852604388,-0.0002133843682934,0.00021338495115099,-0.00021338561366219,0.00021338365074958,-0.00021338592469553,0.00021338332265915,-0.00020588111524132,0.00020587973762684,-0.00020588203131531,0.00020587877064873,-2.0718700234253e-09,2.8168061305049e-09,7.293941064512e-09,-6.6048825609212e-09,-0.00021211626292952,0.00021211695518678,-0.00021338283930883,0.00021338649283729,-0.00021338732826252,0.0002133818501424,-0.00021338127300131,0.00021338811178261,-0.00021338576145865,0.00021338347073101,-0.00020587252552958,0.00020588849075986,-0.00020588599480797,0.0002058746673877,-0.00021348853257972,0.00021347983321672,-0.00021348375595567,0.00021348470793601,5.7545611135278e-10,1.5928553607592e-09,-0.00017745547848386,0.00017745764565058,-5.6638430868248e-09,8.0761064700495e-09,-0.00018179699596359,0.00018179419697469,-0.00018179244626381,0.00018179875584306,-0.00018179665451643,0.00018179452964886,-0.00018179210226531,0.00018179909515086,-0.0001870922445665,0.00018709999300441,-0.00018709325057539,0.00018709899575286,0.77011574153941,125803,2834,0.00088342677969447,0.00088342678110123,0.00073913649795156,31.993780724546,1.595024579637e-05,1.595024579637e-05,1.595024579637e-05,1645014.0726415,0.0025091347766727
3819200,0.14800507341577,0.0028887643017572,0.001000668396064,0.0010006683975505,0.00088742750814277,-0.0002478035300313,0.00024780285905559,2.4129344625379e-10,-9.114968517645e-10,1.9694705590263e-09,-2.6905238903788e-09,-0.00025028196475617,0.00025028322871898,-0.00025028236532099,0.00025028286075115,-0.00025028349005321,0.00025028167584785,-0.00025028386609501,0.00025028128644139,-0.00023879843824799,0.00023879733518537,-0.00023879953842169,0.00023879618078634,-2.0024257481576e-09,2.7038165367539e-09,7.3021735928996e-09,-6.6546370574518e-09,-0.00024780286955117,0.00024780352026423,-0.00025028077212074,0.00025028446471406,-0.00025028527894916,0.00025027980202892,-0.00025027926595989,0.00025028602124398,-0.00025028377200512,0.0002502813608631,-0.00023879001148368,0.00023880593053979,-0.00023880352993216,0.00023879204411237,-0.00024924889971483,0.00024924032053001,-0.00024924430167604,0.00024924501403339,3.9997342683906e-10,1.6116848889565e-09,-0.00020350054250545,0.00020350255011551,-5.7615370752918e-09,8.0290887906225e-09,-0.00020885823595532,0.00020885519065963,-0.00020885366923749,0.00020885976577315,-0.00020885783012481,0.00020885558823296,-0.00020885326040699,0.00020886017020035,-0.00021545345838169,0.00021546125938885,-0.00021545465585791,0.00021546007208934,0.77140159846941,125803,2834,0.0010319772508129,0.0010319772523296,0.00084757616338148,32.32481456341,1.8598516507278e-05,1.8598516507278e-05,1.8598516507278e-05,1869222.1544796,0.0029157760494072
4019200,0.17047911535947,0.0033001345468819,0.0011489832618943,0.0011489832634998,0.0010021680214878,-0.00028453733677781,0.00028453670971713,3.5981782669474e-10,-9.8617411082256e-10,1.9341393452677e-09,-2.6098760107852e-09,-0.00028837366290511,0.00028837499798356,-0.00028837413100011,0.00028837456895736,-0.00028837515286878,0.00028837348346834,-0.00028837559432547,0.00028837303084264,-0.00027251876993679,0.00027251793877868,-0.00027252005585643,0.00027251659154164,-1.9734064880658e-09,2.6265988002244e-09,7.1367222376182e-09,-6.5359254796124e-09,-0.00028453672167449,0.00028453732560767,-0.0002883725581567,0.00028837614775987,-0.00028837697480377,0.00028837158011926,-0.00028837108756801,0.00028837766781595,-0.00028837550346915,0.00028837310247103,-0.00027251065723105,0.00027252621682934,-0.00027252389734111,0.00027251260716472,-0.00028611690727346,0.00028610848242001,-0.00028611241370023,0.00028611306942421,2.0232772536639e-10,1.6056061680322e-09,-0.00022963829681882,0.00022964009684332,-5.7184430585436e-09,7.7843596308051e-09,-0.00023603050398238,0.00023602727863534,-0.00023602603324811,0.00023603175768314,-0.00023603003420714,0.00023602774023381,-0.00023602556055795,0.00023603222592479,-0.00024422480369647,0.00024423249381046,-0.00024422618884499,0.00024423111952247,0.77299484019117,125803,2834,0.0011848633268173,0.0011848633284559,0.00095639211847166,32.662297839787,2.1298382718292e-05,2.1298382718292e-05,2.1298382718292e-05,2070732.5290787,0.0033316602253214
4219200,0.19352588501478,0.0037211320178556,0.00130183030349,0.0013018303051609,0.0011174714092047,-0.00032240480486357,0.0003224042147075,4.7458643597486e-10,-1.0640688565445e-09,1.9188290684567e-09,-2.5567725653532e-09,-0.00032767626675003,0.00032767768039764,-0.00032767680055773,0.00032767718874853,-0.00032767773505005,0.00032767618891378,-0.00032767824118079,0.00032767567257968,-0.00030719669165997,0.00030719610909485,-0.00030719816114693,0.00030719456808615,-1.9604205646592e-09,2.5738947899142e-09,6.9191172813926e-09,-6.3570864925708e-09,-0.00032240422763366,0.00032240479275751,-0.00032767527308181,0.00032767871689925,-0.00032767956478608,0.00032767428226191,-0.0003276738241408,0.00032768021502106,-0.00032767811512722,0.00032767578266044,-0.00030718892286565,0.00030720403502063,-0.00030720177870069,0.00030719081523137,-0.0003241773701663,0.0003241691039345,-0.0003241729405522,0.00032417362552781,7.6163598613086e-12,1.6030008246604e-09,-0.00025585487536296,0.00025585647371606,-5.6211380263992e-09,7.486067851579e-09,-0.00026345312254097,0.00026344975929661,-0.00026344878409357,0.00026345410594751,-0.00026345258844742,0.00026345028470025,-0.00026344824742069,0.00026345463821052,-0.00027333463173019,0.00027334218153557,-0.00027333620514709,0.00027334061955991,0.77488672029009,125803,2834,0.0013424424844162,0.001342442486123,0.0010655272236871,33.000034870326,2.4000278962611e-05,2.4000278962611e-05,2.4000278962611e-05,2252920.2776412,0.0037574590001548
4419200,0.21751443957735,0.0041588693209721,0.0014619307011272,0.0014619307028336,0.0012350079170113,-0.00036256028139071,0.00036255974653252,6.0925692348685e-10,-1.14337843875e-09,1.9147487556222e-09,-2.4960132776401e-09,-0.00036933394147338,0.00036933545916385,-0.00036933454535462,0.00036933489718469,-0.00036933538798936,0.00036933399030088,-0.00036933596657303,0.00036933340144751,-0.0003439083258084,0.00034390803414309,-0.00034391000370862,0.00034390627486772,-1.9742575860948e-09,2.547326818041e-09,6.6043809630638e-09,-6.0812878796353e-09,-0.00036255975146365,0.00036256027734208,-0.00036933311194467,0.00036933632753415,-0.00036933721511854,0.00036933209167382,-0.00036933166638417,0.00036933782251658,-0.00036933577093043,0.00036933358645437,-0.00034390100660626,0.00034391550216645,-0.00034391329335383,0.00034390286102967,-0.00036460552305978,0.00036459742899952,-0.00036460110892485,0.00036460193456043,-1.6564934744289e-10,1.6005149109858e-09,-0.00028298163315101,0.00028298305231992,-5.4076577415134e-09,7.0901509859215e-09,-0.00029200488687075,0.00029200148747604,-0.00029200075048022,0.00029200563222287,-0.00029200429451634,0.00029200207077809,-0.00029200015815008,0.00029200622035104,-0.00030369120585615,0.0003036985400459,-0.00030369294281591,0.00030369681537792,0.77612067062979,125803,2834,0.0015095148787356,0.0015095148805718,0.0011784421920926,33.593816878186,2.875053502549e-05,2.875053502549e-05,2.875053502549e-05,2426159.1148369,0.0042063007694377
4619200,0.24258198440669,0.0046158597618824,0.0016303831498792,0.0016303831519649,0.0013550934600383,-0.00040498479757706,0.00040498429073846,7.1937691008802e-10,-1.2253949408051e-09,1.916338952131e-09,-2.4692889197714e-09,-0.000413342497373,0.00041334409697668,-0.00041334316388889,0.00041334346868296,-0.00041334393265809,0.00041334263792774,-0.0004133445757723,0.00041334198426571,-0.00038253923026083,0.00038253916413748,-0.00038254109382224,0.00038253721466138,-1.9735875699309e-09,2.5212768172682e-09,6.2983826471918e-09,-5.7998548849246e-09,-0.00040498429413066,0.00040498479518773,-0.00041334181012772,0.00041334481658198,-0.00041334572768803,0.00041334077735777,-0.00041334037120996,0.00041334630474863,-0.00041334429040053,0.00041334226519032,-0.00038253232412779,0.00038254621086671,-0.00038254404172206,0.00038253415295718,-0.00040742247317078,0.00040741457197912,-0.00040741808243642,0.00040741905217498,-3.4211377340663e-10,1.6164439939514e-09,-0.0003107894776856,0.00031079073392506,-5.2016356970485e-09,6.7139942923262e-09,-0.00032145991541001,0.00032145648285772,-0.00032145597308819,0.00032146043370874,-0.00032145925931433,0.00032145712972134,-0.00032145531678177,0.00032146108558063,-0.00033507980991756,0.00033508697661877,-0.00033508173453288,0.00033508506397778,0.77693645627682,125803,2834,0.00168599644261,0.0016859964446961,0.0012941834497828,34.291517246968,3.4332137975748e-05,3.4332137975748e-05,3.4332137975748e-05,2588584.2303921,0.0046770893890035
4819200,0.26869637834144,0.005091662858198,0.0018071268584299,0.0018071268610238,0.0014774091387443,-0.00044942019842163,0.00044941970605296,8.2176591898291e-10,-1.3134160760699e-09,1.9175499997226e-09,-2.455743970428e-09,-0.00045944089955141,0.00045944257268004,-0.00045944162796813,0.00045944187837775,-0.00045944232936009,0.00045944111760311,-0.00045944303577426,0.00045944039964596,-0.00042282564624792,0.00042282578543445,-0.00042282769593971,0.00042282364921411,-1.971126824605e-09,2.5042634380189e-09,6.052675797111e-09,-5.5683877754452e-09,-0.00044941970944404,0.00044942019618908,-0.00045944032708368,0.00045944317041481,-0.00045944409502875,0.00045943929067139,-0.00045943889393376,0.00045944465274349,-0.00045944266339903,0.00045944077287009,-0.00042281908327222,0.00042283248139294,-0.00042283033992099,0.00042282089883809,-0.00045239112011565,0.00045238337946491,-0.00045238674622403,0.00045238784101488,-4.9259375934406e-10,1.6600893779532e-09,-0.00033907655788421,0.00033907770621749,-5.0250120830636e-09,6.4217347607062e-09,-0.00035160151814619,0.00035159807011788,-0.00035159773186147,0.00035160186492714,-0.0003516007974732,0.00035159878139738,-0.00035159701089517,0.00035160258137731,-0.00036728924692872,0.00036729633922011,-0.00036729136116914,0.00036729423622311,0.777921785169,125803,2834,0.0018708081676808,0.0018708081700902,0.001411911457831,34.991918212759,3.9935345702074e-05,3.9935345702074e-05,3.9935345702074e-05,2742444.372004,0.0051668425714588
5019200,0.29580653358036,0.005583757498937,0.001991239682792,0.0019912396854763,0.0016012781306688,-0.0004956400255006,0.00049563954179972,9.2192894754173e-10,-1.4049336049192e-09,1.9152035499491e-09,-2.4445332189676e-09,-0.00050741114640845,0.0005074128876588,-0.00050741193696822,0.00050741212727464,-0.00050741257097873,0.00050741143646408,-0.000507413340846,0.00050741065390963,-0.00046457180011527,0.00046457214025196,-0.00046457403748891,0.00046456981615591,-1.9673884001496e-09,2.4912556524742e-09,5.8641020095111e-09,-5.3888676848869e-09,-0.00049563954541348,0.00049564002308892,-0.00050741066648409,0.0005074133870141,-0.00050741431909692,0.00050740963027381,-0.00050740923874892,0.00050741486389537,-0.00050741289280577,0.00050741110712345,-0.00046456552193979,0.00046457854426,-0.00046457642441979,0.00046456732961959,-0.00049920954103408,0.00049920192846588,-0.00049920518283315,0.00049920637378428,-6.2231771725689e-10,1.7233312492074e-09,-0.00036771436449809,0.00036771544617594,-4.8814831352653e-09,6.2036556751611e-09,-0.00038232354329166,0.00038232008617983,-0.0003823198771192,0.00038232376086697,-0.00038232275830533,0.00038232086164884,-0.00038231909184377,0.00038232454154423,-0.00040009694368157,0.00040010403730793,-0.00040009924661719,0.00040010174527952,0.77677325226143,125803,2834,0.0020630032391586,0.0020630032416581,0.0015310921933251,35.692425899053,4.5539407192423e-05,4.5539407192423e-05,4.5539407192423e-05,2888684.4367724,0.0056731465037602
5219200,0.32321427084845,0.0060811204301232,0.002178457758067,0.0021784577607637,0.0017242049112925,-0.00054188128667322,0.00054188079679928,1.0082419415772e-09,-1.497472179694e-09,1.9249248335147e-09,-2.4606563694899e-09,-0.00055543181411267,0.00055543361782127,-0.00055543266384308,0.00055543279612939,-0.00055543324695839,0.00055543215723895,-0.00055543407549409,0.00055543131490451,-0.00050615557546901,0.00050615607443644,-0.00050615798728959,0.00050615357722066,-1.9699292918653e-09,2.4949157353128e-09,5.8444808403391e-09,-5.3683915188388e-09,-0.00054188080300737,0.00054188128161458,-0.00055543137058648,0.00055543407836215,-0.00055543501224694,0.00055543033393358,-0.00055542994147933,0.00055543555688719,-0.00055543358355479,0.00055543181342783,-0.0005061493946363,0.00050616237895855,-0.00050616025783305,0.00050615120615156,-0.00054614123376595,0.0005461336273863,-0.00054613686760643,0.00054613808032937,-7.171279816192e-10,1.8344383118453e-09,-0.00039543164361469,0.00039543274253281,-4.8614145655834e-09,6.1982535005928e-09,-0.00041227922392326,0.00041227572566616,-0.00041227556678655,0.00041227939125741,-0.00041227837077481,0.00041227656912181,-0.00041227471237132,0.00041228024089765,-0.00043218401630665,0.00043219132082632,-0.00043218652213337,0.00043218882554642,0.7785555181148,125803,2834,0.0022552477954017,0.0022552477977917,0.0016464377427517,36.022412363686,4.8179298909491e-05,4.8179298909491e-05,4.8179298909491e-05,3013811.8699736,0.0061759468985778
5419200,0.35071290768363,0.006573094556438,0.0023647498573726,0.0023647498598493,0.0018435948392161,-0.00058780314097155,0.00058780264903067,1.103638224551e-09,-1.5948990888688e-09,1.9249974915304e-09,-2.4627583851277e-09,-0.00060323758952895,0.00060323945650948,-0.00060323850280907,0.00060323857049624,-0.00060323902352151,0.0006032379942452,-0.00060323991580582,0.00060323708785029,-0.0005473134966026,0.00054731418159674,-0.00054731609754618,0.00054731149535543,-1.9709671940699e-09,2.4973816611362e-09,5.8567365824119e-09,-5.3793019669825e-09,-0.00058780265552798,0.00058780313553896,-0.00060323717312605,0.00060323988961436,-0.00060324082170951,0.0006032361372446,-0.0006032357439952,0.00060324136842504,-0.00060323939301871,0.00060323761711151,-0.00054730739586875,0.00054732040559449,-0.00054731828256217,0.00054730920953465,-0.00059259660612488,0.00059258899053169,-0.00059259223762514,0.00059259344665283,-7.9989190150201e-10,1.9438309372256e-09,-0.00042220925936087,0.00042221038547743,-4.8603530039721e-09,6.2237075391543e-09,-0.00044156597097296,0.00044156242811349,-0.00044156230559617,0.00044156610168389,-0.0004415650534267,0.00044156333569609,-0.00044156138711078,0.00044156701556328,-0.00046315164198852,0.00046315916960201,-0.00046315433633587,0.00046315648624609,0.76958002830432,125803,2834,0.0024461249693353,0.0024461249715489,0.001757869679206,36.275403778763,5.0203230230103e-05,5.0203230230103e-05,5.0203230230103e-05,3131851.5871549,0.0066723066265502
5619200,0.37821996733184,0.0070415733532953,0.0025432837589393,0.0025432837613053,0.0019550058330506,-0.00063217312880222,0.00063217264229924,1.2030097839945e-09,-1.6887877357527e-09,1.9256090650531e-09,-2.4575956086999e-09,-0.00064991083048668,0.00064991276546831,-0.0006499118075147,0.00064991181492279,-0.00064991226284921,0.00064991130456167,-0.00064991321926595,0.00064991033383788,-0.00058688150186643,0.00058688238324648,-0.0005868842921709,0.00058687950764534,-1.9722717372464e-09,2.4927051712443e-09,5.8633050887628e-09,-5.3914764296134e-09,-0.00063217264885153,0.00063217312326529,-0.00064991044810809,0.00064991316544488,-0.00064991410032934,0.00064990940694457,-0.00064990902034961,0.00064991464290824,-0.00064991267307393,0.00064991088534602,-0.00058687549266629,0.00058688851462554,-0.00058688639929295,0.00058687730063715,-0.00063679556670351,0.00063678794241187,-0.00063679120163347,0.00063679239482903,-8.8893813381689e-10,2.0464248341113e-09,-0.00044712720480873,0.00044712834477635,-4.8635034091466e-09,6.2398451535666e-09,-0.00046970239370585,0.00046969879508756,-0.000469698721901,0.00046970247484374,-0.00046970141212966,0.00046969976651066,-0.00046969773963351,0.00046970345270753,-0.00049126614664431,0.00049127388131903,-0.00049126902865713,0.00049127101039176,0.73637048205191,125803,2834,0.002630513436863,0.0026305134389736,0.0018615626139769,36.526324659203,5.2210597273627e-05,5.2210597273627e-05,5.2210597273627e-05,3263753.3660479,0.0071480474066359
5819200,0.40564979630501,0.0074889048674854,0.0027144133240424,0.002714413326404,0.002060078217039,-0.00067539206687271,0.00067539158541542,1.3017808566355e-09,-1.7824539799897e-09,1.9240193392946e-09,-2.4505870017198e-09,-0.00069572887343097,0.00069573087443763,-0.00069572991412861,0.00069572985945505,-0.00069573030274071,0.00069572941642759,-0.00069573132316951,0.00069572838152365,-0.0006252325426299,0.00062523362060034,-0.00062523552191109,0.00062523055686326,-1.9707534033951e-09,2.4853889748531e-09,5.8665068930673e-09,-5.4000869397089e-09,-0.00067539159212219,0.0006753920611596,-0.00069572852460536,0.00069573124215264,-0.00069573217778577,0.00069572747980598,-0.00069572709976292,0.00069573271651492,-0.00069573075348261,0.00069572895505709,-0.00062522662951749,0.00062523965490888,-0.00062523754896526,0.0006252284304093,-0.00067944661912398,0.00067943899379923,-0.00067944226245814,0.00067944343717264,-9.8169381451058e-10,2.1460112757404e-09,-0.00047041343475103,0.00047041458158923,-4.8670476593024e-09,6.2495370904681e-09,-0.00049694157137161,0.00049693791215796,-0.00049693789494881,0.00049694159636432,-0.00049694052568435,0.00049693894770936,-0.00049693684861566,0.00049694263841534,-0.00051719723568323,0.00051720516922843,-0.00051720030603025,0.00051720211004519,0.71317583467458,125803,2834,0.0028100815293412,0.0028100815314065,0.0019584681676391,36.777163084562,5.4217304676498e-05,5.4217304676498e-05,5.4217304676498e-05,3365932.11073,0.0076074617691557
6019200,0.43252086140377,0.0079167107652748,0.0028786155022816,0.0028786155046594,0.0021594797583338,-0.00071701188122456,0.00071701139523132,1.3911179985942e-09,-1.8769006482383e-09,1.9216408983661e-09,-2.4517503506215e-09,-0.00074001862546867,0.00074002068298643,-0.00074001972804022,0.00074001960616575,-0.00074002005477858,0.00074001922490403,-0.0007400211356911,0.00074001812944504,-0.00066183756218147,0.00066183881229671,-0.00066184072119999,0.00066183557175537,-1.9682142980807e-09,2.4879309341369e-09,5.9304776766349e-09,-5.4594820952552e-09,-0.0007170114018028,0.00071701187565408,-0.00074001828193475,0.00074002104486904,-0.00074002197425743,0.00074001724046636,-0.00074001685766333,0.00074002251855155,-0.00074002054941812,0.00074001871660351,-0.00066183166972804,0.00066184481857191,-0.00066184270856786,0.00066183347490827,-0.00072046065577318,0.00072045299278619,-0.00072045629490707,0.00072045743605511,-1.0714078597515e-09,2.2571697356316e-09,-0.00049188478348689,0.00049188595238709,-4.9216364003413e-09,6.3266931902694e-09,-0.00052273661372903,0.00052273286768714,-0.00052273289364284,0.00052273659512846,-0.00052273550178327,0.00052273396952256,-0.00052273177993307,0.00052273770521756,-0.00054129169023507,0.00054129988764842,-0.00054129495754303,0.00054129662782929,0.70261522817986,125803,2834,0.0029829705725844,0.0029829705746672,0.0020478270577652,36.775476053891,5.4203808431127e-05,5.4203808431127e-05,5.4203808431127e-05,3413366.238689,0.0080460147597863
6219200,0.45876548467905,0.0083366767545247,0.003040033238613,0.0030400332400513,0.0022566102758604,-0.00075789577489739,0.00075789528226172,1.4851806751616e-09,-1.9773649413878e-09,1.9065472745836e-09,-2.4436630693295e-09,-0.00078344905838235,0.00078345116591256,-0.0007834502255257,0.00078345002502398,-0.00078345048008266,0.00078344971582093,-0.00078345162552095,0.00078344855555174,-0.00069780285818319,0.00069780430114237,-0.00069780620859855,0.00069780087022488,-1.9525791835168e-09,2.4795898979013e-09,5.9851660095916e-09,-5.5073235718302e-09,-0.00075789528871252,0.00075789576951477,-0.00078344871556845,0.00078345152702201,-0.00078345244139999,0.00078344768859196,-0.00078344729905147,0.00078345299305292,-0.00078345102462639,0.0007834491566925,-0.00069779701286389,0.00069781026212351,-0.00069780815364995,0.00069779881793615,-0.00076107555519754,0.00076106789011694,-0.00076107121925723,0.00076107231000493,-1.1559875786118e-09,2.3628205250431e-09,-0.00051267621086726,0.00051267740109735,-4.9614637515208e-09,6.3878634772999e-09,-0.00054780612515271,0.00054780230381282,-0.00054780237086437,0.00054780606540957,-0.00054780494943292,0.00054780346949968,-0.00054780119356871,0.00054780723902285,-0.00056493020760703,0.00056493864658884,-0.0005649336612113,0.00056493520138759,0.70745491377908,125803,2834,0.0031527698186017,0.0031527698208226,0.0021343600128776,36.758786504442,5.4070292035538e-05,5.4070292035538e-05,5.4070292035538e-05,3435960.0908747,0.0084756781053309
6419200,0.48434277386578,0.0087431389637719,0.0031966601593532,0.0031966601604764,0.0023498186439423,-0.00079749519180992,0.00079749469551599,1.5797101403807e-09,-2.0753594973978e-09,1.8851414093122e-09,-2.4261799764259e-09,-0.0008255664707713,0.00082556862586895,-0.00082556770212842,0.00082556742129952,-0.00082556787996103,0.0008255671888956,-0.00082556908938851,0.00082556596445189,-0.00073259244608484,0.00073259408748661,-0.00073259598534161,0.00073259046794041,-1.9308353516289e-09,2.4618122944169e-09,6.023522386223e-09,-5.541916989435e-09,-0.0007974947018115,0.00079749518642611,-0.0008255661312625,0.00082556898386398,-0.00082556988179691,0.00082556512119774,-0.00082556472751579,0.00082557043700068,-0.00082556847785439,0.000825566576196,-0.00073258666926487,0.00073259998119182,-0.0007325978822996,0.0007325884655184,-0.00080044863716464,0.00080044099119427,-0.00080044434082617,0.00080044537264143,-1.2431885961755e-09,2.4677308222232e-09,-0.00053260910887487,0.00053261031699302,-4.9888613934415e-09,6.4333249856815e-09,-0.00057198270978013,0.00057197881829511,-0.00057197893102924,0.00057198260425777,-0.00057198147003329,0.00057198004804118,-0.00057197768962724,0.0005719838420233,-0.00058752609128601,0.00058753476118309,-0.00058752973334151,0.00058753112794252,0.702108923439,125803,2834,0.0033172030567183,0.0033172030586131,0.0022173238020469,36.741628734961,5.3933029879686e-05,5.3933029879686e-05,5.3933029879686e-05,3475554.1721232,0.0088910977227071
6619200,0.5096267345081,0.0091686321670015,0.0033598288622079,0.0033598288632528,0.0024489744415409,-0.00083833245976023,0.00083833196766816,1.6828231946124e-09,-2.1730273034781e-09,1.8508827476261e-09,-2.3897619789414e-09,-0.00086849956658313,0.00086850176943507,-0.00086850086418492,0.00086850049873027,-0.00086850095232527,0.00086850035644582,-0.00086850222933134,0.00086849906474876,-0.00076912859566711,0.00076913046714529,-0.00076913233298034,0.00076912664806728,-1.8974728041554e-09,2.4236491387099e-09,5.9826331186619e-09,-5.5053929742369e-09,-0.0008383319737475,0.00083833245384724,-0.00086849925587236,0.00086850210177514,-0.0008685029816195,0.00086849826556691,-0.00086849787442962,0.00086850353158058,-0.00086850160160988,0.0008684996964111,-0.00076912298975632,0.0007691362006561,-0.00076913413139531,0.00076912476090793,-0.00084195532751337,0.00084194777567669,-0.00084195110874053,0.00084195208895245,-1.33521329938e-09,2.5595895570019e-09,-0.00055373531917077,0.00055373652675179,-4.9473998744255e-09,6.3901401705026e-09,-0.00059685412967548,0.00059685020389647,-0.00059685037826267,0.00059685396244179,-0.00059685282777603,0.00059685149540427,-0.0005968490758978,0.00059685526087713,-0.00061213913431512,0.00061214795475997,-0.00061214295700291,0.00061214414586916,0.74070665726667,125803,2834,0.0034867470476548,0.0034867470479966,0.0023052494611016,37.008587277518,5.6068698220148e-05,5.6068698220148e-05,5.6068698220148e-05,3491480.5639718,0.0093220120953189
6819200,0.53571072012897,0.0096415619239399,0.0035404989185881,0.0035404989212792,0.0025605640840726,-0.00088374752634789,0.00088374705147902,1.788893751318e-09,-2.2616525908305e-09,1.803410051502e-09,-2.324870630151e-09,-0.00091543902781204,0.00091544127596867,-0.00091544039029407,0.00091543994007805,-0.0009154403770823,0.00091543990034762,-0.00091544171950964,0.00091543854342871,-0.00081064040897757,0.00081064252639405,-0.00081064433785569,0.00081063851671769,-1.8503668005056e-09,2.3586602991592e-09,5.7689423648216e-09,-5.3086265579997e-09,-0.00088374705794282,0.00088374752100221,-0.00091543879734307,0.00091544152806017,-0.00091544239068747,0.0009154378294649,-0.00091543745191993,0.00091544292085237,-0.00091544104678327,0.00091543922280452,-0.00081063515514986,0.00081064790977792,-0.00081064589901313,0.00081063687671859,-0.00088913612920607,0.00088912880716544,-0.00088913202167426,0.0008891330098778,-1.4461841303433e-09,2.6386388660703e-09,-0.00057844960658309,0.00057845078166093,-4.7605663417418e-09,6.1671407069643e-09,-0.00062472370751776,0.00062471982307302,-0.00062472009199981,0.00062472344545507,-0.00062472234227486,0.00062472117787026,-0.0006247187267387,0.00062472480699035,-0.00064166210547389,0.00064167094316859,-0.0006416661143418,0.00064166694925807,0.79221450036902,125803,2834,0.0036752623528678,0.003675262355182,0.0024080968011914,38.07250579533,6.4580046362641e-05,6.4580046362641e-05,6.4580046362641e-05,3530894.5226048,0.0098064895181676
7019200,0.56249762278819,0.010090851545494,0.003714103455146,0.0037141034585993,0.0026626446317482,-0.00092889763160671,0.0009288971760505,1.8933405537751e-09,-2.3470027641178e-09,1.7693001113314e-09,-2.2707673390283e-09,-0.00096263237599756,0.00096263467819418,-0.00096263380182741,0.00096263327813855,-0.00096263369672118,0.00096263333156855,-0.0009626351027473,0.00096263191111207,-0.00085094801791779,0.00085095036887093,-0.00085095213256697,0.00085094617406793,-1.8158594891214e-09,2.3042176740199e-09,5.5732338362592e-09,-5.1320138485934e-09,-0.00092889718246329,0.00092889762630767,-0.00096263222800813,0.0009626348466647,-0.00096263570174951,0.00096263127264768,-0.00096263091137244,0.00096263620983801,-0.00096263438635089,0.00096263263646441,-0.00085094308490335,0.00085095542547827,-0.00085095346718814,0.00085094476242732,-0.00093474698094885,0.00093473985020256,-0.00093474295979177,0.00093474396471972,-1.5593256152307e-09,2.7203658653666e-09,-0.00060203795345532,0.00060203909651819,-4.5951241663223e-09,5.96552129005e-09,-0.00065231146261931,0.00065230760422685,-0.000652307968916,0.00065231110474079,-0.00065231003262213,0.00065230902384131,-0.00065230653884723,0.00065231253120367,-0.00066900361690525,0.00066901249208147,-0.00066900781569528,0.00066900830700006,0.73335806528244,125803,2834,0.0038626371504088,0.0038626371527154,0.0025062661735138,39.156607917506,7.3252863340047e-05,7.3252863340047e-05,7.3252863340047e-05,3591957.5436699,0.01028417378231
7219200,0.58983420830939,0.010531253774143,0.0038850931183853,0.003885093122899,0.0027610675328589,-0.00097385810079701,0.00097385766395789,1.9984872962614e-09,-2.4338232200477e-09,1.7452751206607e-09,-2.2268923394088e-09,-0.0010101051820494,0.0010101075446143,-0.0010101066716082,0.001010106080126,-0.0010101064808963,0.001010106220228,-0.001010107951161,0.0010101047359626,-0.00089055911614549,0.00089056169537222,-0.00089056341934015,0.00089055731320218,-1.7911998295453e-09,2.2605510493293e-09,5.4054802178328e-09,-4.9826175194954e-09,-0.0009738576706231,0.00097385809608638,-0.0010101051127947,0.0010101076318868,-0.0010101084858383,0.0010101041642878,-0.0010101038178887,0.0010101089723538,-0.0010101071921329,0.0010101055054754,-0.00089055446997932,0.00089056645844289,-0.00089056454494284,0.00089055611047435,-0.00097967231836073,0.00097966534110198,-0.00097966836244141,0.000979669386607,-1.6728042450805e-09,2.7997558897323e-09,-0.00062523119090544,0.00062523229946215,-4.457540574107e-09,5.7894344020954e-09,-0.00067971357508132,0.00067970972272049,-0.00067971018534115,0.00067971311927931,-0.00067971208081655,0.00067971120670906,-0.00067970869100075,0.00067971461008604,-0.0006955685987199,0.00069557752434909,-0.00069557298531246,0.00069557315009193,0.70718847836151,125803,2834,0.0040491856546398,0.0040491856586921,0.0026027950550144,40.241506391853,8.1932051134825e-05,8.1932051134825e-05,8.1932051134825e-05,3670599.7188886,0.010758758709872
7419200,0.61672744779945,0.010948488906425,0.0040476702241769,0.0040476702288106,0.002853148453438,-0.0010159928320119,0.0010159924036763,2.095355418242e-09,-2.5229913407287e-09,1.7489974350348e-09,-2.2205238513735e-09,-0.0010551239501044,0.001055126382682,-0.0010551255021164,0.0010551248556509,-0.0010551252488535,0.001055125058581,-0.0010551267809041,0.0010551235128748,-0.00092724246550484,0.00092724523284609,-0.00092724694973474,0.00092724067003001,-1.7933663319778e-09,2.2542834690917e-09,5.4040481968647e-09,-4.9896029494814e-09,-0.0010159924103538,0.0010159928274834,-0.0010551239163025,0.0010551264316835,-0.0010551272942793,0.0010551229620801,-0.0010551226226723,0.0010551277703996,-0.0010551260009656,0.0010551243024019,-0.00092723791064047,0.00092724989342205,-0.00092724799052985,0.00092723954181145,-0.001021322554722,0.0010213155694053,-0.001021318597948,0.0010213196091147,-1.7756737569979e-09,2.8959147890852e-09,-0.00064626296186962,0.00064626406358322,-4.4681221184308e-09,5.7921595604122e-09,-0.0007050114251823,0.00070500749574505,-0.00070500803134645,0.00070501089651074,-0.00070500986513861,0.00070500904563847,-0.0007050064703191,0.00070501245410344,-0.00071944272163834,0.00071945184115929,-0.00071944730228707,0.00071944726901312,0.68501443607553,125803,2834,0.0042239731043394,0.0042239731088,0.002690338762105,40.770168465231,8.6161347721845e-05,8.6161347721845e-05,8.6161347721845e-05,3735924.5327625,0.011200698512573
7619200,0.64243935259954,0.011337791827967,0.0041995297840385,0.004199529787838,0.0029387322560903,-0.0010547930006308,0.0010547925702181,2.1879313915802e-09,-2.6178044220189e-09,1.7588377643313e-09,-2.2320766097094e-09,-0.0010968527347002,0.0010968552351417,-0.0010968543499413,0.0010968536456907,-0.0010968540413346,0.0010968539033585,-0.0010968556352817,0.0010968522962142,-0.0009611717596513,0.00096117469918164,-0.00096117642584393,0.00096116995443983,-1.8031252254091e-09,2.266514336199e-09,5.5133341511217e-09,-5.096792446914e-09,-0.0010547925766203,0.0010547929959861,-0.0010968527005637,0.0010968552835887,-0.0010968561512814,0.0010968517411714,-0.0010968514001482,0.0010968566290381,-0.0010968548501189,0.0010968530894771,-0.00096116717966066,0.00096117938269482,-0.00096117746891618,0.00096116881843663,-0.0010593500642738,0.0010593429859757,-0.0010593460834513,0.0010593470485608,-1.8671449099236e-09,3.0019043302362e-09,-0.00066500027777717,0.00066500139415943,-4.5709281947206e-09,5.910998978722e-09,-0.00072829382263813,0.00072828976818186,-0.00072829035569759,0.00072829324213016,-0.00072829219720825,0.00072829138341552,-0.00072828872812443,0.00072829486628033,-0.00074057700257616,0.00074058640514912,-0.00074058177741366,0.00074058163791802,0.67223240822785,125803,2834,0.0043848969669848,0.0043848969706345,0.0027683419548665,40.851607405937,8.6812859247494e-05,8.6812859247494e-05,8.6812859247494e-05,3784783.5117818,0.011605134409337
7819200,0.66693607268793,0.011704144863738,0.0043424083046255,0.0043424083076318,0.003019328251481,-0.0010916555046728,0.0010916550727055,2.2849572005672e-09,-2.7159504621365e-09,1.7611697881189e-09,-2.2364684778938e-09,-0.0011365301757417,0.0011365327414154,-0.0011365318557428,0.0011365310878786,-0.0011365314845807,0.0011365314076617,-0.0011365331436541,0.0011365297358745,-0.00099328354921232,0.0009932866779333,-0.00099328840756645,0.00099328174142154,-1.8054863171618e-09,2.2704280718896e-09,5.6093580105734e-09,-5.1913768366684e-09,-0.0010916550789663,0.0010916554998487,-0.0011365301437131,0.0011365327888687,-0.0011365336566636,0.0011365291831118,-0.0011365288408012,0.0011365341366572,-0.0011365323535452,0.0011365305333739,-0.0009932789713147,0.00099329136518617,-0.0009932894462413,0.0009932806115519,-0.0010954204161842,0.0010954132706819,-0.0010954164315175,0.0010954173397236,-1.9543227662928e-09,3.1044318164449e-09,-0.00068234559965774,0.00068234673146314,-4.656337734913e-09,6.0134915442718e-09,-0.00075028313135898,0.00075027896549311,-0.00075027960167146,0.00075028250217898,-0.0007502814421381,0.00075028064436125,-0.00075027791074805,0.0007502841896279,-0.0007602988492184,0.00076030851491718,-0.00076030380986276,0.00076030356353299,0.6665508335471,125803,2834,0.0045377581820916,0.0045377581850726,0.00284055581902,40.921533244993,8.7372265959942e-05,8.7372265959942e-05,8.7372265959942e-05,3797450.118297,0.01198755671942
8019200,0.69021151509483,0.012048908789882,0.0044769695563104,0.0044769695592065,0.0030949696743648,-0.0011265211769946,0.0011265207447658,2.3810304833884e-09,-2.8121275709624e-09,1.7586551463513e-09,-2.234285277942e-09,-0.0011741149924856,0.0011741176203285,-0.0011741167367867,0.0011741159032849,-0.0011741162999956,0.001174116288281,-0.0011741180232842,0.0011741145526705,-0.0010233188968307,0.0010233222157984,-0.0010233239447235,0.0010233170917901,-1.8028680325015e-09,2.2680380805396e-09,5.6839806150539e-09,-5.2658148604228e-09,-0.00112652075095,0.0011265211720801,-0.0011741149663949,0.0011741176627575,-0.0011741185283603,0.001174114007291,-0.00117411366493,0.0011741190089795,-0.0011741172267536,0.0011741153558194,-0.0010233143430815,0.001023326881809,-0.0010233249632232,0.0010233159807396,-0.0011295321762604,0.0011295249865583,-0.001129528197063,0.0011295290507866,-2.0449336196233e-09,3.2061299680479e-09,-0.00069848239739636,0.00069848354050671,-4.7244717715587e-09,6.0943234615336e-09,-0.00077103710150602,0.00077103283295546,-0.00077103352217992,0.00077103641927088,-0.00077103534808353,0.00077103457604353,-0.00077103176715181,0.00077103817082049,-0.00077868421417979,0.00077869412870273,-0.0007786893634538,0.00077868898929345,0.66097249018353,125803,2834,0.0046823158925807,0.0046823158952142,0.0029077408756622,40.991002435006,8.7928019480049e-05,8.7928019480049e-05,8.7928019480049e-05,3799430.5335901,0.012348221718581
8219200,0.71241013573965,0.01237484939728,0.0046042729747866,0.004604272977655,0.0031663034448385,-0.0011597714920341,0.0011597710608963,2.480000911498e-09,-2.9093700205077e-09,1.7494436390506e-09,-2.2249988076961e-09,-0.0012100428268149,0.0012100455147243,-0.0012100446358745,0.001210043732929,-0.0012100441278404,0.0012100441890479,-0.0012100459172117,0.0012100423881133,-0.0010514856504959,0.0010514891730228,-0.00105149089352,0.0010514838557326,-1.7936071268276e-09,2.2571698740323e-09,5.7197996337511e-09,-5.3031268796618e-09,-0.001159771067145,0.0011597714867722,-0.001210042817346,0.0012100455426717,-0.0012100464026095,0.0012100418628886,-0.0012100415214823,0.0012100468821789,-0.0012100451084145,0.0012100432046161,-0.0010514811692687,0.0010514937733807,-0.0010514918627788,0.0010514827991154,-0.0011620655811414,0.0011620583873658,-0.0011620616259593,0.0011620624311295,-2.1384806257301e-09,3.3008089674342e-09,-0.00071381558901485,0.00071381673344472,-4.7581753986548e-09,6.1296821866181e-09,-0.00079070239753147,0.00079069804410261,-0.000790698794327,0.00079070165409576,-0.00079070058063108,0.00079069985043322,-0.00079069697691831,0.00079070346809458,-0.00079645052648263,0.00079646064784981,-0.00079645585950475,0.00079645532709607,0.65549139454046,125803,2834,0.0048201543453572,0.0048201543474002,0.0029715814721515,41.18125803846,8.9450064307681e-05,8.9450064307681e-05,8.9450064307681e-05,3803817.1436403,0.012692019583039
8419200,0.73358414117746,0.012684951491959,0.0047253875137492,0.0047253875172695,0.0032341764609405,-0.0011914698846578,0.0011914694556034,2.5767454387838e-09,-3.0039899729331e-09,1.736903440498e-09,-2.2101555910285e-09,-0.0012443625326903,0.0012443652777028,-0.0012443644062006,0.0012443634324057,-0.0012443638250191,0.0012443639613071,-0.0012443656786585,0.0012443620963832,-0.0010781369315638,0.0010781406521472,-0.0010781423625534,0.0010781351483021,-1.7808115135483e-09,2.2422980465648e-09,5.7291398748761e-09,-5.3144650604463e-09,-0.0011914694618213,0.0011914698794921,-0.0012443625448574,0.0012443652844517,-0.0012443661377382,0.0012443615982206,-0.0012443612581851,0.001244366615022,-0.0012443648522598,0.0012443629302314,-0.0010781325446356,0.0010781451577145,-0.0010781432590201,0.0010781341638498,-0.0011931564965694,0.0011931493208628,-0.0011931525683755,0.0011931533382668,-2.2357240398648e-09,3.3964524888255e-09,-0.00072843034498029,0.00072843148784707,-4.7695617787076e-09,6.1398877026568e-09,-0.0008091999472601,0.0008091955211621,-0.00080919633680927,0.00080919913863168,-0.00080919806645776,0.00080919739173819,-0.00080919445527141,0.00080920101644487,-0.00081351371731439,0.00081352403307579,-0.0008135192392938,0.00081351852354232,0.65380934988033,125803,2834,0.0049515399007624,0.0049515399029412,0.0030324316870982,41.43049299755,9.1443943980402e-05,9.1443943980402e-05,9.1443943980402e-05,3808573.1574816,0.013019830908787
8619200,0.75371899783735,0.012979357746227,0.004840357544635,0.0048403575483804,0.0032986426532113,-0.0012215174269024,0.0012215169999843,2.6731812155018e-09,-3.0984090298486e-09,1.7224586910693e-09,-2.1932302934965e-09,-0.0012769528245987,0.0012769556251355,-0.0012769547620083,0.0012769537161394,-0.0012769541067997,0.0012769543190736,-0.0012769560242165,0.0012769523906812,-0.0011034818966938,0.0011034858160027,-0.0011034875143609,0.0011034801254922,-1.7662241158892e-09,2.2255762785402e-09,5.7267348282556e-09,-5.3141175030033e-09,-0.0012215170062144,0.001221517421869,-0.0012769528606225,0.0012769556079842,-0.0012769564532518,0.0012769519226326,-0.0012769515842034,0.0012769569280411,-0.0012769551778018,0.0012769532442576,-0.0011034776158877,0.0011034902138941,-0.0011034883278919,0.0011034792229707,-0.0012226980167859,0.0012226908701978,-0.0012226941184436,0.00122269485654,-2.334130804724e-09,3.4914256618721e-09,-0.00074225478143661,0.00074225592085693,-4.7706523789512e-09,6.1376842506467e-09,-0.00082666584985807,0.00082666135636198,-0.00082666223980312,0.00082666497336295,-0.00082666390470223,0.00082666329129887,-0.00082666029375003,0.00082666691579618,-0.00082964290023132,0.00082965340199338,-0.00082964861118003,0.00082964770270154,0.65260875347587,125803,2834,0.0050760658385498,0.005076065841029,0.0030899919496078,41.681263996102,9.3450111968817e-05,9.3450111968817e-05,9.3450111968817e-05,3813534.0965387,0.013330512028648
8819200,0.77280665817175,0.01324780958135,0.0049456116120987,0.0049456116158938,0.0033565863533572,-0.0012494512332173,0.0012494508080132,2.7698757110219e-09,-3.1933956701896e-09,1.7065292915839e-09,-2.1754238466477e-09,-0.001307476048191,0.0013074789031417,-0.0013074780496021,0.0013074769302875,-0.0013074773192931,0.0013074776082765,-0.0013074793007718,0.0013074756161065,-0.0011268858224519,0.0011268899424544,-0.0011268916281212,0.0011268840643405,-1.7501060375207e-09,2.207777451809e-09,5.7192733093721e-09,-5.3082850321665e-09,-0.0012494508142208,0.0012494512282881,-0.0013074761087819,0.0013074788614597,-0.0013074796972526,0.001307475180657,-0.0013074748434752,0.0013074801702013,-0.0013074784328838,0.001307476490957,-0.0011268816545799,0.0011268942267235,-0.0011268923540763,0.0011268832492632,-0.0012498499168925,0.0012498428061665,-0.0012498460515751,0.0012498467590182,-2.4325115244526e-09,3.5855675462256e-09,-0.00075483580467332,0.00075483693979411,-4.766573137628e-09,6.12921854823e-09,-0.00084283597186059,0.00084283141408659,-0.00084283236586762,0.00084283502700535,-0.0008428339625272,0.0008428334132289,-0.00084283035561577,0.00084283703365744,-0.00084406860913148,0.00084407929082184,-0.00084407450832659,0.00084407340322913,0.62941992699594,125803,2834,0.0051918157621944,0.0051918157648428,0.0031423796492616,41.932096088343,9.5456768706747e-05,9.5456768706747e-05,9.5456768706747e-05,3830175.6196201,0.013618256719804
9019200,0.79044887794409,0.013495996882079,0.0050428403709674,0.0050428403747891,0.0034103161363228,-0.0012744102253103,0.0012744098106323,2.8701231284144e-09,-3.2840015710651e-09,1.7114347210205e-09,-2.1679569360508e-09,-0.0013348520387405,0.0013348549670661,-0.001334854104212,0.0013348529305744,-0.0013348533097185,0.0013348536728301,-0.0013348553547167,0.0013348516174599,-0.0011475926093343,0.0011475969245813,-0.0011475986018004,0.00114759086075,-1.7544231314012e-09,2.2008079196495e-09,5.7430136773141e-09,-5.3426576417043e-09,-0.0012744098170011,0.0012744102203959,-0.0013348521309162,0.0013348548932458,-0.0013348557388573,0.0013348511929065,-0.0013348508662159,0.0013348562008766,-0.001334854474596,0.0013348525025746,-0.0011475885126899,0.0011476011298567,-0.001147599268243,0.0011475900957522,-0.0012741857641727,0.0012741786248179,-0.0012741818974678,0.0012741825721238,-2.5304082141944e-09,3.6809430562752e-09,-0.00076552441909525,0.00076552555187216,-4.7973581499483e-09,6.1580273111728e-09,-0.0008567689959382,0.00085676435173572,-0.00085676537020937,0.00085676798438492,-0.00085676692252135,0.00085676641519454,-0.00085676329532469,0.00085677005582469,-0.00085655760816688,0.00085656849675779,-0.00085656369521344,0.00085656241753216,0.62977530095891,125803,2834,0.005295226442728,0.0052952264457478,0.0031868949158525,41.750258688437,9.4002069507498e-05,9.4002069507498e-05,9.4002069507498e-05,3833247.3114229,0.013873078245353
9219200,0.80663970864753,0.013721167967461,0.0051311086889132,0.0051311086922701,0.0034589505862771,-0.0012968608865673,0.0012968604767804,2.9689569133455e-09,-3.378242056377e-09,1.7202196434707e-09,-2.1712709852795e-09,-0.0013595902926033,0.0013595932937727,-0.0013595924223639,0.0013595911935883,-0.0013595915676233,0.0013595919958878,-0.0013595936775158,0.0013595898760872,-0.0011660917682317,0.0011660962741578,-0.0011660979511768,0.0011660900200578,-1.7629278292944e-09,2.2041795356513e-09,5.7708284273442e-09,-5.3753319189504e-09,-0.0012968604834304,0.0012968608819375,-0.0013595904161679,0.0013595931889561,-0.0013595940432083,0.0013595894689694,-0.0013595891468247,0.0013595945008638,-0.001359592774978,0.0013595907822454,-0.0011660877367554,0.0011661004136023,-0.0011660985527571,0.0011660893188438,-0.0012960436505752,0.0012960364758581,-0.0012960397724777,0.0012960404321552,-2.6279836410661e-09,3.7743192761369e-09,-0.00077491436992858,0.00077491549863652,-4.8289756955447e-09,6.1858749068477e-09,-0.0008691292626709,0.00086912453026934,-0.0008691256166845,0.00086912818315605,-0.00086912712531857,0.00086912665781657,-0.0008691234784566,0.00086913031797724,-0.00086762457315676,0.0008676356630676,-0.00086763084551084,0.00086762939799331,0.62300580227368,125803,2834,0.0053882339030632,0.0053882339072551,0.003226006767832,41.452590765223,9.1620726121782e-05,9.1620726121782e-05,9.1620726121782e-05,3833981.3574892,0.014101383024987
9419200,0.82148856520229,0.013925297837745,0.0052111657293774,0.0052111657323224,0.0035029663760453,-0.0013171745104195,0.0013171741033443,3.0660032427643e-09,-3.4722141912399e-09,1.7302496658251e-09,-2.1791263520093e-09,-0.0013820983478712,0.0013821014216723,-0.0013821005416052,0.0013820992578676,-0.0013820996292634,0.0013821001177265,-0.0013821018028325,0.001382097934485,-0.0011828117158782,0.0011828164061912,-0.0011828180853258,0.0011828099652732,-1.7732626122797e-09,2.2115680395858e-09,5.7883616181017e-09,-5.3957091311336e-09,-0.0013171741099781,0.0013171745056139,-0.0013820985065994,0.0013821012828606,-0.0013821021457352,0.0013820975502326,-0.0013820972312224,0.001382102600614,-0.0013821008712079,0.0013820988695674,-0.0011828077580624,0.0011828204749377,-0.0011828186112368,0.0011828093437924,-0.001315793228254,0.0013157860204251,-0.0013157893336757,0.0013157899956518,-2.7257935122343e-09,3.8694191969878e-09,-0.0007833136147447,0.0007833147406728,-4.8497967808609e-09,6.2040327651459e-09,-0.000880243973083,0.00088023916053312,-0.00088024031407963,0.00088024282637778,-0.00088024177146057,0.00088024135228662,-0.00088023811143022,0.00088024502562817,-0.00087754143936147,0.00087755272913255,-0.00087754790176605,0.00087754627567399,0.61620824006585,125803,2834,0.0054723794799489,0.0054723794837396,0.003260994616305,41.15183363155,8.9214669052399e-05,8.9214669052399e-05,8.9214669052399e-05,3836291.7467611,0.01430757754039
9619200,0.83510194131032,0.0141102274506,0.0052837192922702,0.0052837192952058,0.0035427888631242,-0.0013355425479345,0.0013355421423918,3.1626470721852e-09,-3.5671295937571e-09,1.7407784691774e-09,-2.1882484517472e-09,-0.0014025718010909,0.0014025749468215,-0.0014025740588153,0.0014025727192943,-0.0014025730889293,0.0014025736363013,-0.0014025753264963,0.0014025713893173,-0.0011979138086712,0.0011979186819439,-0.0011979203657824,0.0011979120532714,-1.7838623449357e-09,2.2204657434063e-09,5.797234238198e-09,-5.4063117696659e-09,-0.001335542148976,0.0013355425429182,-0.0014025719973808,0.0014025747711632,-0.0014025756414621,0.0014025710321328,-0.001402570715637,0.0014025760954914,-0.0014025743605458,0.0014025723579925,-0.0011979099306495,0.0011979226715513,-0.0011979208031105,0.00119791152132,-0.0013336221366081,0.0013336149015336,-0.0013336182234183,0.0013336188962109,-2.8234843833648e-09,3.9640105591396e-09,-0.00079083524681961,0.00079083636963074,-4.8612325888357e-09,6.2124927641243e-09,-0.00089024267647766,0.0008902377899817,-0.0008902390107898,0.00089024146253806,-0.00089024041073683,0.00089024004584598,-0.00089023674399051,0.00089024372586694,-0.00088643457185621,0.00088644605335458,-0.00088644122263032,0.00088643941211987,0.60938040504692,125803,2834,0.0055484585721549,0.005548458575405,0.003292329058842,40.850953131109,8.6807625048871e-05,8.6807625048871e-05,8.6807625048871e-05,3839184.5446833,0.014493739491605
9819200,0.84734626649766,0.014277425912421,0.0053492059587785,0.0053492059617097,0.0035790139919325,-0.0013512643939056,0.0013512639889067,3.2588901270848e-09,-3.6638131497879e-09,1.7559364662875e-09,-2.2010388398919e-09,-0.0014201871354704,0.0014201903552994,-0.0014201894587101,0.0014201880635105,-0.0014201884333768,0.0014201890354702,-0.0014201907344277,0.0014201867248057,-0.0012107758312755,0.0012107808790699,-0.0012107825754785,0.0012107740647094,-1.7956802660828e-09,2.2318366457046e-09,5.8263543217872e-09,-5.4361008774931e-09,-0.0013512639957366,0.0013512643891536,-0.0014201873623815,0.0014201901474164,-0.0014201910266054,0.0014201863888677,-0.0014201860737342,0.0014201914797346,-0.0014201897362865,0.0014201877228308,-0.0012107720056224,0.0012107848083548,-0.0012107829325676,0.0012107736019085,-0.0013489240100181,0.0013489167291188,-0.0013489200676013,0.0013489207470759,-2.9193161319122e-09,4.0589126557986e-09,-0.00079688238691632,0.00079688350896524,-4.889813057926e-09,6.2411909637614e-09,-0.00089844983909303,0.00089844486931417,-0.00089844615485166,0.00089844856035242,-0.00089844751043836,0.00089844718829159,-0.00089844382377552,0.00089845088820425,-0.00089376212181052,0.00089377381006417,-0.00089376895958382,0.00089376697813903,0.61213711031312,125803,2834,0.00561357133582,0.0056135713401339,0.0033175293083264,40.185146813624,8.148117450899e-05,8.148117450899e-05,8.148117450899e-05,3834488.8716615,0.014651454153026
10019200,0.85835062271074,0.014428741433638,0.0054083589557039,0.0054083589580881,0.0036120235198459,-0.0013651842911225,0.0013651838859947,3.3540754697085e-09,-3.7587719235096e-09,1.7650596324633e-09,-2.2112008122742e-09,-0.0014357929537974,0.0014357962432853,-0.0014357953399576,0.0014357938886105,-0.0014357942578966,0.0014357949169735,-0.0014357966229703,0.0014357925428731,-0.0012222260918909,0.001222231323202,-0.0012222330237825,0.001222224319923,-1.8070063333734e-09,2.243217232459e-09,5.8441881349816e-09,-5.4538689421376e-09,-0.0013651838929335,0.0013651842864032,-0.001435793213817,0.0014357960033542,-0.001435796889557,0.0014357922328855,-0.0014357919170978,0.0014357973429346,-0.0014357955928268,0.001435793574119,-0.0012222223371916,0.0012222351851255,-0.0012222333013099,0.0012222239417468,-0.0013625239157097,0.0013625166030971,-0.0013625199540875,0.0013625206411533,-3.0170176470453e-09,4.154560254536e-09,-0.00080217038235163,0.00080217150237424,-4.9095197446411e-09,6.258998165055e-09,-0.000905635023075,0.00090562997390683,-0.00090563132588696,0.00090563367797901,-0.00090563262948891,0.00090563235778074,-0.00090562893072366,0.00090563606985536,-0.00090024762549555,0.00090025951238648,-0.00090025465170234,0.00090025249350014,0.61574676852238,125803,2834,0.0056712167052826,0.0056712167098864,0.0033395692989566,39.48105249943,7.5848419995439e-05,7.5848419995439e-05,7.5848419995439e-05,3825672.2691351,0.014790827714697
10219200,0.86825423416199,0.014566065357046,0.0054619376578726,0.0054619376601495,0.0036421900390241,-0.0013775755446792,0.0013775751393001,3.4498360642881e-09,-3.8544356629892e-09,1.7722979693959e-09,-2.2191739704056e-09,-0.0014496243920769,0.0014496277503622,-0.0014496268423909,0.0014496253320763,-0.0014496257012678,0.0014496264190299,-0.0014496281303716,0.0014496239811797,-0.0012324800814691,0.0012324854956327,-0.0012324872010517,0.0012324783050741,-1.8144546634791e-09,2.2508083864038e-09,5.850282695842e-09,-5.45985994092e-09,-0.0013775751460977,0.0013775755396621,-0.0014496246867099,0.0014496274758035,-0.0014496283674467,0.0014496237012616,-0.0014496233849837,0.0014496288204501,-0.0014496270657638,0.0014496250476007,-0.0012324764109977,0.0012324892757379,-0.0012324873871605,0.0012324780208546,-0.0013746793352514,0.0013746720039762,-0.0013746753600869,0.0013746760581107,-3.1140710652618e-09,4.249464442837e-09,-0.0008068595298032,0.0008068606476462,-4.9167067729904e-09,6.2640848605938e-09,-0.00091201080730601,0.00091200568776472,-0.00091200710597839,0.00091200939604349,-0.00091200834967277,0.00091200813561731,-0.00091200464680912,0.00091201185175557,-0.00090600340570666,0.00090601548240277,-0.00090601062025784,0.000906008276565,0.62007022708723,125803,2834,0.0057225277659154,0.0057225277696072,0.0033591158318052,38.77585875931,7.0206870074484e-05,7.0206870074484e-05,7.0206870074484e-05,3814640.2294315,0.014914829681761
10419200,0.87719488313741,0.014691223571962,0.0055106726074704,0.0055106726097436,0.0036698783547481,-0.0013886984199236,0.0013886980142019,3.5455133804117e-09,-3.9497362061525e-09,1.7754913990153e-09,-2.2240203908213e-09,-0.0014620447732201,0.0014620481979692,-0.0014620472873753,0.0014620457160228,-0.0014620460851314,0.0014620468639059,-0.0014620485781246,0.0014620443623178,-0.0012417672082824,0.0012417728085716,-0.0012417745147283,0.0012417654297648,-1.8188511304641e-09,2.2552420509168e-09,5.8427888792872e-09,-5.4522651287083e-09,-0.0013886980206432,0.0013886984141981,-0.0014620451059123,0.0014620478869409,-0.0014620487815494,0.0014620441175161,-0.001462043801285,0.0014620492345482,-0.0014620474770063,0.0014620454667311,-0.0012417636378898,0.0012417764915365,-0.0012417746004141,0.0012417652515454,-0.0013856513547416,0.0013856440200631,-0.0013856473737076,0.0013856480851791,-3.211729773411e-09,4.3442119573361e-09,-0.00081108532546509,0.00081108644011433,-4.9113150637641e-09,6.255144102895e-09,-0.00091774784834671,0.00091774266613189,-0.00091774415170639,0.00091774636977804,-0.00091774532645589,0.00091774517811864,-0.00091774162839075,0.00091774888951538,-0.00091124025096722,0.00091125250832542,-0.00091124765494303,0.00091124511587613,0.62506142514304,125803,2834,0.0057685834224163,0.0057685834239013,0.0033767328911065,38.100767729054,6.480614183243e-05,6.480614183243e-05,6.480614183243e-05,3802150.6503345,0.015026217464203
10619200,0.88554070908293,0.014805884015906,0.0055553732629296,0.0055553732655419,0.0036951374874347,-0.0014000427981378,0.0014000423929948,3.6443337244004e-09,-4.0466343553335e-09,1.7731250365414e-09,-2.2229219790241e-09,-0.0014746303838551,0.0014746338735464,-0.0014746329632386,0.0014746313260287,-0.0014746316947415,0.0014746325403684,-0.0014746342525877,0.0014746299739326,-0.0012512953513024,0.0012513011476907,-0.0012513028487833,0.0012512935777056,-1.8138645050374e-09,2.2488057627009e-09,5.7748295756463e-09,-5.3855838874271e-09,-0.0014000423996132,0.0014000427918004,-0.0014746307705535,0.0014746335094251,-0.0014746344021034,0.0014746297847424,-0.0014746294698318,0.0014746348531239,-0.0014746331010713,0.0014746311307539,-0.0012512919530598,0.0012513046687712,-0.0012513027841961,0.0012512935633712,-0.0013968068088521,0.0013967995281624,-0.0013968028425711,0.0013968035867025,-3.3097354362897e-09,4.434078837994e-09,-0.00081596891769688,0.00081597002386193,-4.8464212878237e-09,6.1805496492182e-09,-0.00092409254276801,0.00092408733609649,-0.00092408889259565,0.00092409099307072,-0.00092408995811268,0.00092408991033367,-0.00092408630625668,0.0009240935757604,-0.00091707746247136,0.0009170898500675,-0.00091708505374822,0.0009170822758765,0.61395112248641,125803,2834,0.0058155543120433,0.0058155543126162,0.0033970810176087,38.029636886108,6.4237095088863e-05,6.4237095088863e-05,6.4237095088863e-05,3798019.6358667,0.015142248298028
10819200,0.89333387791985,0.014911100351685,0.0055964420451481,0.0055964420482974,0.0037182162582392,-0.0014105308485888,0.0014105304453063,3.7388630850051e-09,-4.1403695844924e-09,1.7677775351392e-09,-2.2136028344235e-09,-0.0014863127078198,0.0014863162568423,-0.0014863153498372,0.001486313646838,-0.001486314013827,0.0014863149286114,-0.0014863166347461,0.0014863122992762,-0.0012600311071107,0.0012600370923304,-0.0012600387903404,0.0012600293384753,-1.8100569252975e-09,2.2435523106114e-09,5.7006498484997e-09,-5.3129675018115e-09,-0.0014105304520014,0.00141053084279,-0.0014863131462727,0.0014863158381374,-0.0014863167296185,0.0014863121628457,-0.0014863118485531,0.0014863171790435,-0.0014863154318448,0.0014863135054685,-0.0012600278731492,0.0012600404407645,-0.0012600385611931,0.0012600294791721,-0.0014070731449481,0.0014070659212666,-0.0014070691839956,0.0014070699662362,-3.4117928410988e-09,4.5272545400403e-09,-0.00082047473751607,0.00082047583494455,-4.7798857181088e-09,6.104783100508e-09,-0.00092996028242751,0.00092995504943651,-0.00092995667966398,0.00092995865931402,-0.00092995763289421,0.00092995768909414,-0.00092995402841133,0.00092996130673705,-0.00092244198987625,0.00092245451126287,-0.00092244976954559,0.00092244674424987,0.60386753634224,125803,2834,0.0058589773202978,0.0058589773221522,0.0034158555205863,37.973754476587,6.3790035812695e-05,6.3790035812695e-05,6.3790035812695e-05,3797481.5803814,0.015249490517872
11019200,0.90060775143641,0.01500745679635,0.0056341012669532,0.0056341012700745,0.003739254259322,-0.0014201872018764,0.0014201868003224,3.8351973692941e-09,-4.2352925649547e-09,1.7621663129111e-09,-2.2060131411069e-09,-0.0014971111434883,0.0014971147537347,-0.0014971138492594,0.0014971120798556,-0.0014971124451313,0.0014971134298305,-0.0014971151299536,0.0014971107367158,-0.0012680319543597,0.0012680381324492,-0.0012680398252154,0.0012680301914016,-1.8043681945549e-09,2.2360569584042e-09,5.6293967738728e-09,-5.2434269094733e-09,-0.0014201868072059,0.0014201871962792,-0.001497111634568,0.0014971142825275,-0.0014971151718767,0.0014971106542971,-0.0014971103410188,0.0014971156189456,-0.0014971138783354,0.0014971119924397,-0.0012680288875928,0.0012680413109867,-0.0012680394385458,0.001268030488391,-0.0014164841290174,0.0014164769633907,-0.0014164801804292,0.0014164809946916,-3.5122568364754e-09,4.6189455544133e-09,-0.00082458366871048,0.00082458475717214,-4.7148081746481e-09,6.0298395053271e-09,-0.00093533305700295,0.00093532779776926,-0.00093532950074896,0.00093533136104283,-0.0009353303433907,0.00093533050152459,-0.00093532678551938,0.00093533407261211,-0.00092731396762403,0.00092732662151685,-0.00092732193446195,0.00092731866592144,0.59320719556751,125803,2834,0.0058989549930994,0.005898954995764,0.0034329767693938,37.918473287657,6.3347786301255e-05,6.3347786301255e-05,6.3347786301255e-05,3799451.9187119,0.015348068629153
11219200,0.90738491536986,0.01509716721958,0.0056691339916666,0.0056691339948128,0.0037588992331006,-0.0014290782190816,0.0014290778193841,3.931547004173e-09,-4.3299568512022e-09,1.7566758579937e-09,-2.1982675558469e-09,-0.0015070685091502,0.001507072180522,-0.0015070712785887,0.0015070694429535,-0.0015070698064677,0.001507070860986,-0.0015070725550656,0.0015070681041877,-0.0012753987262677,0.0012754050972719,-0.0012754067845082,0.0012753969693682,-1.7988797522231e-09,2.2286524461629e-09,5.5671452993703e-09,-5.1830122509526e-09,-0.0014290778263727,0.0014290782136344,-0.0015070690494499,0.001507071659315,-0.0015070725467633,0.0015070680722408,-0.0015070677601089,0.0015070729914727,-0.001507071257382,0.0015070694059723,-0.0012753958182481,0.0012754081152759,-0.001275406249848,0.0012753974138565,-0.0014251674042004,0.001425160290265,-0.0014251634676176,0.0014251643081351,-3.6125044485019e-09,4.7111052683502e-09,-0.00082835189540456,0.00082835297566509,-4.6584706195287e-09,5.9644848247538e-09,-0.00094023423314122,0.00094022894229556,-0.00094023071739785,0.00094023246513156,-0.00094023145546504,0.00094023171025721,-0.00094022793802939,0.00094023524077208,-0.00093179830134988,0.00093181109483844,-0.00093180645610665,0.00093180295066001,0.59263236079354,125803,2834,0.0059357629619559,0.0059357629651497,0.0034486780839858,37.83771154626,6.2701692370084e-05,6.2701692370084e-05,6.2701692370084e-05,3801794.4950979,0.015438775928202
11419200,0.91365565711147,0.015180755811672,0.0057017245967497,0.0057017245998592,0.0037773066150628,-0.0014370508304781,0.0014370504325931,4.026126910116e-09,-4.4229067972334e-09,1.7513136594522e-09,-2.1907839313488e-09,-0.0015160141240684,0.0015160178555511,-0.001516016955819,0.001516015055314,-0.0015160154171285,0.0015160165401252,-0.0015160182283566,0.0015160137208625,-0.0012819946313593,0.0012820011920665,-0.0012820028738139,0.0012819928801288,-1.7957534157305e-09,2.2239239261319e-09,5.5249232900947e-09,-5.1423327249783e-09,-0.0014370504394751,0.0014370508252066,-0.0015160147073512,0.0015160172909658,-0.0015160181774881,0.0015160137314691,-0.0015160134203954,0.0015160186202968,-0.0015160168908855,0.0015160150626534,-0.0012819918597834,0.0012820040716123,-0.0012820022109452,0.0012819934517403,-0.0014329815481021,0.0014329744679657,-0.0014329776187968,0.001432978476955,-3.7136407195662e-09,4.8058033362128e-09,-0.00083162320032024,0.00083162427409775,-4.623064954699e-09,5.9219447353013e-09,-0.00094452453222982,0.00094451919576134,-0.00094452104233267,0.00094452269264025,-0.00094452168922454,0.00094452202901155,-0.00094451819779982,0.00094452553360614,-0.0009357504369626,0.00093576338924844,-0.00093575878253984,0.00093575505324764,0.59626237915965,125803,2834,0.005968767399879,0.005968767403217,0.0034623113530309,37.630841865397,6.1046734923175e-05,6.1046734923175e-05,6.1046734923175e-05,3801053.5210209,0.015519664495633
11619200,0.91945804973652,0.015258482695552,0.0057319918341034,0.0057319918371702,0.0037944990242778,-0.0014443963796194,0.0014443959831548,4.124186462111e-09,-4.5193973506897e-09,1.7487001106473e-09,-2.1869234547543e-09,-0.0015242455316948,0.0015242493272615,-0.0015242484283284,0.0015242464621457,-0.0015242468225756,0.0015242480140678,-0.0015242496986561,0.0015242451299933,-0.0012880851523333,0.0012880919072841,-0.0012880935852484,0.0012880834050827,-1.7912395574493e-09,2.2176353760848e-09,5.4946592794379e-09,-5.1137126712554e-09,-0.0014443959901613,0.0014443963742131,-0.0015242461558172,0.0015242487218006,-0.0015242496069831,0.0015242451820975,-0.0015242448722858,0.0015242500476629,-0.001524248323682,0.0015242465097876,-0.0012880825097188,0.0012880946584334,-0.0012880928037503,0.0012880840972909,-0.001440203856514,0.0014401968047652,-0.0014401999384456,0.0014402008041902,-3.8106404416363e-09,4.8976182428893e-09,-0.00083463574536304,0.00083463681379139,-4.5949113404674e-09,5.8878526976242e-09,-0.00094847393742718,0.00094846855335037,-0.0009484704681115,0.0009484720295313,-0.00094847103135412,0.00094847144956043,-0.00094846756054966,0.00094847493359096,-0.00093941169905384,0.0009394248105333,-0.0009394202297476,0.00093941629004591,0.59873358858855,125803,2834,0.0059991747110334,0.0059991747143488,0.0034748671055338,37.420782215295,5.9366257722364e-05,5.9366257722364e-05,5.9366257722364e-05,3798043.0686174,0.015594188717712
11819200,0.92482843934762,0.015330910011749,0.0057601571092786,0.0057601571123479,0.0038105957901225,-0.0014511766684869,0.00145117627338,4.2206507785453e-09,-4.6144453991547e-09,1.7462103905889e-09,-2.1830634263814e-09,-0.001531831552065,0.0015318354106584,-0.0015318345124529,0.0015318324817677,-0.001531832840881,0.00153183409958,-0.0015318357807501,0.001531831151751,-0.0012937278084509,0.0012937347546407,-0.0012937364291424,0.0012937260649732,-1.788721428847e-09,2.2136484510991e-09,5.4734574139661e-09,-5.0939062050058e-09,-0.0014511762803631,0.0014511766630141,-0.001531832213971,0.0015318347671392,-0.0015318356519203,0.0015318312412905,-0.0015318309325395,0.0015318360908965,-0.0015318343706792,0.0015318325668221,-0.0012937252832081,0.0012937373882656,-0.0012937355376729,0.0012937268679947,-0.001446893940673,0.0014468869076653,-0.0014468900291234,0.0014468909007036,-3.9086964262589e-09,4.9914354150743e-09,-0.00083742303783652,0.00083742410194073,-4.5768780804759e-09,5.8650535586278e-09,-0.00095212135956892,0.00095211592085507,-0.00095211790381835,0.0009521193835266,-0.00095211838954147,0.0009521188810964,-0.00095211493223416,0.00095212235154359,-0.00094281475249794,0.00094282803392689,-0.00094282347112329,0.0009428193258127,0.60218091979667,125803,2834,0.0060272409685388,0.0060272409716675,0.0034864849146438,37.210596784859,5.7684774278871e-05,5.7684774278871e-05,5.7684774278871e-05,3793443.2608108,0.015663009186047
12019200,0.9298077882864,0.015400179061932,0.0057869903901671,0.0057869903932428,0.0038261982785221,-0.0014575786319438,0.0014575782379676,4.3169182792275e-09,-4.709403871415e-09,1.7444416925037e-09,-2.1804094871633e-09,-0.0015389408784109,0.0015389448004962,-0.0015389439025216,0.0015389418078403,-0.0015389421658034,0.0015389434908565,-0.0015389451694432,0.0015389404793105,-0.0012991271560352,0.0012991342926195,-0.0012991359642029,0.0012991254156631,-1.7871950590648e-09,2.2108682842403e-09,5.4597095291859e-09,-5.0813218072391e-09,-0.0014575782448906,0.0014575786263458,-0.0015389415763459,0.0015389441210757,-0.0015389450058985,0.001538940604111,-0.0015389402962801,0.0015389454434058,-0.0015389437260247,0.0015389419282172,-0.0012991247405371,0.0012991368171751,-0.0012991349696529,0.0012991263233107,-0.0014532882344664,0.0014532812132795,-0.001453284327779,0.0014532852026023,-4.0063965571752e-09,5.0858311414967e-09,-0.00084013110172833,0.00084013216241266,-4.565827828377e-09,5.8501809245207e-09,-0.00095560127637911,0.00095559577888213,-0.00095559782920286,0.00095559923297987,-0.00095559824228124,0.00095559880317739,-0.00095559479355287,0.00095560226503284,-0.00094615889211805,0.00094617234955053,-0.00094616779900424,0.0009461634538702,0.61929849987499,125803,2834,0.0060537403477662,0.0060537403505101,0.0034977720227275,37.02819860826,5.6225588866078e-05,5.6225588866078e-05,5.6225588866078e-05,3786010.3708306,0.015728313515433
12219200,0.93444246851264,0.015466795308176,0.0058127018680624,0.0058127018711821,0.0038413915689315,-0.0014637707620655,0.0014637703690559,4.4133300147387e-09,-4.8048173261289e-09,1.7439053634764e-09,-2.1788740401878e-09,-0.0015457395085304,0.0015457434948065,-0.0015457425965595,0.0015457404382406,-0.0015457407952595,0.0015457421858584,-0.0015457438628673,0.001545739110405,-0.0013044453919508,0.0013044527182159,-0.0013044543882155,0.0013044436533987,-1.7863199085059e-09,2.208915421153e-09,5.4513945067092e-09,-5.0740396379415e-09,-0.0014637703760399,0.0014637707564649,-0.0015457402410877,0.0015457427805946,-0.0015457436657394,0.0015457392689363,-0.0015457389618892,0.0015457441020209,-0.0015457423867441,0.001545740592103,-0.0013044430799698,0.0013044551393829,-0.0013044532941486,0.0013044446611267,-0.0014595454504068,0.0014595384361827,-0.0014595415465513,0.0014595424226541,-4.1034671730268e-09,5.1802588862057e-09,-0.00084285585902119,0.00084285691702784,-4.5593191129491e-09,5.8407512735643e-09,-0.00095905846358622,0.00095905290489784,-0.00095905502165766,0.00095905635374365,-0.0009590553656256,0.0009590559930632,-0.00095905192215775,0.00095905944963751,-0.00094954077114754,0.00094955440798518,-0.00094954986541546,0.00094954532505501,0.63789980697337,125803,2834,0.0060793698554543,0.0060793698583188,0.0035091290791575,36.914448386425,5.5315587091403e-05,5.5315587091403e-05,5.5315587091403e-05,3773820.3340262,0.015791924502203
12419200,0.93875684341848,0.015526786469253,0.0058359352381285,0.0058359352412788,0.0038549159898453,-0.0014694731633552,0.0014694727711492,4.509154677361e-09,-4.8999755397578e-09,1.7441953478529e-09,-2.178099883779e-09,-0.0015520090598571,0.0015520131104103,-0.0015520122115582,0.0015520099902161,-0.0015520103464695,0.0015520118016069,-0.001552013477767,0.0015520086625429,-0.0013093097877254,0.0013093173017331,-0.0013093189712845,0.0013093080499923,-1.7866835395149e-09,2.2084808873003e-09,5.4520906034762e-09,-5.0755352233443e-09,-0.0014694727781678,0.0014694731578187,-0.0015520098244023,0.0015520123639479,-0.0015520132499729,0.0015520088516086,-0.0015520085451728,0.0015520136853491,-0.0015520119709523,0.0015520101747559,-0.0013093075684855,0.0013093196292215,-0.0013093177849233,0.0013093091489478,-0.0014652399167967,0.0014652329011328,-0.0014652360125078,0.001465236887021,-4.2004583314411e-09,5.2755728150777e-09,-0.00084528522435585,0.00084528628071607,-4.5615613102089e-09,5.8412892145249e-09,-0.00096225292815564,0.00096224730280758,-0.00096224948527565,0.00096225075261552,-0.0009622497661093,0.00096225045510648,-0.00096224632166018,0.00096225391263262,-0.00095252881012874,0.00095254263437617,-0.0009525380922837,0.00095253336299218,0.61826606053656,125803,2834,0.0061029702396397,0.0061029702427093,0.0035192596331051,36.802438207459,5.4419505659673e-05,5.4419505659673e-05,5.4419505659673e-05,3760406.1878614,0.015850171876129
12619200,0.94277324777371,0.015579646262175,0.0058565198004839,0.0058565198036369,0.0038666066580539,-0.0014745963066084,0.0014745959150291,4.6051138679912e-09,-4.995314206874e-09,1.7447086077026e-09,-2.1779582513998e-09,-0.0015577135549391,0.001557717670036,-0.0015577167704208,0.0015577144860941,-0.0015577148417136,0.0015577163611015,-0.0015577180368053,0.0015577131582883,-0.0013135748247511,0.0013135825266717,-0.0013135841958146,0.0013135730875438,-1.7871854840632e-09,2.208289928062e-09,5.4560428591375e-09,-5.0801610416703e-09,-0.001474595922051,0.0014745963010308,-0.0015577143506942,0.0015577168923634,-0.0015577177792743,0.0015577133772004,-0.0015577130713094,0.0015577182138716,-0.0015577165001063,0.001557714700448,-0.001313572695417,0.0013135847640221,-0.0013135829204154,0.0013135742754421,-0.0014702578132584,0.0014702507937713,-0.0014702539086619,0.0014702547798928,-4.2970676906222e-09,5.3709114041669e-09,-0.00084740853905006,0.00084740959411862,-4.5666077740484e-09,5.8449934901678e-09,-0.00096509004738266,0.00096508435383067,-0.00096508660154745,0.00096508780659031,-0.00096508682133005,0.00096508757013102,-0.00096508337392915,0.0009650910306037,-0.00095510478993141,0.00095511880364226,-0.00095511425981737,0.0009551093444452,0.58731201757099,125803,2834,0.0061241728909746,0.0061241728939663,0.0035281142516695,36.690496625148,5.3523973001182e-05,5.3523973001182e-05,5.3523973001182e-05,3755157.6357525,0.015902255127631
12819200,0.94647871562234,0.015628806958773,0.0058756326080204,0.0058756326111802,0.0038775417395721,-0.0014789238234256,0.0014789234323502,4.7025860988697e-09,-5.0929325928758e-09,1.7479708022213e-09,-2.1796227134928e-09,-0.001562596248724,0.0015626004306238,-0.0015625995293295,0.0015625971820393,-0.0015625975371407,0.0015625991202654,-0.0015626007973691,0.0015625958523473,-0.0013171056496457,0.0013171135404735,-0.0013171152125982,0.0013171039103033,-1.7875157455033e-09,2.2079514519618e-09,5.4780116771543e-09,-5.1029030928372e-09,-0.0014789234397235,0.0014789238180422,-0.0015625970702509,0.0015625996260343,-0.0015626005137721,0.0015625960962983,-0.0015625957908584,0.0015626009478106,-0.0015625992345064,0.0015625974192482,-0.0013171035915134,0.0013171157034633,-0.001317113859981,0.0013171051700853,-0.0014745070908949,0.0014745000561901,-0.001474503184116,0.0014745040392394,-4.39119678413e-09,5.4649099820454e-09,-0.00084908175239397,0.00084908280758627,-4.5865440788591e-09,5.8654580753169e-09,-0.00096732026351592,0.00096731449383667,-0.00096731680422657,0.00096731796024814,-0.00096731697486002,0.00096731777310454,-0.00096731351395015,0.00096732124681387,-0.00095719904574264,0.00095721325644611,-0.00095720869829975,0.00095720361226446,0.591345530773,125803,2834,0.0061420831630556,0.0061420831671803,0.0035350924187447,36.407272651336,5.1258181210685e-05,5.1258181210685e-05,5.1258181210685e-05,3754769.3222309,0.015945743132495
13019200,0.94985455356308,0.015673748137039,0.0058930872156665,0.0058930872187324,0.0038875737026397,-0.0014823347821243,0.0014823343913759,4.8005372617054e-09,-5.191024383886e-09,1.7522208063277e-09,-2.1826528788057e-09,-0.001566504410616,0.0015665086598134,-0.0015665077567333,0.0015665053465799,-0.0015665057012331,0.0015665073477366,-0.0015665090266858,0.0015665040144625,-0.0013198201914959,0.0013198282706485,-0.0013198299473496,0.0013198184488752,-1.7882864433708e-09,2.2082688080863e-09,5.5190162020249e-09,-5.1444547255497e-09,-0.0014823343990957,0.0014823347769564,-0.001566505252343,0.0015665078341411,-0.0015665087233557,0.0015665042775351,-0.0015665039724849,0.0015665091571514,-0.0015665074430501,0.0015665056007247,-0.0013198181865391,0.0013198303786985,-0.0013198285355491,0.0013198197637318,-0.0014778576467437,0.0014778505830874,-0.0014778537373517,0.0014778545668402,-4.4836170553657e-09,5.5596454137666e-09,-0.00085013051753677,0.00085013157508343,-4.6234669235827e-09,5.9055249073845e-09,-0.00096885354768684,0.00096884769162928,-0.00096885006251898,0.00096885118386383,-0.00096885019643704,0.0009688510335657,-0.00096884670978964,0.00096885453295034,-0.00095861022085379,0.00095862464177929,-0.00095862005589807,0.00095861481465131,0.59302696127906,125803,2834,0.0061561989888802,0.0061561989941698,0.0035394738587644,35.874907499621,4.6999259996972e-05,4.6999259996972e-05,4.6999259996972e-05,3749818.7902126,0.01597888370478
13219200,0.95293358436963,0.015714912989711,0.0059090565227457,0.0059090565256674,0.0038967999412977,-0.0014853440706859,0.0014853436801383,4.8931643877162e-09,-5.2827171146772e-09,1.7510939965157e-09,-2.1826717378178e-09,-0.0015699555102161,0.0015699598215839,-0.0015699589177733,0.0015699564464366,-0.0015699568008651,0.0015699585091395,-0.0015699601877855,0.0015699551146813,-0.001322213353375,0.0013222216156933,-0.0013222232890663,0.0013222116132553,-1.7922531140741e-09,2.212219037203e-09,5.5549094492923e-09,-5.1802269937811e-09,-0.0014853436874439,0.001485344065307,-0.0015699563730791,0.001569958976583,-0.0015699598675265,0.0015699553953991,-0.0015699550907486,0.0015699603013102,-0.001569958585133,0.0015699567213916,-0.0013222114051916,0.0013222236706992,-0.00132222182464,0.0013222129861976,-0.0014808243306821,0.0014808172352825,-0.001480820415827,0.0014808212286933,-4.58216229413e-09,5.6599070089613e-09,-0.00085100488913266,0.00085100594835738,-4.6625157547467e-09,5.946265630231e-09,-0.00097016201154626,0.00097015606474426,-0.00097015849999063,0.00097015958338697,-0.00097015859419495,0.00097015947264761,-0.00097015508096371,0.00097016299874569,-0.00095981948583217,0.00095983413066902,-0.00095982951708317,0.00095982410933165,0.59512403001776,125803,2834,0.0061686521473021,0.0061686521512932,0.0035431288283234,35.336205721508,4.2689645772064e-05,4.2689645772064e-05,4.2689645772064e-05,3743301.9240339,0.016007907915495
13419200,0.95574603553423,0.015751911147905,0.0059234249101708,0.0059234249130771,0.0039050613246567,-0.0014879716269293,0.0014879712365107,4.9888363618854e-09,-5.3780545862417e-09,1.752337369355e-09,-2.184036360659e-09,-0.0015729885968769,0.0015729929731276,-0.0015729920682652,0.0015729895342021,-0.0015729898884369,0.001572991659777,-0.0015729933392167,0.0015729882015318,-0.0013242767672067,0.0013242852163834,-0.0013242868899376,0.0013242750265255,-1.7936867200431e-09,2.213417527706e-09,5.5890342391871e-09,-5.2145673631494e-09,-0.0014879712437399,0.0014879716213647,-0.0015729894815075,0.0015729921067128,-0.001572992998546,0.0015729885025151,-0.0015729881982817,0.0015729934322661,-0.0015729917153944,0.0015729898294342,-0.0013242748793051,0.001324287212599,-0.0013242853655699,0.001324276460534,-0.0014833964260231,0.0014833893049397,-0.0014833925093062,0.0014833933013723,-4.6771979782458e-09,5.7568042232591e-09,-0.00085170074056155,0.00085170180169832,-4.6956626056957e-09,5.981629537262e-09,-0.00097126309633065,0.00097125706460718,-0.00097125956193185,0.0009712606060272,-0.00097125961495467,0.00097126053639836,-0.00097125607896188,0.00097126408533044,-0.00096080392789594,0.00096081878512313,-0.00096081414693348,0.00096080857647819,0.5860828688352,125803,2834,0.0061795250575896,0.0061795250610368,0.0035460405425668,34.797254206491,3.8378033651925e-05,3.8378033651925e-05,3.8378033651925e-05,3736349.2628681,0.016032966401016
13619200,0.95833245355361,0.015785499232491,0.005936477203974,0.0059364772068795,0.0039125448216374,-0.0014904532236557,0.0014904528333848,5.086140334904e-09,-5.4748905351464e-09,1.7532306733005e-09,-2.1853140646848e-09,-0.0015758512785094,0.0015758557203205,-0.0015758548146049,0.0015758522168187,-0.0015758525707172,0.0015758544063993,-0.001575856086265,0.001575850883386,-0.0013262298738657,0.0013262385136452,-0.0013262401868403,0.0013262281331108,-1.7931601410121e-09,2.2124055732265e-09,5.6091436888731e-09,-5.2350929618363e-09,-0.001490452840607,0.0014904532177656,-0.0015758521895918,0.0015758548281622,-0.0015758557199943,0.0015758512104933,-0.0015758509067529,0.0015758561533725,-0.0015758544373177,0.0015758525369049,-0.0013262280626653,0.0013262404350978,-0.0013262385889309,0.0013262296429236,-0.0014858177806761,0.0014858106473554,-0.0014858138668672,0.0014858146431633,-4.7712345281023e-09,5.8516832290647e-09,-0.00085242669374429,0.00085242775565442,-4.7138329762945e-09,6.0006695722252e-09,-0.00097234695020937,0.00097234084360336,-0.00097234340324949,0.00097234439751082,-0.00097234340564008,0.00097234437845503,-0.0009723398573146,0.00097234793980666,-0.00096179157008545,0.00096180662526708,-0.00096180197431485,0.00096179623278671,0.57889842414323,125803,2834,0.006189794334948,0.0061897943377056,0.0035490746596947,34.356430608884,3.4851444871072e-05,3.4851444871072e-05,3.4851444871072e-05,3732600.0100085,0.016056922767316
13819200,0.96072525903922,0.015816557581999,0.0059485381672476,0.0059485381701861,0.0039194812445656,-0.0014928382675151,0.0014928378776295,5.1813169749701e-09,-5.5694628012639e-09,1.7520391511713e-09,-2.1840838289147e-09,-0.0015785907537805,0.0015785952586233,-0.0015785943532066,0.001578591691865,-0.001578592045313,0.0015785939454072,-0.0015785956241356,0.0015785903591883,-0.0013281272297919,0.0013281360571458,-0.0013281377284512,0.0013281254907546,-1.793110622819e-09,2.2119462736124e-09,5.6143142489162e-09,-5.2406164476435e-09,-0.0014928378846922,0.0014928382614603,-0.0015785916948758,0.0015785943368652,-0.0015785952288977,0.0015785907156143,-0.0015785904122816,0.0015785956618301,-0.0015785939464082,0.0015785920418306,-0.0013281255078619,0.0013281378902848,-0.0013281360446346,0.0013281270879019,-0.0014881523104422,0.0014881451736294,-0.0014881483977153,0.001488149169553,-4.8680095011088e-09,5.9482517165225e-09,-0.00085320509780251,0.00085320615946486,-4.7202025300877e-09,6.0067645147155e-09,-0.00097343890740241,0.00097343273198971,-0.00097343535636901,0.00097343629008756,-0.00097343529845799,0.00097343633128292,-0.0009734317459157,0.00097343989675225,-0.00096281648045793,0.00096283172897297,-0.00096282707443091,0.00096282114759602,0.57842146988119,125803,2834,0.0061996644359847,0.0061996644380708,0.0035523244743824,34.004066718762,3.2032533750094e-05,3.2032533750094e-05,3.2032533750094e-05,3731031.1086587,0.016080287129779
14019200,0.96294124577356,0.015845319070818,0.0059597002880126,0.0059597002909987,0.0039259184918064,-0.0014949957924101,0.0014949954031681,5.2763587679203e-09,-5.6641953670725e-09,1.751191270897e-09,-2.1819202570692e-09,-0.0015810729530461,0.0015810775207102,-0.0015810766158058,0.0015810738906816,-0.0015810742436415,0.0015810762084467,-0.0015810778857601,0.0015810725590375,-0.0013298417334962,0.001329850747469,-0.0013298524183046,0.0013298399955307,-1.7926538148918e-09,2.2110084997775e-09,5.6124510818877e-09,-5.2392849840835e-09,-0.0014949954103069,0.0014949957866109,-0.0015810739256351,0.0015810765666597,-0.0015810774586551,0.0015810729464001,-0.0015810726435216,0.0015810778911245,-0.0015810761766237,0.0015810742722105,-0.0013298401062949,0.0013298524844021,-0.0013298506396424,0.0013298416850138,-0.001490266706236,0.001490259571222,-0.0014902627934711,0.0014902635646531,-4.9650992824913e-09,6.0444214880432e-09,-0.00085389056359486,0.00085389162447709,-4.7197477170261e-09,6.0056958257253e-09,-0.00097441015778858,0.00097440391776308,-0.00097440660732178,0.00097440747527744,-0.00097440648451952,0.0009744075814273,-0.00097440293245098,0.00097441114639836,-0.0009637280986341,0.00096374353476499,-0.00096373888111578,0.00096373276348026,0.57820995977563,125803,2834,0.0062085928351985,0.0062085928379724,0.0035551869343629,33.653961311831,2.9231690494652e-05,2.9231690494652e-05,2.9231690494652e-05,3728901.2422195,0.016101344330363
14219200,0.96499535347457,0.015871004289212,0.0059697029473919,0.0059697029503765,0.0039315983914432,-0.0014968974910278,0.0014968971022257,5.3721280416465e-09,-5.7596026589159e-09,1.7502543023443e-09,-2.1804476985254e-09,-0.0015832861121773,0.0015832907432653,-0.001583289838683,0.0015832870494868,-0.0015832874020045,0.0015832894317901,-0.0015832911078871,0.001583285718643,-0.001331322026153,0.001331331228475,-0.0013313328982708,0.0013313202891988,-1.7916969977689e-09,2.2095407683958e-09,5.6081389779239e-09,-5.2354617813062e-09,-0.0014968971094243,0.0014968974852427,-0.0015832871177466,0.0015832897564257,-0.0015832906481215,0.001583286138844,-0.0015832858363635,0.0015832910800305,-0.0015832893668538,0.0015832874638216,-0.0013313204974228,0.0013313328662645,-0.001331331022802,0.0013313220748123,-0.0014920994894183,0.0014920923589882,-0.0014920955788687,0.0014920963498252,-5.0615188491029e-09,6.1398417666662e-09,-0.00085444227973327,0.00085444333960247,-4.7162676026206e-09,6.0011701887442e-09,-0.00097523838552199,0.00097523208317571,-0.000975234837701,0.00097523563801265,-0.00097523464828064,0.00097523581078689,-0.00097523109888829,0.00097523937311126,-0.00096446340237733,0.00096447902254378,-0.00096447437227985,0.00096446806334853,0.55856304991013,125803,2834,0.0062164622513471,0.0062164622542748,0.0035574926007774,33.303944841825,2.6431558734603e-05,2.6431558734603e-05,2.6431558734603e-05,3727004.4175631,0.016119684261702
14419200,0.96686951224646,0.015894691654011,0.005978909420596,0.0059789094235832,0.0039368728098316,-0.0014979485915022,0.0014979482036012,5.4639301474493e-09,-5.8512981401524e-09,1.7488501411228e-09,-2.1768200778173e-09,-0.0015846312121449,0.0015846359038572,-0.0015846350003667,0.0015846321487926,-0.0015846325006488,0.0015846345937708,-0.0015846362678276,0.0015846308196364,-0.0013319909715486,0.0013320003533583,-0.0013320020232704,0.001331989236082,-1.7935100744395e-09,2.2112406739561e-09,5.6153935806008e-09,-5.2429584586187e-09,-0.0014979482107477,0.0014979485864519,-0.0015846322453599,0.0015846348880779,-0.0015846357810024,0.0015846312654767,-0.0015846309631626,0.0015846362126066,-0.0015846344983838,0.0015846325915607,-0.001331989523424,0.0013320019066734,-0.0013320000621431,0.0013319911012711,-0.0014930973571911,0.0014930902174744,-0.0014930934395856,0.0014930942102416,-5.1612116242115e-09,6.2396573405454e-09,-0.000854378764148,0.00085437982439671,-4.7275673229311e-09,6.0133720497955e-09,-0.00097534717553659,0.00097534079966856,-0.00097534362030851,0.00097534436215482,-0.00097534337240408,0.0009753445935945,-0.00097533981487149,0.00097534816369945,-0.0009645517838493,0.00096456760777593,-0.00096456294852426,0.00096455645086859,0.56383117359137,125803,2834,0.0062208116786603,0.0062208116830059,0.003557238040169,32.648737415323,2.1189899322585e-05,2.1189899322585e-05,2.1189899322585e-05,3724947.070093,0.016128268251976
14619200,0.96856644817601,0.015916255206945,0.0059872789133338,0.0059872789162632,0.0039416973773479,-0.0014984566148567,0.001498456227433,5.5574410478731e-09,-5.9442350009951e-09,1.7474453799784e-09,-2.1750401640748e-09,-0.0015853936670256,0.001585398419932,-0.0015853975164995,0.0015853946017222,-0.0015853949538042,0.0015853971105418,-0.001585398782602,0.001585393275347,-0.0013321764622279,0.0013321860265752,-0.0013321876963207,0.0013321747283758,-1.7948764688148e-09,2.212570993626e-09,5.6272767264248e-09,-5.2548607960179e-09,-0.0014984562344695,0.0014984566101088,-0.0015853947280868,0.0015853973773746,-0.0015853982702894,0.0015853937451401,-0.0015853934437802,0.0015853987019367,-0.0015853969869107,0.0015853950743246,-0.0013321750941229,0.0013321874999868,-0.0013321856564953,0.001332176673509,-0.001493565696185,0.0014935585450079,-0.0014935617771135,0.0014935625460466,-5.2591825784897e-09,6.3381191120177e-09,-0.00085393091430488,0.00085393197490531,-4.7418107257644e-09,6.0281732269899e-09,-0.00097503862735062,0.00097503217596336,-0.00097503506163561,0.00097503574712595,-0.00097503475758515,0.00097503603455674,-0.00097503119069563,0.00097503961600213,-0.00096422585762601,0.00096424188496157,-0.00096423721454865,0.0009642305344633,0.56645232688734,125803,2834,0.0062229130514241,0.0062229130561659,0.0035553857809814,31.824633297681,1.4597066381447e-05,1.4597066381447e-05,1.4597066381447e-05,3718260.3733456,0.016130659716411
14819200,0.97010563284312,0.015935941918973,0.0059949084249304,0.0059949084278274,0.0039461250662155,-0.0014987639577483,0.0014987635702101,5.6577526043651e-09,-6.0442194315394e-09,1.7494603141883e-09,-2.1779416156139e-09,-0.001585922884691,0.0015859277061631,-0.0015859268015197,0.0015859238221597,-0.0015859241735066,0.0015859263956095,-0.0015859280696599,0.0015859224926373,-0.0013322061210948,0.0013322158833959,-0.0013322175517225,0.0013322043858504,-1.7921179741437e-09,2.2090915700282e-09,5.636723938125e-09,-5.2648542087738e-09,-0.0014987635774376,0.0014987639524461,-0.0015859239763064,0.001585926633554,-0.0015859275257186,0.0015859229962262,-0.0015859226947352,0.0015859279568226,-0.001585926244447,0.001585924321504,-0.0013322048438957,0.0013322172683335,-0.0013322154252177,0.0013322064196692,-0.0014938440779776,0.0014938369267204,-0.0014938401660672,0.0014938409173279,-5.350712624692e-09,6.4292996274567e-09,-0.00085339926653886,0.00085340032681733,-4.7465869300183e-09,6.0323991343178e-09,-0.00097462661740041,0.0009746201018714,-0.00097462304879838,0.00097462367683652,-0.0009746226870225,0.00097462402213712,-0.0009746191173271,0.00097462760546232,-0.00096379941151857,0.00096381561883334,-0.00096381094687849,0.00096380409254308,0.56961684277926,125803,2834,0.0062241838165593,0.006224183820548,0.0035531845695753,30.996182460909,7.9694596872704e-06,7.9694596872704e-06,7.9694596872704e-06,3710081.8216776,0.016131008177745
15019200,0.97148303332811,0.015953493662631,0.0060017083303949,0.0060017083332885,0.0039500769989478,-0.0014983321127104,0.0014983317270061,5.7368700402053e-09,-6.1237408116864e-09,1.7418177648394e-09,-2.1642622715085e-09,-0.0015856864501699,0.001585691319079,-0.0015856904159052,0.0015856873779637,-0.0015856877322504,0.0015856900116601,-0.0015856916791727,0.0015856860587896,-0.0013315418655281,0.0013315517915981,-0.0013315534524825,0.0013315401360254,-1.8024029872965e-09,2.2206338230566e-09,5.6447545640931e-09,-5.272300807107e-09,-0.0014983317336657,0.0014983321095965,-0.001585687563314,0.0015856902215593,-0.0015856911125873,0.001585686571061,-0.0015856862725742,0.0015856915458539,-0.0015856898289143,0.0015856879094835,-0.0013315406510855,0.0013315531010463,-0.0013315512449561,0.0013315422330417,-0.0014933812496186,0.0014933740706327,-0.0014933773082589,0.0014933780677638,-5.4656015454028e-09,6.5383148107353e-09,-0.00085229803890751,0.00085229909585228,-4.7750974807244e-09,6.0575150692354e-09,-0.00097361336230787,0.00097360675386061,-0.00097360977631236,0.00097361034353531,-0.00097360935710249,0.0009736107465366,-0.00097360577077869,0.00097361435019607,-0.00096275951426889,0.00096277595364938,-0.00096277126035903,0.00096276419787425,0.56737758845646,125803,2834,0.0062223946747609,0.0062223946821077,0.0035486159113876,29.893568904071,-8.5144876743043e-07,-8.5144876743043e-07,-8.5144876743043e-07,3697541.8487343,0.016122732138537
15219200,0.97269739995153,0.015968283583511,0.0060074610273304,0.0060074610300935,0.0039533615260866,-0.0014970637925203,0.0014970634061603,5.8420784279848e-09,-6.228460901089e-09,1.7474421347835e-09,-2.1733459186564e-09,-0.0015845982256818,0.00158460317012,-0.0015846022666587,0.0015845991618702,-0.0015845995124653,0.001584601861229,-0.001584603532479,0.0015845978351485,-0.0013300702964092,0.0013300804181337,-0.0013300820856316,0.0013300685634894,-1.7965031085338e-09,2.2135827643952e-09,5.6753642406586e-09,-5.3033962410691e-09,-0.0014970634133107,0.0014970637884514,-0.0015845993675017,0.0015846020482682,-0.0015846029423899,0.0015845983836017,-0.0015845980824182,0.0015846033732801,-0.0015846016582025,0.0015845997126468,-0.0013300691568072,0.0013300816580947,-0.0013300798112464,0.0013300707359526,-0.0014920613361548,0.001492054148515,-0.0014920574135659,0.0014920581499934,-5.5471729110354e-09,6.629096188603e-09,-0.00085055037673048,0.0008505514407664,-4.7903557987256e-09,6.0807639366694e-09,-0.00097191068017647,0.00097190400624174,-0.00097190708196626,0.00097190761164593,-0.00097190661895471,0.00097190805825865,-0.00097190301756454,0.00097191167190262,-0.00096101317711454,0.0009610298066967,-0.00096102509992397,0.00096101789084702,0.54391179539313,125803,2834,0.0062171431458329,0.0062171431522228,0.0035413595165721,28.488297981465,-1.2093616148279e-05,-1.2093616148279e-05,-1.2093616148279e-05,3682077.1701438,0.016104688543636
15419200,0.97377027996096,0.015983217176627,0.0060131828447804,0.006013182847533,0.0039568514843137,-0.0014956429453192,0.0014956425585429,5.943213156153e-09,-6.3292588318402e-09,1.7497916323609e-09,-2.1770056059731e-09,-0.0015833221150755,0.0015833271270295,-0.0015833262217967,0.0015833230526024,-0.0015833234034917,0.0015833258164969,-0.0015833274897659,0.0015833217237971,-0.0013284939022717,0.0013285042235733,-0.0013285058914099,0.0013284921677268,-1.7937748634092e-09,2.2104154336618e-09,5.6929954224867e-09,-5.3215305075503e-09,-0.0014956425656586,0.0014956429403059,-0.0015833232841786,0.0015833259774498,-0.0015833268701157,0.0015833223015323,-0.0015833220009131,0.0015833273011126,-0.0015833255881024,0.001583323628625,-0.0013284928480409,0.0013285053837782,-0.0013285035391473,0.0013284944240341,-0.0014906598224736,0.0014906526301974,-0.0014906559076021,0.0014906566233631,-5.6383526208376e-09,6.719362254419e-09,-0.0008488189044702,0.0008488199675303,-4.8028980194021e-09,6.092195671809e-09,-0.00097010649700952,0.00097009975273911,-0.00097010288973732,0.00097010336622964,-0.00097010237388252,0.00097010386562097,-0.00097009876531426,0.00097010748793017,-0.00095932169046419,0.00095933850488398,-0.00095933379067345,0.00095932641164274,0.61487579143193,125803,2834,0.0062112617642452,0.0062112617686019,0.0035341661837697,27.075355335752,-2.3397157313983e-05,-2.3397157313983e-05,-2.3397157313983e-05,3669856.380923,0.016085427319753
15619200,0.97473736259827,0.015996966234295,0.0060184384981234,0.0060184385008759,0.0039600892352962,-0.0014948210180845,0.0014948206333097,6.0174353521864e-09,-6.3998190853905e-09,1.7322582954629e-09,-2.1603689238594e-09,-0.0015825593552499,0.0015825644101651,-0.0015825635134572,0.0015825602858921,-0.0015825606347407,0.0015825631089208,-0.0015825647697467,0.0015825589679923,-0.0013276157389766,0.0013276262152052,-0.0013276278643857,0.0013276140215727,-1.8080470478744e-09,2.2267149473987e-09,5.6661148871294e-09,-5.292330920403e-09,-0.0014948206375403,0.0014948210142018,-0.001582560559357,0.001582563228536,-0.0015825641299699,0.0015825595711214,-0.0015825592687248,0.0015825645607233,-0.001582562836806,0.0015825609073257,-0.0013276147887931,0.0013276272785238,-0.0013276254224468,0.001327616380175,-0.0014898689071544,0.001489861701626,-0.0014898649640047,0.0014898657355357,-5.7570779321787e-09,6.838734773847e-09,-0.0008475398589322,0.00084754092192237,-4.8025050968118e-09,6.0909604388497e-09,-0.00096895005940696,0.00096894323908331,-0.00096894645511891,0.00096894685145787,-0.0009689458598985,0.00096894742995078,-0.00096894225019276,0.00096895105133405,-0.00095808381052836,0.00095810086314119,-0.0009580961516733,0.00095808853578568,0.62694795757375,125803,2834,0.0062078563787545,0.0062078563794763,0.0035288615900995,25.966008016817,-3.2271935865462e-05,-3.2271935865462e-05,-3.2271935865462e-05,3643914.9991293,0.016073118728096
15819200,0.97564691771931,0.01601084591779,0.0060237086132152,0.0060237086160319,0.003963428688543,-0.0014953375404557,0.0014953371515188,6.1588577091834e-09,-6.5451809741552e-09,1.7618578550402e-09,-2.1944151732404e-09,-0.0015831012947555,0.0015831064563787,-0.0015831055433326,0.0015831022397,-0.0015831025909554,0.0015831051380033,-0.0015831068219845,0.0015831009000527,-0.0013281036554634,0.0013281143977643,-0.001328116070874,0.0013281019112315,-1.7751350362549e-09,2.18859331775e-09,5.627219681563e-09,-5.2583197421491e-09,-0.0014953371604215,0.0014953375321437,-0.0015831025572793,0.0015831052160081,-0.001583106099316,0.0015831015849472,-0.0015831012854252,0.0015831065282687,-0.0015831048315269,0.0015831028975533,-0.0013281028845662,0.0013281152835403,-0.0013281134551456,0.0013281044456475,-0.0014904468680501,0.0014904397602472,-0.0014904430031884,0.0014904437121287,-5.8097245442363e-09,6.8826081446927e-09,-0.00084747086397898,0.00084747191825695,-4.7156038309719e-09,5.9940657459501e-09,-0.0009690641105959,0.00096905730567285,-0.00096906056305136,0.00096906085919336,-0.0009690598735185,0.00096906153196833,-0.00096905632810225,0.00096906509137718,-0.00095811517704944,0.00095813224412494,-0.00095812760282125,0.00095811983317896,0.66919698631505,125803,2834,0.0062099913587929,0.0062099913600106,0.0035285862705136,25.548802735009,-3.5609578119929e-05,-3.5609578119929e-05,-3.5609578119929e-05,3624692.8407673,0.016077179113692
16019200,0.97650390873995,0.016023892618565,0.0060286658198942,0.0060286658227664,0.003966560975904,-0.0014958890057636,0.0014958886203361,6.226106511014e-09,-6.610332134832e-09,1.7427376609137e-09,-2.1693796950571e-09,-0.0015836432720295,0.0015836484686583,-0.0015836475665651,0.0015836442063026,-0.0015836445561998,0.001583647162406,-0.0015836488295098,0.0015836428826098,-0.0013286735125901,0.0013286843920996,-0.0013286860524635,0.0013286717857215,-1.7928436782092e-09,2.2088203278091e-09,5.546704925302e-09,-5.1757594257145e-09,-0.0014958886269158,0.0014958890009669,-0.0015836445816376,0.0015836471785677,-0.0015836480720068,0.0015836436004983,-0.0015836432999376,0.0015836485010265,-0.0015836467902956,0.0015836449267345,-0.0013286728825402,0.0013286851292363,-0.0013286832882747,0.0013286744601876,-0.0014910458137386,0.0014910387195774,-0.0014910419017845,0.0014910427136508,-5.9373419369937e-09,7.0063359452168e-09,-0.00084735421089195,0.00084735526150956,-4.6692021626911e-09,5.9441046708985e-09,-0.0009692437518188,0.00096923689420666,-0.00096924023883508,0.00096924041364383,-0.00096923943374239,0.00096924120219796,-0.00096923591839994,0.00096924473104469,-0.0009580817074298,0.00095809899083188,-0.00095809438337769,0.00095808632381904,0.66742791426542,125803,2834,0.006212269023255,0.0062122690269484,0.0035281179338473,25.148957349331,-3.8808341205354e-05,-3.8808341205354e-05,-3.8808341205354e-05,3598869.8843355,0.016081334401906
16219200,0.97731199748129,0.016036141323601,0.0060333225432748,0.0060333225461524,0.0039694962341742,-0.0014963609674012,0.0014963605820414,6.3246427180358e-09,-6.7089098861729e-09,1.743438470975e-09,-2.169866020259e-09,-0.0015841055097115,0.0015841107726793,-0.0015841098700791,0.0015841064442311,-0.0015841067939058,0.0015841094663046,-0.0015841111336664,0.0015841051200293,-0.0013291581142458,0.0013291691874284,-0.0013291708483597,0.0013291563863377,-1.789890195789e-09,2.2052331197925e-09,5.4867937459296e-09,-5.1164599240217e-09,-0.0014963605889078,0.0014963609623623,-0.0015841068712102,0.0015841094301893,-0.0015841103224,0.0015841058918381,-0.0015841055912961,0.0015841107507687,-0.0015841090430422,0.0015841072157571,-0.0013291576399544,0.0013291697678409,-0.0013291679299279,0.0013291592145931,-0.0014915545808864,0.0014915475327514,-0.0014915506755854,0.0014915515187137,-6.0327884485014e-09,7.0965853298659e-09,-0.00084718423054293,0.00084718527589483,-4.6098116195443e-09,5.8787277879713e-09,-0.00096936318734187,0.00096935630422981,-0.00096935971569734,0.00096935978228216,-0.00096935880719698,0.00096936067426302,-0.00096935533379168,0.00096936416121567,-0.00095799509201566,0.0009580125094415,-0.00095800794837382,0.00095799966149406,0.66425603878993,125803,2834,0.0062142176353545,0.0062142176391406,0.0035274275403513,24.749788668828,-4.2001690649376e-05,-4.2001690649376e-05,-4.2001690649376e-05,3576077.8476719,0.016084595157744
16419200,0.97807730545649,0.016046543054016,0.0060373186881172,0.0060373186909979,0.0039719056749008,-0.0014968248488593,0.0014968244639799,6.4192549562851e-09,-6.8028372472271e-09,1.7407846228129e-09,-2.1670188407678e-09,-0.0015845794255778,0.0015845847502211,-0.0015845838487619,0.0015845803587093,-0.0015845807079778,0.0015845834455533,-0.0015845851105916,0.0015845790364287,-0.0013296051294066,0.0013296163899716,-0.0013296180480534,0.0013296034040764,-1.7905678229703e-09,2.2058763527434e-09,5.4304364854067e-09,-5.0600880456329e-09,-0.0014968244705525,0.0014968248439835,-0.0015845808367459,0.0015845833580001,-0.0015845842509665,0.0015845798572153,-0.001584579556424,0.0015845846789326,-0.0015845829711611,0.0015845811816253,-0.0013296048040385,0.00132961682179,-0.0013296149841715,0.0013296063798818,-0.0014920101730897,0.0014920031610227,-0.0014920062671761,0.0014920071492321,-6.1322823755195e-09,7.1917668606355e-09,-0.00084703622368982,0.0008470372645592,-4.558056387815e-09,5.8217320551012e-09,-0.00096950223581954,0.00096949531976192,-0.0009694988004283,0.00096949876153381,-0.00096949779079114,0.00096949975461884,-0.00096949435360405,0.00096950320541756,-0.00095789858426011,0.00095791615170982,-0.00095791163144669,0.00095790311362909,0.59981696869461,125803,2834,0.0062161329415578,0.0062161329450722,0.0035268274248059,24.412247168222,-4.4702022654226e-05,-4.4702022654226e-05,-4.4702022654226e-05,3558021.1218815,0.016087880345166
16619200,0.97880613579909,0.016058284035122,0.0060417567289362,0.0060417567318244,0.0039747705743617,-0.0014973759883813,0.0014973756030174,6.5199288938831e-09,-6.9035347878098e-09,1.7431278456997e-09,-2.1707790467196e-09,-0.0015851663497166,0.0015851717428786,-0.001585170839629,0.0015851672843508,-0.0015851676337461,0.0015851704365695,-0.0015851721036003,0.0015851659599632,-0.0013301035247337,0.0013301149821221,-0.0013301166412777,0.0013301017972081,-1.7863946035182e-09,2.2009424090327e-09,5.3830597484531e-09,-5.0133239609641e-09,-0.0014973756098208,0.0014973759825179,-0.0015851678102333,0.0015851703021586,-0.001585171193321,0.0015851668330682,-0.0015851665325379,0.0015851716204885,-0.0015851699165899,0.0015851681543459,-0.0013301033457395,0.0013301152684297,-0.0013301134352405,0.0013301049184946,-0.0014926097874701,0.0014926028158476,-0.0014926058932742,0.0014926067959569,-6.2253966214173e-09,7.2804921158752e-09,-0.00084713751446947,0.00084713855064597,-4.5081301821899e-09,5.7661625940456e-09,-0.00096969849785151,0.00096969155123598,-0.00096969509714783,0.00096969495814031,-0.00096969399163636,0.00096969604700874,-0.00096969058990407,0.00096969946262429,-0.00095811534040149,0.00095813304533133,-0.00095812856530299,0.00095811983157078,0.70235631038025,125803,2834,0.006218412604755,0.0062184126067021,0.0035272550971911,24.158300243429,-4.673359805257e-05,-4.673359805257e-05,-4.673359805257e-05,3554304.0520428,0.01609294767299
16819200,0.97950062526528,0.016069526211292,0.0060460076907111,0.0060460076936244,0.0039775108269566,-0.0014980451561975,0.0014980447712123,6.6150269064099e-09,-6.9987701332589e-09,1.7430390511182e-09,-2.1694054080951e-09,-0.0015857888777421,0.0015857943339851,-0.0015857934309404,0.0015857898121309,-0.0015857901613229,0.0015857930280252,-0.0015857946946006,0.0015857884881357,-0.0013308337951838,0.0013308454384885,-0.0013308470980992,0.001330832067912,-1.786326138845e-09,2.200671907889e-09,5.3420201829469e-09,-4.9725840938902e-09,-0.0014980447782592,0.0014980451507723,-0.0015857903827055,0.0015857928475141,-0.0015857937388424,0.0015857894058548,-0.0015857891051782,0.0015857941656319,-0.0015857924623197,0.0015857907268651,-0.0013308337483681,0.0013308455903372,-0.0013308437575837,0.0013308353209851,-0.0014933292375845,0.0014933222931997,-0.0014933253415158,0.0014933262710919,-6.3233961376312e-09,7.3754184779106e-09,-0.00084715961694673,0.00084716065017712,-4.4695756189924e-09,5.7244255130168e-09,-0.00097004422842755,0.00097003724153795,-0.00097004085457328,0.00097004062173116,-0.00097003965809518,0.00097004180168289,-0.00097003628301828,0.00097004519039147,-0.00095821504850164,0.00095823291258931,-0.0009582284615839,0.00095821950850368,0.70571570871559,125803,2834,0.0062211766372448,0.0062211766406045,0.0035273648682713,23.906455400583,-4.8748356795334e-05,-4.8748356795334e-05,-4.8748356795334e-05,3530782.901684,0.016098678609527
17019200,0.98016268751171,0.016080034478925,0.0060499891112873,0.0060499891142072,0.0039800562534306,-0.0014986529034997,0.0014986525187587,6.7100776787917e-09,-7.0936847107426e-09,1.7426002793459e-09,-2.1684853222619e-09,-0.0015863521754528,0.0015863576947996,-0.0015863567919764,0.0015863531095834,-0.0015863534586288,0.0015863563892393,-0.0015863580551799,0.0015863517860738,-0.0013314946644825,0.0013315064941652,-0.0013315081535818,0.0013314929377906,-1.7865921824234e-09,2.2008478499219e-09,5.3105238300416e-09,-4.9411976406164e-09,-0.0014986525258243,0.0014986528982577,-0.0015863537222103,0.0015863561660126,-0.0015863570577728,0.0015863527453811,-0.0015863524446041,0.0015863574842694,-0.0015863557810195,0.0015863540665175,-0.0013314947414432,0.0013315065216265,-0.0013315046891915,0.0013314963143799,-0.0014939716993953,0.0014939647753134,-0.00149396780235,0.0014939687533438,-6.4211161622018e-09,7.4709669629111e-09,-0.00084712841420126,0.00084712944525642,-4.4400873162626e-09,5.6924607062026e-09,-0.00097034132101198,0.00097033428810542,-0.00097033796768526,0.00097033764781938,-0.00097033668631654,0.00097033891267318,-0.00097033333163077,0.0009703422809264,-0.00095825827661468,0.00095827630722796,-0.00095827187877941,0.00095826271373223,0.69245975105295,125803,2834,0.0062236861579536,0.0062236861617313,0.0035272535187287,23.654692434725,-5.0762460522202e-05,-5.0762460522202e-05,-5.0762460522202e-05,3509251.8706944,0.016103667638009
17219200,0.98077892666344,0.016089553534739,0.006053604738105,0.0060536047410268,0.0039823440556067,-0.0014983563756902,0.0014983559921211,6.7992481378131e-09,-7.1826236784829e-09,1.7383085566903e-09,-2.1614388231747e-09,-0.001586029631554,0.0015860352077998,-0.0015860343078683,0.0015860305628811,-0.0015860309113959,0.0015860339056179,-0.0015860355669546,0.0015860292436122,-0.0013312389626075,0.0013312509681922,-0.0013312526257138,0.0013312372395825,-1.7927162421023e-09,2.2078603448628e-09,5.3162022061986e-09,-4.9462641194235e-09,-0.0014983559985991,0.0014983563718335,-0.0015860312057887,0.0015860336500534,-0.0015860345452421,0.0015860302253915,-0.0015860299242393,0.001586034972277,-0.001586033263755,0.0015860315513493,-0.0013312391184605,0.0013312509126274,-0.0013312490749382,0.0013312406958022,-0.0014936890037079,0.0014936820627084,-0.0014936850894213,0.0014936860524336,-6.5231653811976e-09,7.5739160809744e-09,-0.00084634022784429,0.00084634126011186,-4.4518909567265e-09,5.7060892222284e-09,-0.00096980985309092,0.00096980274504961,-0.00096980649179616,0.00096980611277981,-0.00096980515063779,0.00096980743755601,-0.00096980178702821,0.00096981081467261,-0.00095750348528451,0.00095752172699168,-0.00095751728763646,0.00095750792955507,0.67475986334887,125803,2834,0.0062224531093055,0.0062224531147389,0.003523994118301,22.995404830965,-5.6036761352283e-05,-5.6036761352283e-05,-5.6036761352283e-05,3487822.3787251,0.016097851703166
17419200,0.98134133951876,0.01609787038313,0.0060567755031965,0.0060567755061015,0.0039843193738319,-0.0014972550569352,0.0014972546736051,6.8923116982558e-09,-7.2754995671294e-09,1.7376760211903e-09,-2.1604490056482e-09,-0.0015849211023636,0.0015849267404611,-0.0015849258408845,0.0015849220332951,-0.0015849223817201,0.0015849254387362,-0.0015849270993253,0.0015849207147832,-0.0013301630825807,0.0013301752707969,-0.0013301769277806,0.0013301613601418,-1.7949318677106e-09,2.2103441027185e-09,5.3553580530089e-09,-4.985177684786e-09,-0.0014972546798752,0.0014972550533617,-0.001584922695225,0.0015849251642208,-0.0015849260604341,0.0015849217131318,-0.0015849214120792,0.0015849264878463,-0.0015849247773623,0.001584923040963,-0.0013301632908265,0.0013301751630632,-0.0013301733231622,0.0013301648693761,-0.0014925838359328,0.0014925768640953,-0.0014925799165,0.0014925808585616,-6.6201120638162e-09,7.6739541769087e-09,-0.0008449140524388,0.00084491508789941,-4.4917797943411e-09,5.7496780522675e-09,-0.00096855046376561,0.00096854326548691,-0.00096854707471993,0.00096854666083113,-0.00096854569568932,0.00096854802347857,-0.00096854230424714,0.00096855142860455,-0.00095606683058185,0.00095608529611194,-0.00095608082561579,0.00095607130549619,0.64747797215163,125803,2834,0.0062178897588251,0.0062178897644139,0.0035180798369656,21.992718460559,-6.4058252315531e-05,-6.4058252315531e-05,-6.4058252315531e-05,3467498.6778628,0.016082569765503
17619200,0.98185502870797,0.016105174631964,0.0060595686544752,0.0060595686573646,0.0039860373201245,-0.0014960035483713,0.0014960031633518,7.001170911858e-09,-7.3853342559315e-09,1.7472868625857e-09,-2.1729943583963e-09,-0.0015836840509456,0.0015836897667863,-0.0015836888615623,0.0015836849877164,-0.0015836853367802,0.0015836884586669,-0.0015836901278708,0.0015836836610244,-0.0013289084056729,0.0013289208028021,-0.0013289224664673,0.0013289066753591,-1.7858900925777e-09,2.1997406991568e-09,5.4068847837728e-09,-5.0380043142169e-09,-0.0014960031709235,0.0014960035429753,-0.0015836856640147,0.001583688171688,-0.0015836890628685,0.0015836846867278,-0.001583684386512,0.0015836894897677,-0.0015836877868153,0.0015836860072138,-0.001328908671848,0.0013289206409604,-0.0013289188084714,0.0013289102426098,-0.0014913191147977,0.0014913121283037,-0.0014913152188066,0.0014913161025234,-6.7007863463491e-09,7.7575507229445e-09,-0.00084345660365977,0.00084345764189972,-4.5284303933136e-09,5.7892172316641e-09,-0.0009671733873766,0.00096716611048389,-0.00096716997199661,0.00096716953218073,-0.00096716856341404,0.00096717092425788,-0.00096716514723182,0.00096717435405445,-0.00095458720033093,0.00095460585305713,-0.00095460135541028,0.00095459170539354,0.62390232784632,125803,2834,0.006212706274153,0.0062127062786601,0.003512030947252,20.981354839098,-7.2149161287219e-05,-7.2149161287219e-05,-7.2149161287219e-05,3453360.8450651,0.016065890389431
17819200,0.98232541394242,0.01611163019274,0.0060620437169874,0.0060620437198751,0.0039875427558772,-0.0014946842312973,0.0014946838461321,7.0969216904433e-09,-7.4808381624116e-09,1.7473526593992e-09,-2.1739381045655e-09,-0.0015823983275644,0.0015824041073639,-0.0015824032017151,0.001582399264492,-0.0015823996135347,0.0015824027988393,-0.0015824044683394,0.0015823979377788,-0.0013275627858697,0.0013275753702884,-0.0013275770339589,0.0013275610563138,-1.7863907693412e-09,2.2002467150445e-09,5.4516847284606e-09,-5.0826979981496e-09,-0.0014946838534903,0.001494684225552,-0.0015823999587452,0.0015824024955457,-0.0015824033867132,0.0015823989805273,-0.0015823986805593,0.0015824038137565,-0.0015824021103719,0.0015824003017434,-0.0013275631024141,0.0013275751594018,-0.0013275733272298,0.0013275646746042,-0.0014899790122045,0.001489971995442,-0.0014899751178286,0.0014899759746432,-6.7949073356444e-09,7.8552622780118e-09,-0.00084202758724201,0.00084202862885858,-4.5706312114311e-09,5.8351803584578e-09,-0.00096575737315846,0.00096575000595729,-0.00096575392811538,0.00096575345690242,-0.00096575248490267,0.00096575488346527,-0.00096574903946179,0.00096575834298481,-0.00095312767044002,0.0009531465445494,-0.00095314201404786,0.00095313220947305,0.60341627591309,125803,2834,0.0062072434480666,0.0062072434514085,0.0035060963010097,19.991624217277,-8.0067006261782e-05,-8.0067006261782e-05,-8.0067006261782e-05,3444469.7659233,0.01604875923762
18019200,0.98275711743316,0.016117548758988,0.0060643108861888,0.0060643108890838,0.0039889269837154,-0.0014933152745947,0.001493314889984,7.1863547638537e-09,-7.5696242304111e-09,1.7436190943982e-09,-2.1698822788211e-09,-0.0015810759400861,0.001581081778131,-0.0015810808748204,0.0015810768758217,-0.0015810772243271,0.0015810804720615,-0.001581082138422,0.0015810755513614,-0.0013261522900514,0.0013261650521388,-0.0013261667120094,0.001326150562391,-1.7906990792547e-09,2.2051662989323e-09,5.4900443107946e-09,-5.1204529623404e-09,-0.0014933148966397,0.00149331526928,-0.0015810775888959,0.0015810801490984,-0.0015810810431524,0.0015810766089443,-0.0015810763087516,0.0015810814704996,-0.0015810797631343,0.0015810779327242,-0.0013261526572881,0.0013261647917754,-0.0013261629547043,0.0013261542308002,-0.0014885905756549,0.0014885835234054,-0.0014885866705409,0.0014885875109984,-6.8955714299159e-09,7.9593508510303e-09,-0.00084063337417569,0.00084063441920563,-4.6134162646749e-09,5.8818267088142e-09,-0.00096431715268853,0.00096430969145968,-0.00096431367855111,0.00096431317199676,-0.00096431219706335,0.00096431463698801,-0.00096430872147334,0.00096431812617679,-0.00095170189942111,0.00095172100639628,-0.00095171644412038,0.0009517064718604,0.60265702597675,125803,2834,0.0062015762731895,0.006201576275969,0.003500303083426,19.020208948677,-8.7838328410583e-05,-8.7838328410583e-05,-8.7838328410583e-05,3439522.8823597,0.016031356343814
18219200,0.98315373840992,0.016123091441485,0.0060664282638192,0.0060664282667244,0.0039902349109417,-0.0014919042476613,0.0014919038631541,7.282565571856e-09,-7.6660166518652e-09,1.7447807772037e-09,-2.170374594193e-09,-0.0015797065434609,0.0015797124461815,-0.0015797115421682,0.0015797074795819,-0.0015797078282006,0.001579711139381,-0.0015797128065014,0.0015797061546652,-0.0013247084096919,0.0013247213593603,-0.001324723020345,0.0013247066817914,-1.7904355757751e-09,2.2047531588676e-09,5.5287476971253e-09,-5.1593931503363e-09,-0.0014919038700908,0.0014919042425707,-0.0015797082115008,0.0015797107975807,-0.0015797116909146,0.001579707231121,-0.0015797069313447,0.0015797121183915,-0.0015797104114427,0.0015797085549099,-0.0013247088325503,0.0013247210428075,-0.0013247192057365,0.0013247104057922,-0.0014871658456337,0.0014871587683364,-0.0014871619403873,0.0014871627541604,-6.9896715981597e-09,8.0556442551565e-09,-0.00083923608637224,0.00083923713387117,-4.6497757613106e-09,5.921203837404e-09,-0.00096286293259192,0.00096285538518095,-0.00096285943322278,0.00096285889087379,-0.00096285791346625,0.00096286039411623,-0.00096285441267826,0.00096286390854959,-0.00095027037076044,0.00095028969212621,-0.00095028510132995,0.00095027496989759,0.61338750424702,125803,2834,0.0061957351125072,0.0061957351163319,0.0034944965345104,18.049255301112,-9.5605957591104e-05,-9.5605957591104e-05,-9.5605957591104e-05,3433985.3353217,0.016013586596686
18419200,0.98352770199357,0.016128354761378,0.0060684360944757,0.0060684360973834,0.0039914825695193,-0.0014912594991793,0.0014912591156116,7.365804444495e-09,-7.7471325615357e-09,1.7354415585105e-09,-2.1620902569209e-09,-0.0015790887799603,0.0015790947345452,-0.0015790938348885,0.0015790897123656,-0.0015790900598151,0.0015790934325094,-0.0015790950932824,0.0015790883931954,-0.0013240386642214,0.0013240517816215,-0.0013240534327027,0.0013240369458151,-1.7983861704781e-09,2.21377807345e-09,5.5296862119949e-09,-5.1590249289639e-09,-0.0014912591210905,0.0014912594946848,-0.0015790904765659,0.0015790930594658,-0.0015790939574673,0.0015790894927146,-0.0015790891919084,0.0015790943850227,-0.0015790926719788,0.0015790908217705,-0.0013240391710081,0.0013240513866872,-0.0013240495440426,0.0013240407533497,-0.0014865158361676,0.0014865087413455,-0.0014865119166383,0.0014865127515457,-7.0981045433666e-09,8.1659673293623e-09,-0.00083852629704727,0.00083852734590367,-4.6644859099974e-09,5.9369984964725e-09,-0.00096214547125854,0.00096213784318021,-0.0009621419627321,0.0009621413588505,-0.00096214038044623,0.00096214292440413,-0.00096213686857912,0.00096214644890781,-0.00094955397195682,0.00094957352222423,-0.00094956892160925,0.00094955858597696,0.61738402318186,125803,2834,0.0061930657175648,0.006193065719602,0.0034915481216858,17.476219460917,-0.00010019024431266,-0.00010019024431266,-0.00010019024431266,3430390.6852506,0.016005166505516
18619200,0.98388787866089,0.016133375354349,0.0060703522083633,0.0060703522112887,0.0039926709346971,-0.0014912452187105,0.0014912448334046,7.4826285575986e-09,-7.8661117896255e-09,1.7490110243255e-09,-2.1766473282124e-09,-0.0015790985183681,0.0015791045564729,-0.0015791036494615,0.0015790994567819,-0.0015790998059302,0.0015791032466987,-0.0015791049175799,0.0015790981283678,-0.0013239966327623,0.0013240099743169,-0.0013240116365378,0.0013239949014606,-1.7847669292425e-09,2.1981828547883e-09,5.5243116847184e-09,-5.1556438028745e-09,-0.0014912448408789,0.0014912452125084,-0.0015791002548763,0.001579102840709,-0.0015791037307357,0.0015790992769926,-0.0015790989779193,0.0015791041578012,-0.0015791024558117,0.0015791005969248,-0.001323997258628,0.0013240094582278,-0.0013240076255679,0.0013239988272927,-0.0014864969473672,0.0014864898853596,-0.0014864930581336,0.0014864938585327,-7.1737987573439e-09,8.2377374186882e-09,-0.00083838244103476,0.00083838348637337,-4.6375116933481e-09,5.9061272815348e-09,-0.00096203017012897,0.00096202250683184,-0.00096202667908194,0.00096202600374606,-0.0009620250278472,0.00096202763834963,-0.00096202153679799,0.00096203114370479,-0.00094942347756932,0.00094944314448387,-0.0009494385655859,0.00094942806722355,0.61178639296139,125803,2834,0.0061930060983972,0.0061930061010294,0.0034909520345429,17.230982690417,-0.00010215213847666,-0.00010215213847666,-0.00010215213847666,3429796.8198257,0.01600443991626
18819200,0.98423506198535,0.016138533697335,0.0060723086516313,0.0060723086545672,0.0039939163911369,-0.0014912385477459,0.0014912381634656,7.5697552572906e-09,-7.9528206874929e-09,1.7441476116053e-09,-2.1697671713964e-09,-0.0015791178620568,0.0015791239558968,-0.0015791230520011,0.0015791187980314,-0.0015791191463733,0.0015791226494901,-0.0015791243159601,0.0015791174735207,-0.0013239619176715,0.0013239754306551,-0.001323977090529,0.0013239601907699,-1.7897948975239e-09,2.2038133008187e-09,5.5008376119438e-09,-5.1317369662855e-09,-0.0014912381704126,0.0014912385426165,-0.0015791196348533,0.0015791222027164,-0.0015791230960244,0.0015791186549241,-0.0015791183552034,0.0015791235230124,-0.0015791218170328,0.0015791199781351,-0.0013239626501348,0.0013239748051555,-0.0013239729693413,0.0013239642231989,-0.0014864951662187,0.0014864881087601,-0.0014864912631891,0.0014864920935896,-7.2790454557722e-09,8.3420446383508e-09,-0.00083826519698532,0.00083826624142083,-4.6237072801113e-09,5.8916371616337e-09,-0.00096192582614909,0.00096191810227373,-0.00096192234529943,0.00096192158951034,-0.00096192061503719,0.00096192330323629,-0.00096191713273423,0.00096192679911542,-0.00094932717933939,0.00094934704265916,-0.00094934247359048,0.0009493317573819,0.64922936103395,125803,2834,0.0061929782401067,0.0061929782438719,0.0034904659687711,16.994005971605,-0.00010404795222716,-0.00010404795222716,-0.00010404795222716,3430025.0570327,0.016003889472565
19019200,0.98456982374209,0.01614381819543,0.0060743025847598,0.0060743025876979,0.003995213022972,-0.0014912896827425,0.0014912892986239,7.6651537299916e-09,-8.0481202548624e-09,1.7438244595951e-09,-2.1691617116575e-09,-0.0015791591193686,0.0015791652766532,-0.0015791643729031,0.0015791600551358,-0.0015791604033703,0.0015791639705273,-0.0015791656365646,0.0015791587309775,-0.0013240335956783,0.0013240472959002,-0.0013240489554862,0.0013240318692092,-1.7896982176538e-09,2.2036438514463e-09,5.4816798244296e-09,-5.1126565435561e-09,-0.0014912893055596,0.0014912896776923,-0.0015791609300649,0.0015791634853099,-0.0015791643786944,0.0015791599502362,-0.0015791596504916,0.0015791648055074,-0.0015791630997852,0.0015791612733942,-0.0013240344402772,0.0013240465576724,-0.0013240447221431,0.0013240360133842,-0.0014865626608545,0.0014865556162646,-0.0014865587577452,0.0014865596005452,-7.376152764042e-09,8.4374910634397e-09,-0.00083812988697338,0.00083813092974771,-4.6059218671916e-09,5.8719940979612e-09,-0.0009618867839848,0.00096187900680129,-0.0009618833156074,0.0009618824815275,-0.00096188150869881,0.00096188427193354,-0.00096187803888513,0.00096188775535729,-0.00094920956758134,0.0009492296051519,-0.0009492250501652,0.00094921413134895,0.68719100223894,125803,2834,0.0061931881036025,0.0061931881075085,0.0034899091362476,16.75735006921,-0.00010594119944632,-0.00010594119944632,-0.00010594119944632,3422314.2138547,0.016003750847183
19219200,0.98490307018322,0.01614923924227,0.0060763435796564,0.0060763435825957,0.0039965520800182,-0.0014923802041281,0.0014923798208065,7.7552039522544e-09,-8.1364004829621e-09,1.7365979195962e-09,-2.162587802133e-09,-0.0015802064087583,0.0015802126225641,-0.0015802117221736,0.0015802073409787,-0.0015802076887022,0.0015802113205247,-0.0015802129809888,0.0015802060217743,-0.0013251728572717,0.0013251867386114,-0.0013251883899032,0.001325171137692,-1.7952220413166e-09,2.2101020126651e-09,5.4331388274349e-09,-5.063014185506e-09,-0.0014923798265288,0.0014923801995749,-0.0015802082658334,0.0015802107859628,-0.001580211682747,0.0015802072833025,-0.0015802069828558,0.0015802121097102,-0.0015802103995198,0.0015802086107657,-0.001325173840411,0.0013251858656457,-0.0013251840260426,0.001325175419943,-0.001487681009422,0.0014876739854643,-0.0014876770966803,0.0014876779857805,-7.4801756344151e-09,8.5386089144176e-09,-0.00083884760702065,0.00083884864648256,-4.5663808878473e-09,5.8281753072266e-09,-0.00096281836482686,0.0009628105442405,-0.00096281492462292,0.00096281399084657,-0.00096281302149051,0.0009628158773126,-0.00096280957910086,0.0009628193334148,-0.00094998209102789,0.00095000230008249,-0.00094999777707421,0.00094998662630107,0.70677987083004,125803,2834,0.0061976991704692,0.0061976991728872,0.0034929014966352,17.022152136571,-0.00010382278290743,-0.00010382278290743,-0.00010382278290743,3413919.398589,0.016015959273272
19419200,0.98523994244582,0.016154603557924,0.0060783679521712,0.0060783679551223,0.0039978676506304,-0.0014939879146442,0.0014939875325259,7.8461956138746e-09,-8.2262792146403e-09,1.729214270691e-09,-2.1538614675989e-09,-0.0015817649269626,0.0015817711976698,-0.0015817703013713,0.0015817658553614,-0.0015817662020238,0.0015817699004218,-0.0015817715547452,0.0015817645415334,-0.0013268318681807,0.0013268459319272,-0.0013268475766673,0.0013268301556256,-1.802037701397e-09,2.2179855873629e-09,5.3779901544489e-09,-5.0068507007656e-09,-0.0014939875371389,0.0014939879112137,-0.0015817668323997,0.001581769312367,-0.0015817702134063,0.001581765846835,-0.0015817655451176,0.0015817706405607,-0.0015817689249689,0.0015817671789824,-0.0013268329940214,0.0013268449150724,-0.0013268430700008,0.0013268345807883,-0.0014893108662631,0.0014893038650554,-0.0014893069377216,0.0014893078812299,-7.5832418192069e-09,8.638183928734e-09,-0.00083997595363554,0.0008399769895169,-4.5185976504416e-09,5.7762620575396e-09,-0.00096422520491971,0.00096421734709152,-0.00096422179856775,0.00096422076044367,-0.00096421979482621,0.00096422274754968,-0.00096421638496678,0.00096422617035314,-0.00095118004183311,0.0009512004139492,-0.00095119592738019,0.00095118454022028,0.69264757210222,125803,2834,0.0062043503156851,0.0062043503181328,0.0034976025847394,17.538405804557,-9.9692753563546e-05,-9.9692753563546e-05,-9.9692753563546e-05,3406824.6398103,0.01603425333593
19619200,0.98558031870543,0.016159889177567,0.0060803678267436,0.0060803678297052,0.0039991535211184,-0.0014955807177098,0.001495580333427,7.9548122135355e-09,-8.3377049783656e-09,1.7449281407019e-09,-2.1707858224538e-09,-0.001583328349556,0.0015833347006104,-0.0015833337958925,0.0015833292857304,-0.001583329634041,0.0015833333938135,-0.0015833350606498,0.0015833279606869,-0.0013284475678215,0.0013284618356872,-0.0013284634956595,0.0013284458402697,-1.7865120063433e-09,2.1998569909895e-09,5.3403191663786e-09,-4.9717974595519e-09,-0.0014955803406112,0.0014955807121931,-0.0015833303028615,0.0015833327661015,-0.0015833336586005,0.0015833293253726,-0.0015833290252442,0.0015833340843146,-0.0015833323820369,0.0015833306461224,-0.001328448835377,0.0013284606739106,-0.001328458842803,0.0013284504070536,-0.0014909167296649,0.0014909097857214,-0.0014909128345772,0.001490913763083,-7.6670760812012e-09,8.7177001110104e-09,-0.00084110620782288,0.00084110723956167,-4.4688598564302e-09,5.7220462333841e-09,-0.00096560376029639,0.00096559587733152,-0.00096560038730902,0.00096559925669669,-0.00096559829433145,0.00096560133313388,-0.00096559492027125,0.00096560472079833,-0.00095238705458977,0.00095240754396793,-0.0009524030955258,0.00095239151261019,0.67638953028474,125803,2834,0.0062109400908239,0.0062109400942772,0.003502310412353,18.061063460374,-9.5511492317005e-05,-9.5511492317005e-05,-9.5511492317005e-05,3404039.6114676,0.016052429571864
19819200,0.98592392839983,0.016165069588019,0.0060823336315922,0.0060823336345567,0.0040004023218702,-0.001497142931568,0.0014971425482169,8.0450131455472e-09,-8.4270712829334e-09,1.7384910835849e-09,-2.1631716744137e-09,-0.001584879627257,0.0015848860347887,-0.0015848851335989,0.0015848805597456,-0.001584880907656,0.0015848847320844,-0.0015848863934203,0.0015848792397672,-0.0013300056810575,0.0013300201285801,-0.0013300217832119,0.0013300039590278,-1.7925985161105e-09,2.2069040384737e-09,5.2989204872763e-09,-4.9295209116486e-09,-0.0014971425544712,0.0014971429269546,-0.0015848816239874,0.0015848840564831,-0.0015848849526169,0.0015848806434305,-0.0015848803426081,0.0015848853785257,-0.0015848836712942,0.0015848819688328,-0.0013300070767839,0.0013300188371837,-0.0013300170011415,0.0013300086543805,-0.0014924851688355,0.0014924782395386,-0.0014924812593312,0.0014924822312677,-7.7702950332383e-09,8.818612284948e-09,-0.00084223335187819,0.0008422343811969,-4.4348197760739e-09,5.6852370228003e-09,-0.00096694163689416,0.00096693370758679,-0.00096693828799463,0.0009669370629305,-0.00096693610335312,0.00096693923097131,-0.00096693275245817,0.00096694259544795,-0.00095359572511972,0.00095361638984543,-0.0009536119669915,0.00095360015673111,0.65786894047679,125803,2834,0.0062174038000022,0.0062174038034021,0.0035070036258697,18.583970323965,-9.1328237408282e-05,-9.1328237408282e-05,-9.1328237408282e-05,3405123.8940537,0.016070334747267
20019200,0.98626126151378,0.016170342440973,0.0060843283540627,0.0060843283570295,0.0040016857298806,-0.0014978237119694,0.001497823328609,8.142133466941e-09,-8.5248792878483e-09,1.7414279922761e-09,-2.1650921111575e-09,-0.0015855661943132,0.0015855726680029,-0.0015855717655637,0.0015855671281909,-0.0015855674760709,0.0015855713639328,-0.0015855730270753,0.0015855658065,-0.0013306731003633,0.00133068773639,-0.0013306893947435,0.0013306713758236,-1.7903034102244e-09,2.2041624804473e-09,5.3021618826391e-09,-4.9333172397212e-09,-0.0014978233353823,0.0014978237074235,-0.0015855682218711,0.0015855706577667,-0.0015855715526373,0.001585567242462,-0.0015855669419223,0.0015855719783792,-0.0015855702731111,0.0015855685661246,-0.0013306745865324,0.0013306863519437,-0.0013306845178633,0.0013306761612901,-0.0014931726348685,0.0014931657081796,-0.0014931687284941,0.0014931696921916,-7.8645326643157e-09,8.9127670761132e-09,-0.0008426107740232,0.00084261180356998,-4.4362345733216e-09,5.68716878112e-09,-0.00096744800382329,0.00096744001071547,-0.00096744465365871,0.00096744336729039,-0.00096744240740331,0.00096744559712948,-0.00096743905551041,0.00096744896256477,-0.00095402929313787,0.0009540501425751,-0.00095404571777015,0.00095403372438569,0.68048383183392,125803,2834,0.006220219560426,0.0062202195650427,0.0035085789198944,18.67150395724,-9.0627968342083e-05,-9.0627968342083e-05,-9.0627968342083e-05,3404645.3555048,0.016077658160907
20219200,0.98658991532208,0.016175628971056,0.0060863236254681,0.0060863236284295,0.0040029817171584,-0.0014982896118501,0.00149828922761,8.2448370513582e-09,-8.6282643426235e-09,1.7472580941705e-09,-2.1721156917684e-09,-0.0015860175328896,0.0015860240782058,-0.0015860231725877,0.0015860184702418,-0.0015860188185053,0.0015860227704209,-0.0015860244385208,0.0015860171438411,-0.0013311548306953,0.001331169664985,-0.0013311713281465,0.0013311531012101,-1.7843396288256e-09,2.1971424584227e-09,5.3260714058893e-09,-4.958185398402e-09,-0.0014982892353249,0.0014982896063942,-0.0015860195868328,0.0015860220417659,-0.0015860229334743,0.0015860186107784,-0.0015860183108549,0.0015860233586988,-0.0015860216583601,0.0015860199296442,-0.0013311563950009,0.0013311682040189,-0.0013311663752299,0.0013311579642275,-0.0014936530332182,0.0014936461032688,-0.0014936491414408,0.0014936500741017,-7.9523114717992e-09,9.0022181382976e-09,-0.00084276448107063,0.00084276551221481,-4.4519302946755e-09,5.7046346059077e-09,-0.00096775710570319,0.000967749043563,-0.00096775374408554,0.00096775241158726,-0.00096775144978034,0.00096775468945371,-0.00096774808718364,0.00096775806551678,-0.00095422815809284,0.00095424919243705,-0.00095424475560854,0.00095423260284585,0.69908659049956,125803,2834,0.0062221450983376,0.0062221451030175,0.0035092264691237,18.638411171543,-9.0892710627654e-05,-9.0892710627654e-05,-9.0892710627654e-05,3398454.7707254,0.016082230075161
20419200,0.98691006275187,0.016180786008122,0.0060882701631888,0.0060882701661468,0.0040042456787868,-0.00149875814915,0.0014987577656466,8.3346202374846e-09,-8.7169894932487e-09,1.7416503821881e-09,-2.1662528949316e-09,-0.001586458873935,0.0015864654761128,-0.00158646457328,0.0015864598083855,-0.0015864601562234,0.0015864641716136,-0.0015864658352854,0.0015864584860794,-0.0013316547327086,0.0013316697461999,-0.0013316714036002,0.0013316530085222,-1.7895644118003e-09,2.203223352237e-09,5.3506949269005e-09,-4.9819301196439e-09,-0.0014987577724351,0.0014987581443119,-0.0015864609499614,0.0015864634183648,-0.0015864643126688,0.0015864599708189,-0.0015864596706252,0.0015864647384567,-0.0015864630337344,0.001586461293791,-0.0013316563617173,0.0013316682219759,-0.0013316663883268,0.0013316579359312,-0.0014941368750006,0.0014941299176934,-0.0014941329722062,0.0014941339015733,-8.0535014343572e-09,9.1059580132039e-09,-0.00084289269229094,0.0008428937259582,-4.4814143982229e-09,5.7368130632428e-09,-0.00096807296992541,0.00096806482176901,-0.00096806958808801,0.00096806821000599,-0.00096806724596871,0.00096807053562535,-0.00096806386253649,0.00096807393262211,-0.00095439825810437,0.00095441951734382,-0.00095441505763409,0.00095440272642107,0.69998400276564,125803,2834,0.0062240809061322,0.0062240809101717,0.0035097698100288,18.602178983696,-9.1182568130428e-05,-9.1182568130428e-05,-9.1182568130428e-05,3389479.3174464,0.016086717278041
20619200,0.98722193490467,0.016185283383216,0.0060899851010526,0.0060899851040111,0.0040053131781523,-0.0014991860627321,0.0014991856790672,8.4318707938998e-09,-8.814375941336e-09,1.7428285905476e-09,-2.167622983194e-09,-0.0015868693057606,0.0015868759735046,-0.0015868750700503,0.0015868702409319,-0.0015868705888016,0.0015868746682921,-0.0015868763329643,0.0015868689176616,-0.0013320995766232,0.0013321147801573,-0.0013321164385426,0.0013320978513825,-1.7883411481702e-09,2.2017604514314e-09,5.38136259461e-09,-5.0128169183988e-09,-0.0014991856860578,0.0014991860577111,-0.0015868714041593,0.0015868738935872,-0.0015868747870863,0.0015868704255232,-0.0015868701255927,0.001586875212898,-0.0015868735091199,0.001586871747507,-0.0013321012711524,0.0013321131909239,-0.0013321113580914,0.0013321028438452,-0.0014945611365799,0.0014945541614314,-0.0014945572366644,0.0014945581422884,-8.1466311377466e-09,9.2014259490181e-09,-0.00084298663569307,0.00084298767174994,-4.5091148121469e-09,5.7672410056606e-09,-0.00096835695304391,0.00096834872489726,-0.00096835355175026,0.00096835213259143,-0.00096835116611928,0.00096835450172289,-0.00096834776341276,0.000968357917979,-0.00095452176911655,0.00095454323423585,-0.00095453875288881,0.00095452625922809,0.63099124196508,125803,2834,0.006225848553776,0.0062258485578549,0.0035101705471059,18.565824146986,-9.1473406824113e-05,-9.1473406824113e-05,-9.1473406824113e-05,3381638.1709941,0.016090718071695
20819200,0.98751123643428,0.01618977888481,0.0060916867144597,0.0060916867174188,0.0040064054529318,-0.0014979577551388,0.0014979573706929,8.5437579608825e-09,-8.9297369659594e-09,1.7570167515208e-09,-2.1778417244891e-09,-0.0015856756946745,0.0015856824421646,-0.0015856815328912,0.0015856766350045,-0.0015856769845676,0.0015856811304648,-0.0015856828035699,0.0015856753043046,-0.0013308430560866,0.001330858469956,-0.0013308601458714,0.0013308413168452,-1.7773124060907e-09,2.1890060376223e-09,5.466668015649e-09,-5.1003889680684e-09,-0.0014979573802171,0.0014979577501028,-0.0015856777997495,0.0015856803510759,-0.0015856812377228,0.0015856768250106,-0.0015856765274877,0.001585681663724,-0.0015856799678687,0.0015856781402834,-0.0013308447700469,0.0013308568507978,-0.0013308550256679,0.0013308463280676,-0.0014933264317559,0.0014933194222367,-0.0014933225478401,0.001493323367907,-8.2230280046641e-09,9.2812551235269e-09,-0.00084174880718417,0.00084174984792393,-4.5726462032238e-09,5.8375407572536e-09,-0.00096708454919764,0.00096707622753961,-0.00096708110201217,0.00096707967951467,-0.00096707870858246,0.00096708205691303,-0.00096707526258793,0.00096708551834089,-0.00095327033809498,0.00095329200058729,-0.00095328746655169,0.00095327486977638,0.67642717477122,125803,2834,0.0062207632377753,0.0062207632470746,0.0035050284698312,17.743259901561,-9.8053920787514e-05,-9.8053920787514e-05,-9.8053920787514e-05,3377162.5687424,0.016075158355685
21019200,0.98777834486309,0.016193795851215,0.0060932112454082,0.0060932112483411,0.0040073733574652,-0.0014965774748154,0.0014965770910651,8.624501121352e-09,-9.0076455205536e-09,1.7452489694302e-09,-2.1692547525799e-09,-0.0015842913402744,0.0015842981374046,-0.0015842972333083,0.0015842922769296,-0.0015842926247524,0.0015842968312151,-0.0015842984973791,0.0015842909520648,-0.0013294885578851,0.00132950413687,-0.0013295057988575,0.0013294868304567,-1.7867662376356e-09,2.1997849770949e-09,5.5330491005287e-09,-5.1650017871121e-09,-0.0014965770984846,0.0014965774697528,-0.0015842934526752,0.0015842960434337,-0.0015842969355638,0.001584292474241,-0.0015842921753528,0.0015842973619103,-0.0015842956586392,0.0015842937948504,-0.0013294902917108,0.0013295025076769,-0.001329500675068,0.0013294918607129,-0.0014919433065696,0.0014919362337412,-0.001491939408889,0.0014919402095626,-8.331473479771e-09,9.3975654147391e-09,-0.00084032133517148,0.0008403223829112,-4.6522241949998e-09,5.9241551297863e-09,-0.00096569616479805,0.00096568772091407,-0.00096569266349046,0.00096569122854951,-0.00096569025082508,0.00096569362481769,-0.00096568674828283,0.00096569714093408,-0.00095180190370313,0.00095182385247876,-0.00095181925930712,0.00095180650391731,0.6560166488855,125803,2834,0.0062150474100103,0.006215047414893,0.0034991019721349,16.832745998513,-0.0001053380320119,-0.0001053380320119,-0.0001053380320119,3362854.3121749,0.016057521391927
21219200,0.9880251307618,0.016197530715963,0.0060946270081738,0.0060946270111048,0.0040082766966846,-0.0014951312265052,0.0014951308425442,8.7239981150813e-09,-9.1070783306554e-09,1.7460775868812e-09,-2.1706954487441e-09,-0.0015828544278699,0.0015828612920285,-0.0015828603873828,0.0015828553652835,-0.0015828557130203,0.0015828599851245,-0.0015828616523992,0.0015828540393941,-0.0013280481523879,0.0013280639264934,-0.0013280655882684,0.0013280464245231,-1.7856563041315e-09,2.1984236167734e-09,5.6002980375719e-09,-5.2324362112316e-09,-0.0014951308501594,0.0014951312212014,-0.001582856551555,0.0015828591875684,-0.0015828600787149,0.001582855573461,-0.0015828552749052,0.0015828605052056,-0.0015828588028202,0.0015828568930046,-0.0013280499190033,0.0013280622666477,-0.0013280604341446,0.0013280514865998,-0.0014904936758112,0.0014904865607544,-0.0014904897814486,0.0014904905338948,-8.4213206023228e-09,9.4920268854766e-09,-0.00083889682466058,0.00083889787707769,-4.7130667461509e-09,5.9903093564966e-09,-0.0009642539326455,0.00096424538955973,-0.00096425038892388,0.00096424893966705,-0.00096424795715651,0.00096425135499207,-0.00096424441241425,0.00096425491318732,-0.00095033852729962,0.0009503607029471,-0.00095035606327306,0.00095034317503989,0.65967101896986,125803,2834,0.0062090595636739,0.0062090595684609,0.0034931847591382,15.91978121985,-0.0001126417502412,-0.0001126417502412,-0.0001126417502412,3352618.6858732,0.01603934085031
21419200,0.98825660870019,0.016201057731012,0.0060959624566628,0.0060959624595934,0.0040091328147558,-0.0014941065198683,0.0014941061361244,8.8149884496831e-09,-9.1970435053987e-09,1.7422373932553e-09,-2.1679797187078e-09,-0.0015818337550468,0.0015818406781938,-0.0015818397750687,0.0015818346907577,-0.001581835038347,0.0015818393731697,-0.0015818410377854,0.0015818333672863,-0.00132703075839,0.0013270467133206,-0.0013270483703405,0.0013270290341021,-1.7883922383741e-09,2.2016728795548e-09,5.6350003285325e-09,-5.2664646091359e-09,-0.0014941061429306,0.0014941065144619,-0.001581835898381,0.0015818385559363,-0.0015818394482662,0.0015818349184405,-0.0015818346199598,0.0015818398751689,-0.0015818381703567,0.0015818362403246,-0.0013270325822819,0.0013270449994135,-0.0013270431644519,0.0013270341528789,-0.0014894693327231,0.0014894621887324,-0.0014894654348517,0.0014894661713573,-8.5211230612649e-09,9.5947199980666e-09,-0.00083786204082029,0.00083786309591034,-4.7512734001844e-09,6.0312235542724e-09,-0.00096321861443636,0.00096320998022724,-0.00096321504451394,0.00096321355647571,-0.00096321257148027,0.00096321601291713,-0.00096320900026693,0.00096321959783027,-0.00094927896047179,0.00094930136439901,-0.0009492966964243,0.00094928363926108,0.6637345393834,125803,2834,0.0062048167370308,0.0062048167399283,0.0034888870972309,15.231076145712,-0.0001181513908343,-0.0001181513908343,-0.0001181513908343,3344382.9395824,0.016026352258491
21619200,0.98847420333835,0.016204402971244,0.0060972276170992,0.0060972276200364,0.0040099477341085,-0.0014931176922076,0.0014931173082945,8.9130039402007e-09,-9.2957640069669e-09,1.7454001562233e-09,-2.1704410644565e-09,-0.0015808467682393,0.0015808537584221,-0.0015808528542267,0.0015808477058362,-0.0015808480533106,0.00158085245193,-0.0015808541186363,0.0015808463801876,-0.0013260542281407,0.0013260703723365,-0.0013260720336244,0.0013260525010762,-1.7856912030654e-09,2.1984325411351e-09,5.6578214487516e-09,-5.2899313409677e-09,-0.0014931173157294,0.0014931176867531,-0.0015808489363056,0.0015808516105302,-0.0015808525017971,0.0015808479582121,-0.001580847659956,0.0015808529283829,-0.0015808512254954,0.0015808492776209,-0.0013260561246401,0.0013260685843403,-0.0013260667520157,0.0013260576920391,-0.001488480371049,0.0014884732173666,-0.0014884764774201,0.0014884771927505,-8.6136992082055e-09,9.6888681324352e-09,-0.00083686512772114,0.00083686618447433,-4.7703471202067e-09,6.0525876284574e-09,-0.00096222899015605,0.00096222028169638,-0.0009622254068,0.00096222387163128,-0.00096222288511688,0.00096222637683406,-0.0009622193003511,0.00096222997485482,-0.00094825449500823,0.00094827709633457,-0.00094827241309017,0.0009482591881481,0.66920855335038,125803,2834,0.0062007223525557,0.0062007223566566,0.0034847469470503,14.566709367027,-0.00012346632506378,-0.00012346632506378,-0.00012346632506378,3335868.5066602,0.01601382563437
21819200,0.98867887463718,0.016207503394383,0.0060984013737385,0.0060984013766776,0.0040107006439674,-0.0014921162717507,0.0014921158879375,9.00849845585e-09,-9.3912892323839e-09,1.7448285755671e-09,-2.1695521364362e-09,-0.00157984382561,0.0015798508788945,-0.0015798499748393,0.0015798447625176,-0.0015798451101535,0.0015798495727113,-0.0015798512389609,0.0015798434375213,-0.0013250704728717,0.0013250868051175,-0.0013250884655689,0.0013250687461037,-1.786249622359e-09,2.1991019641599e-09,5.6694900511785e-09,-5.3015152337384e-09,-0.0014921158952994,0.0014921162664085,-0.0015798460215399,0.0015798487031478,-0.0015798495941841,0.001579845042601,-0.0015798447445304,0.0015798500210257,-0.0015798483178653,0.0015798463627814,-0.0013250724511185,0.0013250849345625,-0.0013250831009666,0.00132507401864,-0.0014874769081147,0.0014874697455525,-0.0014874730127878,0.0014874737208281,-8.7099033373025e-09,9.7850861813927e-09,-0.00083585894858049,0.00083586000553705,-4.7821276260593e-09,6.0646727441303e-09,-0.00096123814872547,0.00096122936839292,-0.00096123455731553,0.00096123296614836,-0.00096123197935767,0.0009612355276404,-0.00096122838680329,0.00096123913378031,-0.00094721582486404,0.00094723862221076,-0.00094723393034846,0.00094722052518319,0.65988854844036,125803,2834,0.0061965757042968,0.0061965757084799,0.0034805685519648,13.903023099095,-0.00012877581520724,-0.00012877581520724,-0.00012877581520724,3326561.5933704,0.016001154230706
22019200,0.9888832103277,0.016210549129186,0.0060995555724873,0.0060995555754272,0.0040114379812719,-0.0014928831860148,0.0014928827990699,9.1296614485802e-09,-9.5137442592904e-09,1.7620395726653e-09,-2.1929642260364e-09,-0.0015806115796374,0.001580618723379,-0.0015806178094887,0.0015806125275144,-0.0015806128763234,0.0015806174057551,-0.0015806190872967,0.0015806111875396,-0.0013258213147896,0.0013258378769748,-0.0013258395488457,0.0013258195730692,-1.7664682663129e-09,2.175988118427e-09,5.6283793637478e-09,-5.2630608664599e-09,-0.0014928828089093,0.0014928831770256,-0.001580613830237,0.0015806164949624,-0.0015806173767113,0.0015806128634883,-0.0015806125665913,0.0015806178011417,-0.0015806161144406,0.0015806141675715,-0.0013258234580411,0.0013258358503793,-0.001325834034564,0.0013258250088727,-0.0014882511426711,0.0014882440489826,-0.0014882472985999,0.0014882479829269,-8.7819841937067e-09,9.8530506785064e-09,-0.0008364579119932,0.0008364589638613,-4.717351296599e-09,5.9933679886705e-09,-0.00096189596440299,0.00096188717594786,-0.0009618924167885,0.00096189072977584,-0.0009618897467293,0.00096189338323293,-0.00096188620067023,0.0009618969428513,-0.00094785982821485,0.0009478827085688,-0.00094787807048069,0.00094786448401526,0.64982378755226,125803,2834,0.0061997497810295,0.0061997497827813,0.0034830598573006,14.153209488745,-0.00012677432409004,-0.00012677432409004,-0.00012677432409004,3329980.3713844,0.016010135362856
22219200,0.989088406198,0.016213583194169,0.0061007062147688,0.0061007062177212,0.0040121707616795,-0.0014938327011371,0.0014938323168176,9.2054028021456e-09,-9.5881006692826e-09,1.7467779043105e-09,-2.1729491668945e-09,-0.0015815776956425,0.0015815848811326,-0.0015815839754489,0.0015815786338563,-0.0015815789817581,0.0015815835733752,-0.0015815852416003,0.0015815773068195,-0.0013267386996746,0.001326755417422,-0.0013267570784507,0.0013267369714104,-1.782403472268e-09,2.1945520814741e-09,5.5546302563297e-09,-5.1871865594377e-09,-0.0014938323245334,0.0014938326949926,-0.001581579994858,0.0015815826022558,-0.0015815834919015,0.0015815790187804,-0.0015815787205557,0.0015815839176889,-0.0015815822184776,0.0015815803357798,-0.0013267409849584,0.0013267532411768,-0.0013267514125078,0.0013267425508075,-0.001489201413009,0.0014891943352536,-0.0014891975289637,0.0014891983035182,-8.9016490011371e-09,9.9673522795239e-09,-0.00083723023957077,0.00083723128663096,-4.668168634682e-09,5.9391006911196e-09,-0.0009627241176768,0.00096271528238107,-0.00096272060572052,0.00096271880063282,-0.00096271782318592,0.00096272156662638,-0.00096271431067652,0.00096272509283383,-0.0009486814419932,0.0009487045154095,-0.00094869991372503,0.00094868605441804,0.6449743521672,125803,2834,0.0062036800211481,0.0062036800243995,0.003486270882052,14.499489413471,-0.00012400408469223,-0.00012400408469223,-0.00012400408469223,3336687.800375,0.016021384500761
22419200,0.98929440243586,0.016216762184834,0.0061019072749441,0.0061019072779005,0.0040129476319894,-0.0014947903376588,0.0014947899534753,9.300362793536e-09,-9.6832767441306e-09,1.7469270665184e-09,-2.1724086018202e-09,-0.0015825550000797,0.0015825622490277,-0.0015825613431782,0.0015825559379183,-0.001582556285959,0.001582560941299,-0.0015825626093053,0.0015825546112295,-0.001327660462193,0.0013276773658002,-0.0013276790275101,0.0013276587334226,-1.782463201208e-09,2.1946188294014e-09,5.4924517615977e-09,-5.1250720243838e-09,-0.0014947899612256,0.0014947903316716,-0.0015825573511712,0.0015825599174424,-0.0015825608071493,0.0015825563750205,-0.0015825560766434,0.0015825612327368,-0.0015825595338734,0.001582557692362,-0.0013276629001251,0.0013276750343893,-0.0013276732061141,0.0013276644660876,-0.0014901641513473,0.0014901571146066,-0.0014901602657701,0.0014901610816679,-9.0010016699473e-09,1.0061576468892e-08,-0.00083801433733506,0.00083801537931194,-4.609400961551e-09,5.8746289838e-09,-0.00096355470029049,0.00096354583665798,-0.00096355122940843,0.00096354931372217,-0.0009635483412875,0.00096355218534724,-0.0009635448699107,0.0009635556705783,-0.00094952112104011,0.00094954433747563,-0.00094953978135445,0.00094952568640061,0.67139353904217,125803,2834,0.0062076439762825,0.0062076439799331,0.0034895305870108,14.848466122906,-0.00012121227101676,-0.00012121227101676,-0.00012121227101676,3343770.1359595,0.016032751634727
22619200,0.98950095786674,0.016219986617306,0.006103124637263,0.0061031246402211,0.0040137373398217,-0.0014957697108218,0.0014957693269843,9.3935242859869e-09,-9.7762295757795e-09,1.7452658852076e-09,-2.1701393940841e-09,-0.0015835339223842,0.0015835412326438,-0.001583540327819,0.0015835348593246,-0.0015835352071141,0.0015835399260179,-0.0015835415925851,0.0015835335339604,-0.0013286313914667,0.0013286484782357,-0.001328650138764,0.001328629664209,-1.7844101723176e-09,2.1967963412479e-09,5.4357671917645e-09,-5.0682062000902e-09,-0.0014957693345908,0.0014957697052663,-0.0015835363229944,0.0015835388507334,-0.00158353974203,0.001583535346333,-0.0015835350473922,0.0015835401673364,-0.0015835384671683,0.0015835366649051,-0.0013286339757449,0.0013286459997531,-0.0013286441704569,0.0013286355437487,-0.0014911518245512,0.0014911448213539,-0.0014911479338852,0.0014911487924191,-9.1018462113601e-09,1.0158447101591e-08,-0.00083876198069328,0.00083876301863832,-4.5579653177956e-09,5.8186198040947e-09,-0.0009644089253573,0.00096440002799876,-0.0009644054904893,0.0009644034691627,-0.00096440250076692,0.00096440644241945,-0.00096439906500238,0.00096440989182826,-0.00095031987366938,0.00095034324416328,-0.00095033872781788,0.00095032439897262,0.67880267658094,125803,2834,0.0062116967246012,0.0062116967288477,0.0034926420095099,15.186652380512,-0.0001185067809559,-0.0001185067809559,-0.0001185067809559,3345371.6600411,0.016044149265303
22819200,0.98970507413333,0.016223163395418,0.0061043246465531,0.0061043246495111,0.0040145140993537,-0.0014963219601936,0.0014963215768612,9.4860925680895e-09,-9.8686603677881e-09,1.7430768219055e-09,-2.1668526551976e-09,-0.00158408255627,0.0015840899269999,-0.0015840890235714,0.0015840834918068,-0.0015840838393225,0.001584088622039,-0.0015840902863744,0.001584082168471,-0.0013291850139027,0.0013292022827806,-0.0013292039423091,0.0013291832884826,-1.7875013652368e-09,2.200380417322e-09,5.4021188507981e-09,-5.0341767123938e-09,-0.0014963215841137,0.0014963219552449,-0.0015840849987279,0.0015840875024696,-0.001584088395727,0.0015840840205391,-0.0015840837211003,0.0015840888211846,-0.0015840871184459,0.0015840853414777,-0.001329187720486,0.0013291996800439,-0.0013291978485246,0.0013291892912506,-0.0014917091414621,0.0014917021541762,-0.0014917052425763,0.0014917061316644,-9.2023073355418e-09,1.0256741108041e-08,-0.00083910897219618,0.00083911000801065,-4.5288682493988e-09,5.7872221932242e-09,-0.00096486248367134,0.00096485353833292,-0.0009648590691761,0.00096485695917318,-0.00096485599308493,0.00096486001884757,-0.00096485257727492,0.00096486344824075,-0.00095070042089023,0.00095072396398492,-0.00095071946946794,0.00095070492307433,0.67691802819811,125803,2834,0.006213980980275,0.0062139809850467,0.0034940893358291,15.30338248985,-0.0001175729400812,-0.0001175729400812,-0.0001175729400812,3343160.6633446,0.01605026247228
23019200,0.98990667716542,0.016226082317949,0.006105434583109,0.0061054345860649,0.0040152131487752,-0.0014968433159422,0.0014968429317983,9.5872534981042e-09,-9.9704265811355e-09,1.7477935619888e-09,-2.1727396372955e-09,-0.0015846041081121,0.0015846115490013,-0.001584610642937,0.0015846050466308,-0.0015846053944332,0.0015846102407503,-0.0015846119095755,0.0015846037191294,-0.0013296995135472,0.0013297169782451,-0.0013297186408636,0.0013296977841412,-1.7831123551415e-09,2.1951602164363e-09,5.3800351903329e-09,-5.0128292697733e-09,-0.0014968429398715,0.0014968433102447,-0.001584606591658,0.0015846090832148,-0.0015846099744493,0.0015846056165161,-0.0015846053171242,0.0015846103991286,-0.0015846087004888,0.0015846069334384,-0.0013297023413625,0.0013297142555012,-0.0013297124275457,0.0013297039083923,-0.0014922294395374,0.0014922224761757,-0.0014922255508216,0.0014922264424905,-9.2936935038252e-09,1.0346147558588e-08,-0.00083943128839682,0.00083943232220394,-4.5028802188502e-09,5.7587906910261e-09,-0.00096528474124995,0.0009652757516754,-0.00096528134464325,0.00096527915486183,-0.00096527819020983,0.0009652822928718,-0.00096527479266835,0.00096528570354503,-0.00095105393954905,0.00095107763868572,-0.00095107316481631,0.00095105842209206,0.63260002901083,125803,2834,0.0062161374337359,0.0062161374386555,0.0034954338204346,15.414621414225,-0.0001166830286862,-0.0001166830286862,-0.0001166830286862,3341581.5205203,0.016056011485211
23219200,0.99010576471576,0.01622909425108,0.0061065749560978,0.0061065749590522,0.0040159443359296,-0.0014973013690768,0.0014973009851434,9.6809025285436e-09,-1.0063716363432e-08,1.7460173996023e-09,-2.1709714716059e-09,-0.0015850943106164,0.0015851018128988,-0.001585100907489,0.0015850952478888,-0.0015850955958061,0.0015851005056815,-0.0015851021728745,0.0015850939219951,-0.0013301061156301,0.0013301237650045,-0.0013301254260752,0.0013301043877744,-1.7851427181742e-09,2.1975952732342e-09,5.3611972248068e-09,-4.9935848833857e-09,-0.0014973009927799,0.0014973013635197,-0.0015850968318754,0.0015850993097307,-0.0015851002018899,0.0015850958552382,-0.0015850955557751,0.0015851006268554,-0.0015850989265262,0.0015850971742328,-0.0013301090536077,0.0013301209319789,-0.0013301191028457,0.0013301106230338,-0.0014926888678437,0.0014926819129211,-0.0014926849756119,0.0014926858853162,-9.3927670640519e-09,1.0443900620505e-08,-0.00083978368522597,0.00083978471758349,-4.4868249474895e-09,5.7409672377795e-09,-0.00096563335960744,0.00096562431423121,-0.00096562997428702,0.00096562770589681,-0.00096562674284109,0.00096563092086474,-0.0009656233566189,0.00096563432066407,-0.00095145202045149,0.00095147589980513,-0.00095147143849682,0.00095145649067712,0.65900009900258,125803,2834,0.0062180337336591,0.0062180337379645,0.0034968982524092,15.525647699516,-0.00011579481840387,-0.00011579481840387,-0.00011579481840387,3348113.1747754,0.016061352674704
23419200,0.99030318386765,0.016232049187285,0.0061076949014301,0.006107694904385,0.0040166593814697,-0.0014979288129413,0.0014979284293373,9.7737254318676e-09,-1.0156013579168e-08,1.743507385105e-09,-2.1684636587473e-09,-0.001585733639511,0.0015857412024481,-0.0015857402981913,0.0015857345754944,-0.0015857349232081,0.0015857398966418,-0.0015857415618952,0.0015857332514134,-0.0013307097214947,0.0013307275543336,-0.001330729212601,0.0013307079959315,-1.7877842477714e-09,2.2006745528627e-09,5.3487510784442e-09,-4.9806763924463e-09,-0.0014979284365003,0.0014979288076524,-0.0015857361961057,0.0015857386642651,-0.0015857395578745,0.0015857352180186,-0.0015857349182545,0.0015857399830156,-0.0015857382806159,0.0015857365390833,-0.0013307127629142,0.001330724618463,-0.0013307227870254,0.0013307143349782,-0.0014933205097417,0.001493313557482,-0.001493316611922,0.0014933175362434,-9.4923905792046e-09,1.054292945833e-08,-0.00084023868887126,0.00084023972057018,-4.4780941483988e-09,5.7313304693021e-09,-0.00096614928958902,0.00096614018364089,-0.00096614591052989,0.00096614356906067,-0.00096614260672068,0.00096614685636983,-0.00096613922648114,0.00096615025021561,-0.00095194871718802,0.00095197278466039,-0.00095196833027861,0.00095195318099139,0.65256368330298,125803,2834,0.0062206301723854,0.0062206301762654,0.0034987920068731,15.704245402541,-0.00011436603677967,-0.00011436603677967,-0.00011436603677967,3349954.0897493,0.016068553591178
23619200,0.99050310550938,0.016235110868049,0.0061088528937841,0.0061088528967409,0.0040174050775242,-0.00149921090357,0.0014992105192275,9.8747707605316e-09,-1.0257227385568e-08,1.7471242838465e-09,-2.1737344410226e-09,-0.001587029890462,0.0015870375229404,-0.0015870366163344,0.0015870308286387,-0.0015870311767983,0.0015870362144655,-0.0015870378831087,0.0015870295014569,-0.0013319526380052,0.0013319706673989,-0.0013319723276857,0.0013319509094797,-1.7837154738931e-09,2.1959535852823e-09,5.3324882877283e-09,-4.9649048827808e-09,-0.0014992105268583,0.0014992108974098,-0.0015870324864838,0.0015870349460524,-0.0015870358375626,0.0015870315106942,-0.001587031211248,0.0015870362621832,-0.0015870345633381,0.0015870328286937,-0.0013319557958545,0.0013319676174111,-0.0013319657898555,0.0013319573649743,-0.0014946125345281,0.0014946056017811,-0.0014946086481603,0.0014946095729391,-9.5838931385992e-09,1.0632983536093e-08,-0.0008412878232667,0.00084128885329493,-4.4573000011549e-09,5.7083259740975e-09,-0.00096727039699952,0.00096726124319353,-0.00096726703219993,0.00096726461421687,-0.00096726365320249,0.0009672679766231,-0.000967260287845,0.00096727135575473,-0.00095307272830905,0.00095309695673967,-0.00095309251922733,0.00095307717756778,0.66669033964995,125803,2834,0.0062259367529026,0.0062259367559446,0.0035031543657965,16.218485717142,-0.00011025211426286,-0.00011025211426286,-0.00011025211426286,3356816.8925463,0.016083770316108
23819200,0.99070550254669,0.016238379080175,0.0061100837741991,0.0061100837771612,0.004018211528815,-0.0015005454529619,0.0015005450691662,9.9672018794714e-09,-1.0349777740218e-08,1.7453702364903e-09,-2.1703311332266e-09,-0.0015883686411305,0.0015883763339818,-0.0015883754287465,0.0015883695780595,-0.0015883699259281,0.0015883750270696,-0.0015883766937053,0.0015883682527024,-0.0013332638109468,0.0013332820216784,-0.0013332836818486,0.0013332620838008,-1.7862010901946e-09,2.198800787847e-09,5.3244824871325e-09,-4.9567102698908e-09,-0.0015005450766303,0.0015005454475034,-0.0015883712701137,0.0015883737230171,-0.0015883746159772,0.001588370293037,-0.001588369993309,0.0015883750407921,-0.0015883733398367,0.0015883716128732,-0.001333267065266,0.0013332788722142,-0.0013332770426329,0.0013332686361263,-0.0014959612841479,0.001495954351446,-0.0014959573898053,0.0014959583265399,-9.6835018462963e-09,1.0732356492435e-08,-0.00084234858576244,0.00084234961575586,-4.4526465415263e-09,5.7039099512503e-09,-0.00096844004997378,0.00096843083300529,-0.00096843668843201,0.00096843420088669,-0.00096843324014824,0.00096843763269276,-0.00096842987758627,0.0009684410088577,-0.00095421022320087,0.00095423464350466,-0.00095423020828904,0.00095421466763606,0.70079154435572,125803,2834,0.0062314597332905,0.0062314597374429,0.0035075670553505,16.74106631403,-0.00010607146948776,-0.00010607146948776,-0.00010607146948776,3360933.2260428,0.016099478528311
24019200,0.99091023512617,0.01624172386388,0.006111342951802,0.0061113429547648,0.004019037957313,-0.0015019338962504,0.0015019335124682,1.006287474826e-08,-1.0445480233043e-08,1.7453365265201e-09,-2.1702450762673e-09,-0.0015897365420624,0.001589744298717,-0.001589743393518,0.0015897374789617,-0.0015897378268149,0.0015897429918513,-0.0015897446584357,0.0015897361536489,-0.0013346614885257,0.0013346798867615,-0.0013346815469946,0.0013346597613551,-1.7862545479732e-09,2.1988633993227e-09,5.3259531587505e-09,-4.9581789700433e-09,-0.001501933519918,0.0015019338908003,-0.0015897392024584,0.0015897416563268,-0.001589742549313,0.0015897382253361,-0.001589737925606,0.0015897429741479,-0.0015897412731275,0.0015897395452147,-0.0013346648350615,0.0013346766449383,-0.0013346748152674,0.001334666405883,-0.001497366701777,0.0014973597679708,-0.0014973628071902,0.0014973637430332,-9.7794968307051e-09,1.0828825040975e-08,-0.00084338341188542,0.00084338444236779,-4.4540128166441e-09,5.7058047649983e-09,-0.0009696616788929,0.00096965239717434,-0.00096965831626799,0.00096965576613493,-0.00096965480490582,0.00096965926102151,-0.00096965144125921,0.00096966263827122,-0.00095531902722448,0.00095534363738581,-0.00095533920053192,0.0009553234731422,0.70866200144831,125803,2834,0.0062372042250248,0.0062372042291652,0.0035118761433914,17.263970008284,-0.00010188823993373,-0.00010188823993373,-0.00010188823993373,3358940.2582139,0.01611553258519
24219200,0.99111592560106,0.016244940364415,0.0061125589306489,0.0061125589336123,0.004019822500154,-0.0015031381301766,0.0015031377469062,1.0157375408095e-08,-1.0539859329591e-08,1.7433050776971e-09,-2.1670170289408e-09,-0.0015909195081171,0.001590927326313,-0.0015909264224867,0.0015909204436003,-0.0015909207912011,0.0015909260211127,-0.0015909276855834,0.0015909191202123,-0.0013358769678795,0.0013358955523236,-0.0013358972112815,0.0013358752424183,-1.7886247772702e-09,2.2016186839464e-09,5.3409969789497e-09,-4.972955832385e-09,-0.0015031377541333,0.0015031381253686,-0.0015909221946812,0.0015909246571417,-0.0015909255512807,0.0015909212160213,-0.0015909209161594,0.0015909259765378,-0.0015909242733714,0.0015909225378327,-0.0013358803914337,0.0013358922322093,-0.0013358904000053,0.0013358819637338,-0.0014985812809994,0.0014985743321362,-0.0014985773794537,0.0014985783108958,-9.8762721142756e-09,1.0927018039158e-08,-0.00084422953068966,0.00084423056276992,-4.4694292491588e-09,5.7232110860964e-09,-0.00097070654540958,0.00097069718939366,-0.00097070317194109,0.00097070056915109,-0.00097069960649626,0.00097070411818081,-0.00097069623182475,0.00097070750650767,-0.00095623157893998,0.00095625639241517,-0.00095625194255307,0.00095623603610178,0.68010062894138,125803,2834,0.0062421857145053,0.006242185719515,0.0035154021209131,17.691921130367,-9.8464630957066e-05,-9.8464630957066e-05,-9.8464630957066e-05,3355309.4948955,0.016129240639743
24419200,0.99131942563642,0.016248119352212,0.0061137609713749,0.006113760974336,0.0040205974065014,-0.0015038340100603,0.0015038336269489,1.0251524264677e-08,-1.0634037789386e-08,1.7427304871916e-09,-2.1660098546505e-09,-0.0015916180082184,0.0015916258889198,-0.0015916249855667,0.0015916189433922,-0.0015916192908348,0.0015916245842286,-0.0015916262480691,0.0015916176205676,-0.0013365572867396,0.0013365760556922,-0.0013365777148817,0.0013365555617374,-1.7893269399373e-09,2.2024226796223e-09,5.3758510715176e-09,-5.0077547379677e-09,-0.0015038336340826,0.0015038340054078,-0.0015916207146726,0.0015916231998984,-0.0015916240942754,0.0015916197354445,-0.0015916194356866,0.0015916245197584,-0.0015916228157962,0.0015916210577951,-0.0013365607680039,0.0013365726773225,-0.0013365708444479,0.0013365623404479,-0.0014992827976361,0.0014992758241557,-0.0014992788941322,0.0014992798046305,-9.9725087631215e-09,1.1026242886231e-08,-0.00084467441270788,0.00084467544787442,-4.5040979317308e-09,5.7615068396783e-09,-0.00097126452762882,0.00097125508522762,-0.0009712611299418,0.00097125848923202,-0.0009712575236634,0.00097126207910285,-0.0009712541246226,0.00097126549175494,-0.00095673270725403,0.00095675773939865,-0.00095675326200404,0.00095673719140018,0.67934589195248,125803,2834,0.0062450641167139,0.006245064121853,0.0035172572697605,17.884615597477,-9.6923075220181e-05,-9.6923075220181e-05,-9.6923075220181e-05,3354682.7948768,0.016136976153934
24619200,0.99152062336752,0.016251410771407,0.0061150006740867,0.006115000677045,0.0040214094202758,-0.0015045169139055,0.0015045165302733,1.0350046894113e-08,-1.0732632894726e-08,1.7450048145949e-09,-2.169558047785e-09,-0.0015923013011155,0.0015923092489859,-0.0015923083441802,0.001592302237895,-0.0015923025855684,0.001592307942534,-0.0015923096086819,0.0015923009129163,-0.001337227040064,0.0013372460011883,-0.0013372476614153,0.0013372253132197,-1.7864277673874e-09,2.1990461655718e-09,5.4151632531077e-09,-5.047407117578e-09,-0.0015045165377023,0.0015045169085949,-0.0015923040277783,0.0015923065407006,-0.0015923074333339,0.0015923030500401,-0.0015923027507634,0.0015923078586429,-0.0015923061570161,0.0015923043701071,-0.0013372305807964,0.0013372425656587,-0.0013372407349288,0.0013372321506615,-0.001499977871761,0.0014999708781273,-0.0014999739762954,0.0014999748531228,-1.0064327447629e-08,1.1121057934637e-08,-0.00084511605644028,0.00084511709451573,-4.5390427408655e-09,5.7995763160909e-09,-0.00097180577715192,0.00097179625088626,-0.0009718023549715,0.00097179967937331,-0.00097179871075912,0.00097180330711831,-0.00097179528755418,0.0009718067439491,-0.00095723311303283,0.00095725835474487,-0.00095725385071732,0.00095723762560316,0.70944457855472,125803,2834,0.0062478890192218,0.0062478890236083,0.0035190983853795,18.071447808577,-9.5428417531381e-05,-9.5428417531381e-05,-9.5428417531381e-05,3354175.2333587,0.016144588536908
24819200,0.99171948256681,0.016254428135546,0.0061161450200551,0.0061161450230138,0.0040221380924768,-0.0015052251446798,0.0015052247611235,1.0445231664166e-08,-1.0827704777522e-08,1.7443266030785e-09,-2.1688359694911e-09,-0.0015929925848555,0.0015930005957367,-0.0015929996913475,0.0015929935213115,-0.0015929938689161,0.0015929992897327,-0.0015930009553435,0.0015929921968031,-0.0013379464683397,0.0013379656163676,-0.001337967275935,0.0013379447421407,-1.7868330181249e-09,2.1995207508773e-09,5.4521832265707e-09,-5.0843530564233e-09,-0.0015052247684694,0.0015052251394282,-0.0015929953310221,0.0015929978682426,-0.0015929987609035,0.0015929943528662,-0.0015929940537421,0.0015929991864239,-0.001592997484264,0.0015929956732523,-0.0013379500663605,0.0013379621240455,-0.0013379602925756,0.0013379516363367,-0.0015006917110865,0.0015006846919782,-0.0015006878147923,0.0015006886680868,-1.0159626023969e-08,1.1219332393361e-08,-0.0008455248079671,0.00084552584906581,-4.5748397708257e-09,5.8388349858629e-09,-0.00097237927932471,0.00097236966646567,-0.00097237583217177,0.00097237311994313,-0.00097237214840987,0.00097237678722565,-0.0009723687001595,0.00097238024909686,-0.00095768683529175,0.00095771229452498,-0.00095770776254366,0.00095769137589118,0.66112226929934,125803,2834,0.006250817572658,0.0062508175769945,0.0035208058943011,18.258052804368,-9.3935577565056e-05,-9.3935577565056e-05,-9.3935577565056e-05,3348838.1786629,0.016152276599745
25019200,0.9919182356247,0.016257408160276,0.0061172761946383,0.0061172761975975,0.00402285576804,-0.001506222048832,0.001506221665615,1.0537620383225e-08,-1.0919085576254e-08,1.7402361495096e-09,-2.1656173232303e-09,-0.0015940084205764,0.001594016491533,-0.0015940155890342,0.0015940093558222,-0.0015940097026353,0.0015940151876234,-0.001594016850706,0.0015940080332366,-0.0013388969208536,0.0013389162528091,-0.0013389179071994,0.0013388951987112,-1.7898375018694e-09,2.2029592610977e-09,5.4734477816235e-09,-5.1050346063183e-09,-0.0015062216722275,0.0015062220436352,-0.0015940111911635,0.0015940137410219,-0.0015940146355169,0.0015940102120092,-0.0015940099123065,0.0015940150611577,-0.0015940133566403,0.0015940115338398,-0.0013389005904339,0.0013389126918231,-0.0013389108575053,0.0013389021637633,-0.0015016922195865,0.00150168518038,-0.0015016883186831,0.00150168916514,-1.0258476630699e-08,1.1320523780534e-08,-0.00084628253673846,0.0008462835799384,-4.5990509835189e-09,5.865112323543e-09,-0.00097320765424855,0.00097319796030059,-0.00097320419069875,0.00097320143087457,-0.00097320045719814,0.00097320514782688,-0.00097319699170773,0.00097320862608642,-0.00095851842631065,0.00095854410109289,-0.00095853955126567,0.00095852298778008,0.65362536842953,125803,2834,0.0062549430590959,0.0062549430620267,0.0035239582754625,18.629364191586,-9.0965086467313e-05,-9.0965086467313e-05,-9.0965086467313e-05,3354772.6707368,0.016163864493662
25219200,0.992120083505,0.016260537793078,0.0061184605080707,0.0061184605110354,0.0040236167739715,-0.0015077463512791,0.0015077459674218,1.0638745883734e-08,-1.1020808908676e-08,1.7447099757784e-09,-2.1707067751628e-09,-0.0015955563435135,0.0015955644840223,-0.0015955635790052,0.0015955572806751,-0.0015955576283039,0.0015955631773232,-0.0015955648437881,0.0015955559552867,-0.0013403630204493,0.0013403825481181,-0.0013403842064572,0.0013403612942646,-1.7850607519723e-09,2.1974588951356e-09,5.4795888129358e-09,-5.1118780896627e-09,-0.0015077459747504,0.0015077463454482,-0.0015955591455906,0.0015955617020127,-0.0015955625936184,0.001595558168334,-0.0015955578695473,0.0015955630189683,-0.0015955613183008,0.0015955594873375,-0.0013403667834744,0.0013403788940055,-0.0013403770639218,0.0013403683523196,-0.0015032261530586,0.001503219119349,-0.0015032222630993,0.0015032230934595,-1.0349134861326e-08,1.1410870593707e-08,-0.00084752766831272,0.00084752871124753,-4.5995480353012e-09,5.8653199682759e-09,-0.00097452442801141,0.00097451467275926,-0.00097452096370243,0.0009745181434058,-0.00097451716990235,0.00097452192063156,-0.00097451370468298,0.00097452539950987,-0.00095986072866694,0.00095988657975158,-0.00095988202965484,0.00095986529006817,0.67454672948379,125803,2834,0.0062612520027421,0.0062612520058407,0.0035291352173764,19.269976228275,-8.5840190173798e-05,-8.5840190173798e-05,-8.5840190173798e-05,3364966.5556621,0.016181947410752
25419200,0.99232491085458,0.016263980394459,0.0061197548377567,0.0061197548407263,0.004024470715976,-0.0015093348508064,0.0015093344671527,1.0733753668899e-08,-1.1116080000386e-08,1.7444032147968e-09,-2.1694858664607e-09,-0.0015971514800581,0.0015971596834627,-0.0015971587788886,0.0015971524168823,-0.0015971527643638,0.0015971583772507,-0.0015971600431487,0.0015971510920119,-0.0013419186126892,0.0013419383262393,-0.0013419399852398,0.0013419168865751,-1.7856484850174e-09,2.1981156836248e-09,5.4803538924159e-09,-5.1126804162956e-09,-0.0015093344744715,0.0015093348452158,-0.0015971543132452,0.0015971568697824,-0.0015971577617358,0.0015971533356757,-0.0015971530368226,0.001597158187138,-0.0015971564859655,0.0015971546550751,-0.001341922466747,0.0013419345789604,-0.0013419327483306,0.0013419240357272,-0.0015048329232406,0.0015048258877869,-0.0015048290303619,0.0015048298619419,-1.044598568666e-08,1.1507764862771e-08,-0.00084878575634377,0.00084878679945721,-4.6010798936051e-09,5.867256590096e-09,-0.00097590300188936,0.00097589318105505,-0.00097589953648952,0.00097589665286276,-0.00097589567928748,0.00097590049357558,-0.00097589221281392,0.00097590397358353,-0.00096121781994575,0.00096124386190189,-0.00096123930995382,0.00096122238144673,0.72789189266679,125803,2834,0.0062678256842223,0.0062678256878007,0.0035343686604172,19.917325102298,-8.0661399181616e-05,-8.0661399181616e-05,-8.0661399181616e-05,3370895.5935338,0.016200626572487
25619200,0.99253250244436,0.016267491407829,0.0061210751848477,0.0061210751878194,0.004025341035162,-0.0015110028920879,0.0015110025086133,1.0828650924089e-08,-1.1210937462674e-08,1.7439174418722e-09,-2.1685300933648e-09,-0.0015987878389175,0.0015987961052117,-0.0015987952010014,0.0015987887753512,-0.0015987891227739,0.0015987947994546,-0.0015987964647585,0.0015987874510196,-0.0013436050853623,0.0013436249851224,-0.0013436266440296,0.0013436033597312,-1.7862700710872e-09,2.1988223316749e-09,5.4796991565928e-09,-5.1119736980912e-09,-0.0015110025159268,0.0015110028867574,-0.0015987907037266,0.0015987932595025,-0.0015987941517724,0.0015987897257775,-0.0015987894268819,0.0015987945772679,-0.001598792875543,0.0015987910456867,-0.001343609032767,0.0013436211440595,-0.001343619312901,0.001343610602125,-0.0015065220685675,0.0015065150322736,-0.0015065181738718,0.0015065190074197,-1.054307824376e-08,1.1604848510109e-08,-0.00085000368392887,0.00085000472710483,-4.6011377806878e-09,5.8674874422504e-09,-0.00097736220510026,0.00097735231955012,-0.00097735873964648,0.00097735579138912,-0.00097735481780366,0.00097735969675294,-0.00097735135121627,0.00097736317689235,-0.00096252809306072,0.0009625543250648,-0.0009625497728888,0.00096253265429793,0.73243473057779,125803,2834,0.0062747261933875,0.0062747261974934,0.0035394416172046,20.564925591541,-7.5480595267671e-05,-7.5480595267671e-05,-7.5480595267671e-05,3367413.6705103,0.0162198083781
25819200,0.99273748005201,0.016270864880357,0.0061223473807764,0.0061223473837487,0.0040261701158317,-0.0015118657363829,0.0015118653526266,1.0923006812581e-08,-1.1306352027765e-08,1.747423657995e-09,-2.1711309787919e-09,-0.0015996223207108,0.0015996306516206,-0.0015996297459428,0.0015996232587282,-0.0015996236064891,0.0015996293439373,-0.0015996310117485,0.001599621932319,-0.0013444920584939,0.0013445121402665,-0.0013445138038767,0.0013444903293886,-1.7835629155537e-09,2.1956010696671e-09,5.4999496077144e-09,-5.1328735402588e-09,-0.0015118653606255,0.0015118657309605,-0.0015996252097966,0.0015996277806048,-0.0015996286712106,0.0015996242331888,-0.0015996239347854,0.0015996290964685,-0.0015996273969913,0.0015996255510943,-0.0013444960765953,0.0013445082255852,-0.0013445063964777,0.0013444976424609,-0.0015073959301403,0.0015073888855552,-0.0015073920386472,0.0015073928521824,-1.0639394764253e-08,1.170261342631e-08,-0.0008504845640083,0.00085048560894392,-4.6215991050624e-09,5.8903525142253e-09,-0.00097806533257459,0.00097805536953532,-0.00097806185264289,0.00097805885581828,-0.00097805788056703,0.00097806281153039,-0.00097805439956987,0.00097806630601081,-0.00096307164609741,0.00096309808357643,-0.00096309351441707,0.00096307622143561,0.71386317331713,125803,2834,0.0062782934111226,0.0062782934164602,0.0035414523189207,20.804642960059,-7.3562856319528e-05,-7.3562856319528e-05,-7.3562856319528e-05,3359404.9113323,0.016229103563294
26019200,0.99293530324778,0.016273990395351,0.0061235303922617,0.0061235303952301,0.0040269296078587,-0.0015119568077994,0.0015119564243955,1.1019832858847e-08,-1.1402450115917e-08,1.7442630404908e-09,-2.1682313758433e-09,-0.0015997017306078,0.0015997101244648,-0.0015997092203627,0.0015997026671583,-0.0015997030145109,0.0015997088187481,-0.00159971048409,0.001599701342791,-0.0013445928842009,0.0013446131581787,-0.0013446148182108,0.0013445911581286,-1.7866019624188e-09,2.1992052578286e-09,5.5371531587175e-09,-5.1694644553432e-09,-0.0015119564317514,0.0015119568026175,-0.0015997046401952,0.001599707233887,-0.0015997081260257,0.0015997036617277,-0.0015997033630869,0.0015997085518897,-0.001599706849554,0.0015997049818955,-0.0013445969617062,0.0013446091858873,-0.0013446073536725,0.0013445985303944,-0.0015074894994046,0.0015074824241717,-0.0015074856026918,0.0015074863987929,-1.0733368654508e-08,1.1799385127384e-08,-0.0008503175728407,0.00085031862050254,-4.6560881903269e-09,5.9278074098284e-09,-0.00097804152249353,0.00097803147459949,-0.00097803801864704,0.00097803498480553,-0.00097803400691407,0.00097803898010837,-0.00097803050192605,0.00097804249865004,-0.00096293998737443,0.00096296663847269,-0.00096296204304406,0.00096294459032753,0.686882899148,125803,2834,0.0062786669966263,0.0062786670011297,0.0035407679364354,20.675906457057,-7.4592748343543e-05,-7.4592748343543e-05,-7.4592748343543e-05,3351202.5314616,0.016229168265774
26219200,0.99312615227812,0.016277185710057,0.0061247334886644,0.006124733491632,0.0040277187297605,-0.0015119829060281,0.0015119825227342,1.111570516919e-08,-1.1498090299999e-08,1.7441407569912e-09,-2.1679793664832e-09,-0.0015997317846163,0.001599740242047,-0.0015997393379355,0.0015997327208974,-0.0015997330683933,0.0015997389364982,-0.001599740601505,0.001599731396837,-0.0013446053696911,0.001344625831734,-0.0013446274914236,0.0013446036438934,-1.7868586518124e-09,2.1995065680671e-09,5.5687038337151e-09,-5.2009498107372e-09,-0.001511982530127,0.0015119829010468,-0.0015997347156371,0.0015997373300229,-0.0015997382218915,0.0015997337365114,-0.0015997334382102,0.0015997386481248,-0.0015997369453647,0.001599735057212,-0.0013446095106637,0.0013446217968871,-0.001344619964143,0.0013446110791268,-0.001507524849051,0.0015075177521593,-0.0015075209519016,0.0015075217273705,-1.0828421275673e-08,1.1896538127985e-08,-0.00085016125113394,0.00085016230099024,-4.6861081186909e-09,5.9603964770663e-09,-0.00097794957856206,0.00097793944773411,-0.00097794605379293,0.00097794297870759,-0.00097794199870323,0.00097794701732194,-0.00097793847294377,0.00097795055691148,-0.00096282620807477,0.00096285307006628,-0.00096284845179729,0.00096283083405916,0.72524659418045,125803,2834,0.0062787731115999,0.0062787731165923,0.0035401239386722,20.537891489176,-7.5696868086593e-05,-7.5696868086593e-05,-7.5696868086593e-05,3347992.1920981,0.01622872950996
26419200,0.99331030880268,0.016280357805611,0.006125925296753,0.0061259252997192,0.0040285072091387,-0.0015120516002475,0.0015120512167522,1.1211453851251e-08,-1.1593880390677e-08,1.7443040361208e-09,-2.1686774770388e-09,-0.0015997772694961,0.0015997857911207,-0.0015997848869773,0.0015997782062169,-0.0015997785536174,0.001599784485278,-0.0015997861508208,0.0015997768816512,-0.0013447006021423,0.0013447212516428,-0.0013447229112851,0.0013446988761161,-1.7865080027009e-09,2.1990799921187e-09,5.5944181853362e-09,-5.2267078164434e-09,-0.0015120512241219,0.0015120515949719,-0.0015997802242837,0.0015997828559703,-0.0015997837477535,0.0015997792455523,-0.0015997789472409,0.0015997841738789,-0.0015997824713462,0.001599780565652,-0.0013447048121573,0.0013447171485595,-0.0013447153159956,0.001344706380323,-0.0015076073372978,0.0015076002241557,-0.0015076034415929,0.0015076041992615,-1.0923459754184e-08,1.1993663910653e-08,-0.00084998630061726,0.0008499873524803,-4.7108012806387e-09,5.9873139769822e-09,-0.00097791015932684,0.00097789994927281,-0.00097790661743526,0.00097790349754214,-0.00097790251555181,0.00097790758293168,-0.00097789897251897,0.0009779111395392,-0.00096268153413604,0.00096270860355521,-0.00096270396630664,0.00096268617991982,0.74502753815014,125803,2834,0.0062790542162303,0.0062790542205662,0.0035394060731083,20.399515995416,-7.680387203667e-05,-7.680387203667e-05,-7.680387203667e-05,3338514.5429358,0.016228572096128
26619200,0.99349208722782,0.016283460199892,0.0061270920078479,0.0061270920108145,0.0040292761812294,-0.0015128560106666,0.0015128556272109,1.1309489004168e-08,-1.1691156708364e-08,1.7425652757093e-09,-2.1680722015295e-09,-0.0016005449333439,0.001600553519626,-0.0016005526159703,0.0016005458695038,-0.0016005462166987,0.0016005522145265,-0.0016005538790967,0.0016005445456847,-0.0013455369110372,0.0013455577543297,-0.0013455594109438,0.0013455351869759,-1.7873220369504e-09,2.200079281144e-09,5.5902401033483e-09,-5.2221801379557e-09,-0.0015128556341799,0.0015128560052237,-0.0016005479226622,0.0016005505510488,-0.0016005514433278,0.0016005469435557,-0.0016005466450402,0.0016005518695489,-0.0016005501663736,0.0016005482642356,-0.0013455412231479,0.0013455535521276,-0.0013455517190977,0.001345542793028,-0.0015084288115502,0.0015084216998227,-0.0015084249167362,0.0015084256792342,-1.1017958737219e-08,1.2087718007953e-08,-0.00085043662177619,0.0008504376729297,-4.7050382304257e-09,5.980389017807e-09,-0.00097856042887482,0.00097855015942758,-0.00097855689113614,0.00097855370353387,-0.00097855272211112,0.0009785578559653,-0.00097854918334134,0.00097856140837614,-0.00096319031091623,0.00096321756037696,-0.00096321292883045,0.00096319495378985,0.73848438372457,125803,2834,0.0062823798971346,0.0062823799002917,0.0035412887149933,20.629564159651,-7.4963486722794e-05,-7.4963486722794e-05,-7.4963486722794e-05,3331024.3978982,0.016237245921434
26819200,0.99367368302763,0.016286483038337,0.0061282314123662,0.006128231415337,0.0040300202106334,-0.0015140452228109,0.0015140448392715,1.1407422426075e-08,-1.1788694858523e-08,1.7408149700035e-09,-2.1674230742423e-09,-0.0016017075243611,0.0016017161755517,-0.0016017152724054,0.0016017084603952,-0.0016017088071895,0.0016017148710349,-0.0016017165350773,0.001601707136659,-0.0013467397166129,0.0013467607537613,-0.0013467624071475,0.0013467379940161,-1.7881405219463e-09,2.2010541342076e-09,5.5688570402411e-09,-5.2004965259083e-09,-0.0015140448457466,0.0015140452169364,-0.0016017105539229,0.0016017131678274,-0.0016017140608095,0.001601709575173,-0.0016017092760669,0.0016017144868161,-0.0016017127834033,0.0016017108955524,-0.0013467441462964,0.0013467564346755,-0.0013467546003844,0.001346745717816,-0.0015096303035347,0.0015096232048685,-0.0015096264084533,0.0015096271862234,-1.1113223209746e-08,1.2181011281908e-08,-0.00085123951214014,0.00085124056117228,-4.6825030187268e-09,5.9550535973235e-09,-0.000979566512559,0.00097955619441621,-0.00097956299100039,0.00097955972302243,-0.00097955874329031,0.00097956395413527,-0.00097955522029239,0.00097956748996968,-0.00096407015043769,0.00096409756659163,-0.00096409295355534,0.00096407477644669,0.72121903512247,125803,2834,0.0062872985657137,0.0062872985669574,0.0035446359203441,21.063936400477,-7.1488508796182e-05,-7.1488508796182e-05,-7.1488508796182e-05,3328230.2869645,0.016250645909643
27019200,0.99385499901641,0.016289417162488,0.0061293402634792,0.006129340266458,0.0040307366325507,-0.0015152151404469,0.0015152147569745,1.1498971398317e-08,-1.1881158920103e-08,1.7437366106906e-09,-2.1685034837659e-09,-0.001602868653632,0.001602877366628,-0.001602876462539,0.0016028695901667,-0.0016028699375096,0.0016028760609578,-0.0016028777262061,0.0016028682658317,-0.0013479003001054,0.0013479215134693,-0.0013479231720511,0.0013478985747354,-1.7861653318164e-09,2.1986856260872e-09,5.54067391963e-09,-5.1729540501502e-09,-0.0015152147642289,0.0015152151350314,-0.0016028717218625,0.0016028743180625,-0.0016028752099899,0.0016028707436911,-0.0016028704451224,0.0016028756357231,-0.001602873933828,0.001602872063479,-0.0013479048449866,0.0013479170757653,-0.0013479152441884,0.0013479064138404,-0.0015108066377374,0.0015107995611329,-0.0015108027435519,0.00151080353628,-1.1214238679474e-08,1.2280112569637e-08,-0.00085205696191983,0.00085205800928971,-4.6598720726399e-09,5.931088554577e-09,-0.0009805498680553,0.0009805394968625,-0.00098054636185921,0.0009805430095211,-0.00098054203182745,0.00098054732306807,-0.00098053852443541,0.00098055084394441,-0.00096496747641296,0.00096499507078415,-0.00096499047385925,0.00096497208273724,0.70228504124554,125803,2834,0.0062921380591507,0.0062921380629581,0.0035480416423987,21.503501890843,-6.7971984873253e-05,-6.7971984873253e-05,-6.7971984873253e-05,3329141.2271663,0.016263944279559
27219200,0.99403587838164,0.016292253796749,0.0061304153408491,0.0061304153438288,0.0040314231120712,-0.0015163530928458,0.0015163527093124,1.1594254648009e-08,-1.1976604487013e-08,1.7439081746847e-09,-2.1685890650926e-09,-0.0016040147348086,0.0016040235114883,-0.0016040226072592,0.0016040156712689,-0.0016040160187551,0.0016040222057009,-0.0016040238710355,0.0016040143469081,-0.0013490059681789,0.0013490273680669,-0.0013490290269944,0.0013490042423379,-1.7859127044751e-09,2.1983856240659e-09,5.5145716007508e-09,-5.1469184214767e-09,-0.001516352716587,0.0015163530873385,-0.0016040178433237,0.0016040204224417,-0.0016040213143028,0.0016040168653413,-0.0016040165667333,0.0016040217398694,-0.0016040200383263,0.0016040181849914,-0.0013490106314106,0.0013490228108536,-0.0013490209796038,0.0013490122000962,-0.0015119472445126,0.0015119401856772,-0.0015119433504632,0.0015119441599365,-1.1311811101847e-08,1.2375784934324e-08,-0.00085288498110551,0.00085288602653366,-4.63553387176e-09,5.9045553442549e-09,-0.00098149920774913,0.00098148878716773,-0.00098149571850131,0.00098149228284003,-0.000981491307059,0.00098149667776302,-0.00098148781662544,0.00098150018173077,-0.00096587723702395,0.00096590500160539,-0.0009659004232624,0.00096588182422268,0.6819177094846,125803,2834,0.0062968460825925,0.0062968460862526,0.0035514889245117,21.943269579641,-6.4453843362875e-05,-6.4453843362875e-05,-6.4453843362875e-05,3333512.0518212,0.01627701745492
27419200,0.99421474383437,0.016295147276637,0.0061315088803574,0.0061315088833379,0.0040321295129414,-0.00151720750931,0.0015172071263895,1.1689629088326e-08,-1.2071936236105e-08,1.7425888096374e-09,-2.1656919426566e-09,-0.0016048925937062,0.0016049014332861,-0.0016049005303715,0.0016048935299229,-0.0016048938764669,0.0016049001288891,-0.0016049017929372,0.0016048922061754,-0.0013498118908512,0.0013498334786429,-0.001349835136973,0.0013498101663649,-1.7881402042501e-09,2.2007995995911e-09,5.4977634564812e-09,-5.1300624700505e-09,-0.0015172071337084,0.0015172075046747,-0.0016048957390245,0.0016048983059375,-0.0016048991995997,0.00160489476091,-0.0016048944613872,0.0016048996251693,-0.0016048979219837,0.0016048960810113,-0.0013498166630777,0.001349828811306,-0.0013498269780189,0.0013498182330507,-0.0015128054317518,0.0015127983799906,-0.0015128015307735,0.0015128023560781,-1.1409035911296e-08,1.2471838289695e-08,-0.00085350371641485,0.00085350476084864,-4.6196760254472e-09,5.8878514933632e-09,-0.00098217924777501,0.00098216877311073,-0.00098217576985179,0.00098217225838605,-0.00098217128346248,0.00098217672844726,-0.00098216780351167,0.00098218022064164,-0.00096657200782965,0.00096659994895345,-0.00096659538274749,0.00096657658198714,0.70214876766013,125803,2834,0.0063003814534237,0.0063003814589818,0.0035540638935902,22.25171766005,-6.1986258719599e-05,-6.1986258719599e-05,-6.1986258719599e-05,3339572.8505266,0.016286820229364
27619200,0.99439106957044,0.016298043826532,0.0061326022520061,0.0061326022549831,0.0040328393195427,-0.0015180062862411,0.0015180059038861,1.1786437997821e-08,-1.2168133395818e-08,1.741018254558e-09,-2.1633326407316e-09,-0.001605699329104,0.0016057082308612,-0.001605707328782,0.0016057002626257,-0.0016057006095845,0.0016057069285298,-0.0016057085893497,0.0016056989422095,-0.0013505847501285,0.0013506065300129,-0.0013506081881416,0.0013505830261918,-1.7900385608448e-09,2.203230823715e-09,5.4859641138455e-09,-5.1177790702889e-09,-0.0015180059107377,0.0015180062821712,-0.0016057025104274,0.0016057050673264,-0.0016057059616742,0.0016057015289243,-0.001605701229997,0.0016057063883728,-0.0016057046825896,0.001605702853148,-0.0013505896293713,0.0013506017559953,-0.0013505999219239,0.0013505911997129,-0.001513611928942,0.0015136048808628,-0.0015136080250841,0.0015136088627976,-1.1504872167178e-08,1.2566800190998e-08,-0.00085404320850531,0.00085404425191286,-4.607175576921e-09,5.8743246867854e-09,-0.00098281479525777,0.0009828042634883,-0.00098281132477033,0.0009828077389599,-0.00098280676558858,0.00098281228174519,-0.00098280329543341,0.00098281576724962,-0.00096717971585852,0.00096720783154405,-0.00096720327486219,0.00096718427964704,0.71252805497528,125803,2834,0.0063036857802532,0.0063036857860087,0.0035563115702095,22.518784881776,-5.9849720945793e-05,-5.9849720945793e-05,-5.9849720945793e-05,3341179.1338594,0.016295821270814
27819200,0.99456478608765,0.016300945324603,0.0061336960842652,0.006133696087239,0.0040335531530991,-0.0015188140908333,0.0015188137076242,1.1882431685104e-08,-1.2264531656624e-08,1.743244256614e-09,-2.1674076140087e-09,-0.0016065073560834,0.001606516324349,-0.0016065154205216,0.0016065082920802,-0.0016065086392947,0.0016065150192333,-0.001606516683685,0.0016065069684312,-0.001351375981232,0.0013513979465197,-0.0013513996049859,0.001351374256094,-1.787304717656e-09,2.199970944389e-09,5.475978701128e-09,-5.1081606339012e-09,-0.0015188137147769,0.0015188140857182,-0.0016065105733585,0.0016065131259623,-0.0016065140188773,0.0016065095947251,-0.001606509295709,0.0016065144444895,-0.0016065127419088,0.0016065109154517,-0.0013513809644338,0.0013513930692171,-0.0013513912373251,0.0013513825343516,-0.0015144301159858,0.0015144230801543,-0.0015144262187958,0.0015144270570823,-1.1601078439302e-08,1.2662263852325e-08,-0.00085457598423391,0.0008545770268449,-4.5978512962806e-09,5.8636647897109e-09,-0.00098346296429743,0.00098345237517339,-0.00098345950115093,0.00098345584463765,-0.00098345487160379,0.00098346045771291,-0.00098345140740866,0.00098346393553299,-0.00096778118624508,0.00096780948481365,-0.00096780493556771,0.00096778574430235,0.72383354805794,125803,2834,0.0063070270478298,0.0063070270520481,0.0035585325031307,22.784778905254,-5.7721768757965e-05,-5.7721768757965e-05,-5.7721768757965e-05,3340898.2380482,0.016304870491183
28019200,0.99473583779485,0.016303853609066,0.0061347910515794,0.0061347910545537,0.0040342715029331,-0.0015196333053729,0.001519632922045,1.1978253333995e-08,-1.2360463421856e-08,1.7439238592644e-09,-2.1682329912646e-09,-0.0016073192963172,0.0016073283288874,-0.0016073274246616,0.0016073202326972,-0.0016073205800383,0.0016073270232602,-0.0016073286883182,0.0016073189085428,-0.001352188317378,0.0013522104699283,-0.0013522121289369,0.0013521865917289,-1.7867338204494e-09,2.1992940896111e-09,5.467708087552e-09,-5.0999924084827e-09,-0.0015196329293121,0.0015196333001537,-0.0016073225482742,0.0016073250957558,-0.0016073259884103,0.0016073215700208,-0.00160732127106,0.0016073264138688,-0.0016073247118367,0.0016073228903172,-0.0013521934025133,0.001352205490661,-0.0013522036593733,0.0013521949721378,-0.0015152617071503,0.0015152546779049,-0.0015152578112124,0.0015152586536487,-1.1697412369932e-08,1.2758119501707e-08,-0.00085510149073356,0.00085510253285147,-4.5899583911204e-09,5.8551690695342e-09,-0.00098412514607134,0.0009841144978886,-0.00098412168841071,0.00098411796189572,-0.00098411698932513,0.00098412264450431,-0.00098411353056503,0.00098412611685905,-0.00096837593544155,0.00096840441617731,-0.00096839987286543,0.00096838048762773,0.73612508098004,125803,2834,0.0063104150779669,0.0063104150822064,0.0035607244893087,23.050730949212,-5.5594152406305e-05,-5.5594152406305e-05,-5.5594152406305e-05,3338844.7846566,0.016313985616836
28219200,0.99490351154485,0.016306759171543,0.0061358835687022,0.006135883571677,0.0040349920311635,-0.0015203342037142,0.0015203338205629,1.2075558117106e-08,-1.2457830450419e-08,1.7434919281066e-09,-2.1672328291718e-09,-0.0016080053577489,0.0016080144547243,-0.0016080135508323,0.0016080062936841,-0.0016080066408771,0.0016080131495953,-0.0016080148140973,0.0016080049700394,-0.0013528946377143,0.0013529169812438,-0.0013529186403211,0.0013528929125024,-1.7875367792137e-09,2.2002156594828e-09,5.4671016430083e-09,-5.0993316861673e-09,-0.0015203338278081,0.0015203341987574,-0.0016080086422063,0.0016080111887254,-0.0016080120817378,0.0016080076633789,-0.0016080073642646,0.0016080125073958,-0.0016080108047042,0.0016080089843088,-0.0013528998181341,0.0013529119057609,-0.0013529100738072,0.0013529013884015,-0.0015159757290338,0.0015159686987641,-0.0015159718307841,0.0015159726755762,-1.1792062718795e-08,1.2852693760734e-08,-0.00085550179388376,0.00085550283600429,-4.5876117297449e-09,5.852928805106e-09,-0.00098467929607137,0.00098466858627629,-0.00098467583987602,0.00098467204878301,-0.00098467107618255,0.00098467679601952,-0.00098466761899125,0.00098468026681922,-0.00096884006285242,0.00096886872699144,-0.00096886418490252,0.00096884461282178,0.74948915570287,125803,2834,0.0063133129007188,0.0063133129054568,0.0035623974312486,23.250643550425,-5.3994851596599e-05,-5.3994851596599e-05,-5.3994851596599e-05,3334329.2848636,0.016321577036717
28419200,0.99506771489822,0.016309662973464,0.006136973956032,0.006136973959006,0.0040357150584257,-0.0015210270160566,0.0015210266327491,1.2168390379438e-08,-1.2550734152216e-08,1.7442763596722e-09,-2.1683198571991e-09,-0.0016086747086691,0.0016086838681343,-0.001608682963793,0.0016086756452413,-0.0016086759926096,0.0016086825622785,-0.0016086842276088,0.0016086743208967,-0.0013536041168418,0.0013536266414129,-0.0013536283009503,0.0013536023909802,-1.7867162345749e-09,2.1992476647416e-09,5.4664394679381e-09,-5.098790652008e-09,-0.0015210266401235,0.0015210270109387,-0.0016086780243131,0.0016086805710155,-0.0016086814636561,0.0016086770461647,-0.0016086767472048,0.0016086818890389,-0.0016086801870851,0.001608678366365,-0.0013536093891072,0.0013536214745652,-0.0013536196433087,0.0013536109586956,-0.0015166834233449,0.0015166763949206,-0.0015166795267822,0.0015166803702676,-1.1891125230858e-08,1.2951867112821e-08,-0.00085587389201732,0.00085587493426441,-4.5901784337144e-09,5.8555841789081e-09,-0.00098522656556341,0.00098521578817029,-0.00098522310777497,0.00098521925242005,-0.00098521827973153,0.00098522406400255,-0.00098521482064061,0.00098522753651367,-0.00096927589173333,0.00096930475210283,-0.00096930020831676,0.00096928044389701,0.764024151149,125803,2834,0.0063161767556459,0.0063161767603173,0.0035639544685961,23.441280635375,-5.2469754917001e-05,-5.2469754917001e-05,-5.2469754917001e-05,3328080.259884,0.01632898181561
28619200,0.99522845279172,0.016312524912773,0.0061380483989709,0.0061380484019446,0.0040364281118573,-0.0015217279827569,0.0015217275995187,1.2266886953553e-08,-1.2649063213507e-08,1.7435059080325e-09,-2.1676144000445e-09,-0.0016093444819383,0.0016093537066131,-0.0016093528026307,0.0016093454180115,-0.0016093457652901,0.0016093524013482,-0.0016093540659979,0.0016093440941944,-0.0013543322931779,0.0013543550117141,-0.001354356670393,0.0013543305679293,-1.787352674485e-09,2.2000285782836e-09,5.4700410000053e-09,-5.1022331859108e-09,-0.0015217276067223,0.0015217279776698,-0.0016093478293283,0.001609350377971,-0.0016093512708902,0.0016093468506583,-0.0016093465516035,0.001609351696523,-0.0016093499939351,0.0016093481714163,-0.0013543376586203,0.0013543497519225,-0.0013543479199915,0.0013543392287931,-0.0015173991155842,0.0015173920837049,-0.0015173952182267,0.0015173960604991,-1.1984527002599e-08,1.3045432694104e-08,-0.00085622939041195,0.00085623043280187,-4.5909027083677e-09,5.8564101314442e-09,-0.00098578145057094,0.00098577061039136,-0.00098577799215688,0.00098577407515719,-0.00098577310226484,0.00098577894856818,-0.00098576964281118,0.00098578242162464,-0.00096969424862116,0.00096972329230204,-0.0009697187478831,0.00096969880159975,0.76896077984755,125803,2834,0.0063190738284165,0.006319073832798,0.003565443889809,23.631664185155,-5.0946686518759e-05,-5.0946686518759e-05,-5.0946686518759e-05,3320331.8960062,0.016336385626199
28819200,0.99538575537157,0.016315251971435,0.0061390746984907,0.0061390747014648,0.0040371025714794,-0.0015224244030037,0.0015224240198219,1.2365055455044e-08,-1.2747105278684e-08,1.7425757606831e-09,-2.1667621855496e-09,-0.0016100104118856,0.0016100197010101,-0.0016100187972907,0.001610011347043,-0.0016100116945161,0.0016100183963197,-0.0016100200601075,0.001610010024189,-0.0013550550390447,0.0013550779506234,-0.0013550796078087,0.0013550533142913,-1.7880485087572e-09,2.2009188014615e-09,5.4741296664992e-09,-5.1061227076033e-09,-0.0015224240267833,0.001522424397879,-0.0016100137906789,0.0016100163413174,-0.0016100172342381,0.0016100128109801,-0.0016100125121214,0.0016100176602055,-0.0016100159569997,0.0016100141328419,-0.0013550604965382,0.0013550725984826,-0.0013550707651786,0.0013550620670983,-0.0015181064465169,0.0015180994102109,-0.0015181025471208,0.0015181033874051,-1.2078436846825e-08,1.3139240939444e-08,-0.00085657462028324,0.00085657566264816,-4.5929134741681e-09,5.8582772908008e-09,-0.00098633037293155,0.00098631946844586,-0.00098632691283527,0.00098632293435416,-0.00098632196144319,0.00098632786924199,-0.00098631850090059,0.00098633134412289,-0.00097010123943593,0.00097013046810684,-0.00097012592204629,0.00097010579312347,0.74978433391209,125803,2834,0.0063219519577801,0.0063219519615825,0.00356689087009,23.824257233403,-4.9405942132773e-05,-4.9405942132773e-05,-4.9405942132773e-05,3312907.2971684,0.016343707857523
29019200,0.99554075616277,0.016317793312557,0.0061400357591479,0.0061400357621229,0.004037721791286,-0.0015233211518188,0.0015233207685046,1.2456559235901e-08,-1.2838454346209e-08,1.7430554466173e-09,-2.1678227670319e-09,-0.0016108939641696,0.0016109033150857,-0.0016109024111421,0.0016108949002043,-0.0016108952475482,0.0016109020098069,-0.001610903674349,0.0016108935765389,-0.0013559501178884,0.0013559732081894,-0.0013559748658174,0.0013559483931111,-1.7870590591607e-09,2.1997036592377e-09,5.4688790580587e-09,-5.1010069966568e-09,-0.0015233207755685,0.0015233211464923,-0.0016108973752923,0.0016108999233076,-0.0016109008161197,0.0016108963968346,-0.0016108960978871,0.0016109012415777,-0.0016108995392603,0.0016108977174397,-0.0013559556711646,0.0013559677617239,-0.0013559659301376,0.00135595724146,-0.0015190087135338,0.0015190016828521,-0.0015190048177164,0.0015190056603046,-1.2178724557485e-08,1.3240087878551e-08,-0.00085713883074277,0.00085713987346914,-4.5919677692132e-09,5.8576367278346e-09,-0.000987061603461,0.0009870506331,-0.00098705814427707,0.00098705409860518,-0.00098705312543569,0.00098705910092188,-0.0009870496651179,0.00098706257490767,-0.00097073877242834,0.00097076819823251,-0.00097076365304763,0.0009707433274213,0.71130252273444,125803,2834,0.0063256601441534,0.0063256601477495,0.0035692454012563,24.139925123295,-4.6880599013636e-05,-4.6880599013636e-05,-4.6880599013636e-05,3311024.6270821,0.016353639420667
29219200,0.99569340943325,0.016320235963568,0.006140961403566,0.0061409614065429,0.0040383131534593,-0.0015241659822444,0.001524165598996,1.2552773508445e-08,-1.2934874915215e-08,1.7434108430543e-09,-2.167689517632e-09,-0.0016117560998122,0.0016117655150659,-0.0016117646110678,0.0016117570359107,-0.0016117573832116,0.0016117642097578,-0.0016117658743777,0.0016117557121549,-0.0013567524327203,0.0013567757113807,-0.0013567773697786,0.0013567507075444,-1.7867362311405e-09,2.1992954438426e-09,5.4672862964332e-09,-5.0995650056278e-09,-0.0015241656061851,0.0015241659770198,-0.0016117595432972,0.0016117620904935,-0.0016117629831343,0.0016117585649984,-0.0016117582660837,0.0016117634085645,-0.0016117617065498,0.0016117598853439,-0.0013567580813169,0.0013567701686031,-0.0013567683372812,0.0013567596510246,-0.0015198540314678,0.0015198470024415,-0.0015198501354828,0.0015198509781914,-1.2274463015441e-08,1.3335590300341e-08,-0.00085773360497305,0.00085773464754642,-4.5898144152522e-09,5.8554344765724e-09,-0.00098773745318345,0.000987726420406,-0.00098773399545575,0.00098772988445717,-0.00098772891144132,0.00098773495199224,-0.00098772545261051,0.00098773842446159,-0.00097141139357676,0.00097144100459678,-0.0009714364607036,0.00097141594630306,0.69516966038513,125803,2834,0.0063291551653253,0.0063291551693922,0.0035717222077867,24.458654938836,-4.4330760489313e-05,-4.4330760489313e-05,-4.4330760489313e-05,3315920.3657258,0.016363261243688
29419200,0.99584364371525,0.016322476573366,0.0061418159980156,0.0061418160009932,0.0040388445743569,-0.0015249792817132,0.0015249788985205,1.2649024345459e-08,-1.3031111451078e-08,1.7433069542868e-09,-2.1674684783258e-09,-0.0016126012969188,0.0016126107762566,-0.001612609872322,0.0016126022329517,-0.0016126025801943,0.0016126094710632,-0.0016126111355387,0.0016126009092977,-0.0013575048149118,0.0013575282822922,-0.0013575299406669,0.0013575030898792,-1.7867097370087e-09,2.1992441564453e-09,5.4666367398101e-09,-5.0989454690027e-09,-0.0015249789057159,0.0015249792765271,-0.0016126047726249,0.0016126073193929,-0.0016126082120264,0.0016126037943271,-0.0016126034954188,0.0016126086374422,-0.0016126069354873,0.0016126051146464,-0.0013575105584324,0.0013575226444394,-0.0013575208131882,0.0013575121280915,-0.0015206624555173,0.0015206554269951,-0.0015206585595214,0.0015206594025523,-1.2370242757941e-08,1.343125986226e-08,-0.0008583381539326,0.00085833919641171,-4.5888259068548e-09,5.8543571363042e-09,-0.00098838467143346,0.00098837357542007,-0.00098838121438498,0.00098837703879378,-0.00098837606586446,0.00098838217084559,-0.0009883726077304,0.00098838564261218,-0.00097208928671832,0.00097211908419677,-0.000972114541061,0.00097209383855048,0.65089856676766,125803,2834,0.0063325205157938,0.0063325205199534,0.003574237325254,24.777503799518,-4.1779969603853e-05,-4.1779969603853e-05,-4.1779969603853e-05,3323314.9315786,0.016372658293706
29619200,0.99599130962653,0.01632464620066,0.0061426443837657,0.0061426443867437,0.0040393574301506,-0.0015257116486121,0.0015257112654399,1.2744873980025e-08,-1.312696725769e-08,1.7434144609438e-09,-2.1675068920346e-09,-0.0016133975424701,0.0016134070857569,-0.0016134061817748,0.0016133984785693,-0.001613398825797,0.0016134057805191,-0.0016134074450329,0.0016133971548676,-0.0013581326338806,0.0013581562890018,-0.0013581579474921,0.0013581309088047,-1.7866170548401e-09,2.199099239616e-09,5.467790530539e-09,-5.1001583657584e-09,-0.0015257112726689,0.0015257116434294,-0.0016134010497194,0.0016134035973028,-0.0016134044899096,0.001613400071455,-0.0016133997725962,0.0016134049152756,-0.001613403213441,0.0016134013916912,-0.0013581384701288,0.0013581505583094,-0.0013581487271984,0.0013581400396531,-0.0015213881161482,0.0015213810870158,-0.0015213842202786,0.0015213850622419,-1.2466379170755e-08,1.3527372841986e-08,-0.00085895969255411,0.00085896073502029,-4.5899538119864e-09,5.855494132215e-09,-0.00098894924215414,0.00098893808128924,-0.00098894578435531,0.00098894154541287,-0.00098894057250151,0.00098894674080129,-0.00098893711361122,0.00098895021331988,-0.00097278978901469,0.00097281977530927,-0.00097281523141174,0.00097279434151464,0.64191385388452,125803,2834,0.0063355529107427,0.0063355529149791,0.0035768176215385,25.087137179566,-3.9302902563474e-05,-3.9302902563474e-05,-3.9302902563474e-05,3337585.2945584,0.016381443958531
29819200,0.99613586181498,0.016326898524306,0.0061434993368172,0.0061434993397954,0.0040398998476937,-0.0015263257805412,0.0015263253974205,1.2840485570745e-08,-1.3222633698088e-08,1.7435452407132e-09,-2.1674145576789e-09,-0.0016140790734843,0.0016140886805391,-0.0016140877765506,0.0016140800096203,-0.0016140803568023,0.0016140873753131,-0.0016140890398033,0.0016140786859268,-0.0013586400524206,0.001358663894738,-0.0013586655536081,0.0013586383272513,-1.7868211710162e-09,2.199306223809e-09,5.4733362642328e-09,-5.1057296544969e-09,-0.0015263254046665,0.0015263257754233,-0.0016140826107915,0.001614085161903,-0.0016140860546253,0.001614081632343,-0.0016140813335101,0.001614086480032,-0.0016140847780128,0.0016140829527426,-0.0013586459765927,0.0013586580757282,-0.0013586562445146,0.0013586475461251,-0.0015220019077892,0.0015219948745758,-0.0015219980112059,0.0015219988500087,-1.2562543085789e-08,1.3623858910462e-08,-0.00085950088954576,0.00085950193237086,-4.5954593527995e-09,5.8614829343715e-09,-0.00098940810737249,0.00098939687878418,-0.00098940464573679,0.00098940034672605,-0.00098939937349722,0.00098940560251616,-0.00098939591078123,0.00098940907887348,-0.000973407575987,0.00097343775486218,-0.00097343320669788,0.00097341213240998,0.67837702865108,125803,2834,0.0063380963958386,0.006338096400245,0.003579062920633,25.339460568481,-3.7284315452149e-05,-3.7284315452149e-05,-3.7284315452149e-05,3351382.4133106,0.016388895230115
30019200,0.99627727099072,0.016329136815703,0.0061443477742605,0.0061443477772385,0.0040404412642037,-0.0015269914051201,0.0015269910219428,1.2936424056831e-08,-1.3318514182593e-08,1.7436658863805e-09,-2.1677873394672e-09,-0.0016147813443593,0.0016147910155324,-0.0016147901114024,0.0016147822806676,-0.0016147826278671,0.0016147897101223,-0.0016147913748274,0.0016147809567769,-0.0013592408607001,0.0013592648910236,-0.0013592665496959,0.0013592391355056,-1.7868703887479e-09,2.1993519492864e-09,5.4794611319454e-09,-5.111832389364e-09,-0.0015269910291715,0.0015269913999282,-0.0016147849118177,0.0016147874669747,-0.0016147883597071,0.0016147839333377,-0.0016147836345294,0.0016147887851145,-0.0016147870830716,0.0016147852537363,-0.0013592468730898,0.0013592589843162,-0.001359257152989,0.0013592484427244,-0.00152267294757,0.0015226659101788,-0.0015226690512538,0.0015226698859641,-1.2658374266869e-08,1.3720115967846e-08,-0.00086002251659367,0.0008600235598188,-4.6012602665102e-09,5.8676915951479e-09,-0.00098993458434132,0.00098992328811987,-0.00098993111871672,0.00098992676007731,-0.00098992578643396,0.00098993207589393,-0.00098992231970965,0.00098993555623499,-0.00097399793362802,0.00097402830491106,-0.00097402375247232,0.00097400249474319,0.68873089502665,125803,2834,0.0063408512766118,0.0063408512808286,0.0035812316696069,25.590353507541,-3.5277171939675e-05,-3.5277171939675e-05,-3.5277171939675e-05,3357122.9560889,0.016396699467608
30219200,0.99641552328733,0.01633122789963,0.0061451437272771,0.0061451437302555,0.0040409404420974,-0.0015276655388216,0.0015276651556239,1.3032199013619e-08,-1.3414303528588e-08,1.7438252645117e-09,-2.1679701535882e-09,-0.0016154843196139,0.0016154940547364,-0.0016154931505233,0.0016154852560298,-0.0016154856032417,0.0016154927492158,-0.0016154944140569,0.001615483932018,-0.0013598593432614,0.0013598835611515,-0.0013598852199495,0.0013598576179497,-1.7870074932654e-09,2.1995011824272e-09,5.4853699918646e-09,-5.1177318902596e-09,-0.00152766516286,0.0015276655336274,-0.001615487917151,0.0016154904761407,-0.0016154913689308,0.0016154869385632,-0.0016154866397708,0.0016154917943761,-0.0016154900921975,0.0016154882590507,-0.0013598654436296,0.001359877566537,-0.0013598757350622,0.0013598670133288,-0.0015233500526686,0.0015233430110805,-0.0015233461560787,0.0015233469871624,-1.2754336787366e-08,1.3816499239021e-08,-0.00086053337364264,0.00086053441729485,-4.606939123832e-09,5.8738690266237e-09,-0.00099047764931861,0.00099046628543431,-0.00099047417974674,0.00099046976134297,-0.00099046878728629,0.00099047513733491,-0.0009904653166104,0.00099047862162315,-0.00097457406054011,0.00097460462438934,-0.00097460006758645,0.00097457862604346,0.66008312110622,125803,2834,0.0063436408417472,0.0063436408459743,0.0035833571145198,25.841190743896,-3.327047404883e-05,-3.327047404883e-05,-3.327047404883e-05,3360465.9933561,0.016404530626758
30419200,0.99655089929722,0.016333160218405,0.0061458831598873,0.0061458831628661,0.0040413938956513,-0.0015283646270253,0.0015283642437314,1.3128514644125e-08,-1.3510568976333e-08,1.7441955278474e-09,-2.1687033217787e-09,-0.0016162335008873,0.0016162433005263,-0.0016162423960338,0.0016162344376214,-0.0016162347848881,0.0016162419946788,-0.0016162436598711,0.0016162331132622,-0.0013604715555321,0.0013604959619245,-0.0013604976208069,0.0013604698300057,-1.7866922552486e-09,2.1991402771274e-09,5.4887599514297e-09,-5.121132920934e-09,-0.0015283642509553,0.0015283646216765,-0.0016162371296293,0.0016162396910255,-0.001616240583698,0.001616236151198,-0.0016162358524942,0.0016162410090896,-0.0016162393071266,0.0016162374714811,-0.001360477747231,0.0013604898765277,-0.0013604880454091,0.0013604793168097,-0.0015240473253021,0.0015240402820591,-0.0015240434299569,0.0015240442581337,-1.2849913471878e-08,1.3912269377161e-08,-0.00086112263737494,0.00086112368116256,-4.6097319294457e-09,5.8767560128593e-09,-0.00099103941531594,0.00099102798583095,-0.00099103594382111,0.00099103146361652,-0.00099103048944033,0.00099103690151125,-0.00099102701688966,0.00099104038774558,-0.00097523434678712,0.00097526510002531,-0.0009752605413119,0.00097523891479013,0.62526526913873,125803,2834,0.0063465349647417,0.0063465349686231,0.0035858049476477,26.129093272955,-3.096725381636e-05,-3.096725381636e-05,-3.096725381636e-05,3369265.362831,0.016412901517503
30619200,0.99668418253024,0.016335186315034,0.0061466535456617,0.0061466535486415,0.0040418792207311,-0.0015292285318738,0.0015292281486657,1.3223717830321e-08,-1.360563421939e-08,1.7436974877093e-09,-2.1681784979293e-09,-0.0016171697033485,0.0016171795661928,-0.0016171786619205,0.0016171706398455,-0.0016171709870204,0.0016171782606451,-0.0016171799254625,0.0016171693158008,-0.0013612150755897,0.0013612396690314,-0.0013612413272683,0.0013612133505473,-1.7871897525798e-09,2.1996831551647e-09,5.4846096331278e-09,-5.1169351034575e-09,-0.0015292281558397,0.0015292285266054,-0.0016171733652177,0.0016171759235782,-0.0016171768165457,0.0016171723865359,-0.0016171720877489,0.0016171772419475,-0.0016171755396731,0.0016171737071376,-0.0013612213648172,0.0013612334863863,-0.0013612316549146,0.0013612229348527,-0.0015249145442135,0.0015249075027856,-0.0015249106479992,0.0015249114799206,-1.2946970959623e-08,1.4008903216388e-08,-0.00086192985329907,0.00086193089664683,-4.6066041024105e-09,5.8731151532266e-09,-0.00099174754540356,0.00099173605322113,-0.00099174407619732,0.00099173952877051,-0.00099173855500046,0.00099174503347465,-0.00099173508469696,0.00099174851740478,-0.00097612993256665,0.00097616087252529,-0.0009761563166592,0.00097613449800434,0.66318229775188,125803,2834,0.0063501128487273,0.0063501128526714,0.0035891543039644,26.523191605266,-2.7814467157873e-05,-2.7814467157873e-05,-2.7814467157873e-05,3384925.5037339,0.016423578063442
30819200,0.99681529515263,0.016337272216244,0.0061474435242539,0.0061474435272348,0.0040423851647552,-0.0015301632278362,0.0015301628446333,1.3319706802159e-08,-1.3701723426049e-08,1.7439449486201e-09,-2.1683134462773e-09,-0.0016181434752437,0.0016181534022071,-0.0016181524977905,0.0016181444118138,-0.0016181447590086,0.0016181520965277,-0.00161815376146,0.0016181430876989,-0.0013620767738201,0.0013621015551663,-0.0013621032137523,0.001362075048499,-1.7870862590356e-09,2.1995751989457e-09,5.4809137266913e-09,-5.1132640020262e-09,-0.0015301628517872,0.0015301632225362,-0.001618147170369,0.0016181497263149,-0.0016181506191977,0.0016181461916677,-0.0016181458929167,0.0016181510445887,-0.0016181493424289,0.0016181475122879,-0.0013620831603358,0.0013620952745704,-0.0013620934431909,0.0013620847302646,-0.0015258592488649,0.0015258522100599,-0.0015258553525329,0.0015258561867035,-1.3043125221325e-08,1.4104626039062e-08,-0.00086272348128508,0.00086272452422362,-4.6028937302543e-09,5.8689669142493e-09,-0.00099254079734416,0.00099252924337542,-0.00099253733073746,0.00099253271628907,-0.00099253174295253,0.00099253828761359,-0.00099252827527171,0.00099254176896754,-0.00097700374144792,0.00097703486610651,-0.00097703031304183,0.00097700830359227,0.692363277115,125803,2834,0.0063539817624186,0.0063539817662567,0.0035924525488016,26.919950272228,-2.4640397822174e-05,-2.4640397822174e-05,-2.4640397822174e-05,3391943.2310815,0.016434795475084
31019200,0.99694414184163,0.0163393841091,0.0061482414840247,0.0061482414870067,0.0040429011380689,-0.0015311437078833,0.0015311433247025,1.3415501677162e-08,-1.3797567833656e-08,1.744113889812e-09,-2.1683054345809e-09,-0.0016191377905994,0.0016191477814846,-0.0016191468770571,0.0016191387272504,-0.0016191390744207,0.0016191464757518,-0.0016191481407853,0.0016191374030459,-0.0013630176656478,0.0013630426345188,-0.0013630442934151,0.0013630159402592,-1.7871161144177e-09,2.1995837099394e-09,5.4774329168367e-09,-5.1098179675613e-09,-0.0015311433319342,0.0015311437026696,-0.0016191415187086,0.0016191440723475,-0.0016191449653114,0.0016191405400791,-0.0016191402412728,0.0016191453906564,-0.001619143688499,0.001619141860641,-0.0013630241492522,0.0013630362566622,-0.0013630344253151,0.0013630257191869,-0.001526852974124,0.0015268459375865,-0.0015268490774407,0.0015268499139855,-1.3139420214861e-08,1.4200647561524e-08,-0.00086349760671367,0.00086349864940981,-4.5995801429802e-09,5.8654333728721e-09,-0.00099338659490604,0.00099337497890032,-0.00099338313060255,0.00099337844954513,-0.0009933774764395,0.00099338408725443,-0.00099337401101893,0.0009933875662759,-0.00097785454361376,0.00097788585388314,-0.00097788130333268,0.00097785910303549,0.71215831648075,125803,2834,0.0063580386888692,0.0063580386930466,0.0035956737258753,27.316812708675,-2.1465498330602e-05,-2.1465498330602e-05,-2.1465498330602e-05,3392919.496248,0.016446317611781
31219200,0.99707173737659,0.01634157937637,0.0061490679014095,0.0061490679043918,0.0040434435705684,-0.0015324533572904,0.001532452973156,1.351144457629e-08,-1.3893939757266e-08,1.7483125053119e-09,-2.1744301224759e-09,-0.0016204430614819,0.0016204531191433,-0.0016204522122806,0.0016204440012991,-0.0016204443490583,0.0016204518101886,-0.0016204534793142,0.0016204426730758,-0.001364306767117,0.0013643319206191,-0.0013643335817142,0.0013643050377982,-1.7820622458687e-09,2.1937053642107e-09,5.4661186025409e-09,-5.0991580738865e-09,-0.0015324529809495,0.0015324533509143,-0.0016204468255294,0.0016204493747396,-0.001620450265487,0.0016204458505904,-0.0016204455522841,0.0016204506898747,-0.0016204489919411,0.0016204471667027,-0.0013643133569983,0.0013643254384563,-0.0013643236109498,0.00136431492255,-0.0015281808930812,0.0015281738733381,-0.0015281770074316,0.0015281778384294,-1.3235637744046e-08,1.4296245973646e-08,-0.00086452327562167,0.00086452431751403,-4.588222002175e-09,5.8528116396376e-09,-0.00099454081892868,0.00099452914596688,-0.00099453736263888,0.00099453260899543,-0.00099453163647298,0.00099453831868193,-0.00099452817887218,0.00099454178947321,-0.00097896993077016,0.00097900142060127,-0.00097899687959877,0.00097897448292512,0.7454602913152,125803,2834,0.0063634570162256,0.0063634570191591,0.003599942876357,27.866115127621,-1.7071078979034e-05,-1.7071078979034e-05,-1.7071078979034e-05,3392334.7020496,0.016461673171277
31419200,0.99719803767387,0.016343650192063,0.0061498510413503,0.0061498510443353,0.0040439481063773,-0.001533837391405,0.0015338370084431,1.3607847313782e-08,-1.3989588364678e-08,1.7422974120688e-09,-2.1664105414686e-09,-0.0016218017857495,0.001621811903767,-0.0016218110002963,0.0016218027213854,-0.0016218030683584,0.0016218105992727,-0.001621812262791,0.0016218013984328,-0.0013657005490706,0.0013657258961686,-0.0013657275531639,0.0013656988253719,-1.7883220382246e-09,2.2010238271051e-09,5.4559422541185e-09,-5.0880832131019e-09,-0.0015338370154071,0.0015338373863675,-0.0016218055849246,0.001621808123566,-0.0016218090173439,0.0016218046057719,-0.001621804306644,0.0016218094427872,-0.001621807739608,0.0016218059271976,-0.0013657072424464,0.0013657193086434,-0.0013657174763015,0.0013657088139296,-0.0015295789579776,0.0015295719334045,-0.0015295750589171,0.0015295759126512,-1.3331996502452e-08,1.4391792021456e-08,-0.0008655423054525,0.00086554334664424,-4.5785334767062e-09,5.8425705579506e-09,-0.00099576837285891,0.00099575664205748,-0.00099576492320704,0.00099576009812548,-0.00099575912645383,0.00099576587839817,-0.0009957556756174,0.00099576934280044,-0.00098007231682572,0.00098010398662109,-0.00098009945221328,0.00098007686038508,0.71242629649514,125803,2834,0.0063691815656069,0.0063691815695949,0.0036041886733854,28.434175190423,-1.2526598476613e-05,-1.2526598476613e-05,-1.2526598476613e-05,3386945.2514284,0.016477628538167
31619200,0.99732285857834,0.01634559996959,0.0061505916958034,0.006150591698789,0.0040444165749973,-0.0015351650914139,0.0015351647083574,1.370321446444e-08,-1.4085125492614e-08,1.7432145059934e-09,-2.1673972093265e-09,-0.0016231316895514,0.0016231418717222,-0.0016231409677168,0.0016231326257343,-0.0016231329727858,0.0016231405665726,-0.0016231422308617,0.0016231313021329,-0.0013669997421171,0.001367025275378,-0.0013670269333362,0.0013669980175257,-1.7872812501376e-09,2.1997921413526e-09,5.4470724848018e-09,-5.079401870697e-09,-0.0015351647154593,0.0015351650862352,-0.0016231355233763,0.00162313805677,-0.0016231389500267,0.0016231345448702,-0.0016231342458716,0.0016231393752443,-0.0016231376730681,0.0016231358655184,-0.0013670065375406,0.0013670185854969,-0.0013670167542731,0.001367008108033,-0.0015309139135046,0.0015309068968326,-0.0015309100165304,0.0015309108737074,-1.3428868420783e-08,1.448809567374e-08,-0.00086656962318807,0.00086657066381339,-4.570467476389e-09,5.8338582124293e-09,-0.00099693048151498,0.00099691869133731,-0.00099692703741721,0.0009969221417929,-0.00099692117068055,0.00099692799207902,-0.00099691772545791,0.00099693145090768,-0.00098119160449449,0.00098122345714325,-0.00098121892880567,0.00098119614181197,0.68057766501584,125803,2834,0.0063746743242672,0.0063746743282486,0.0036084649703409,29.002757101122,-7.9779431910271e-06,-7.9779431910271e-06,-7.9779431910271e-06,3388621.298628,0.01649314307714
31819200,0.99744391029376,0.016347424313077,0.0061512870102983,0.0061512870132843,0.0040448502894946,-0.0015358416258437,0.0015358412427329,1.3798370033561e-08,-1.4180753034435e-08,1.7442922408341e-09,-2.1678248383216e-09,-0.00162383686884,0.0016238471149003,-0.0016238462105964,0.0016238378054087,-0.001623838152572,0.0016238458092986,-0.001623847474217,0.0016238364812886,-0.0013676227518795,0.0013676484706185,-0.0013676501305366,0.0013676210261062,-1.7874802931158e-09,2.2000044480537e-09,5.4597034955735e-09,-5.0921253475734e-09,-0.0015358412500033,0.0015358416207764,-0.0016238407301876,0.0016238432718588,-0.0016238441651629,0.0016238397514909,-0.0016238394525313,0.0016238445904948,-0.0016238428880335,0.001623841072249,-0.0013676296267445,0.001367641699556,-0.0013676398679939,0.0013676311967944,-0.0015315895242578,0.0015315824987641,-0.001531585625379,0.0015315864746191,-1.3525016471568e-08,1.4585137410152e-08,-0.00086707687473738,0.00086707791643703,-4.5828286278838e-09,5.8476754739327e-09,-0.00099747592350193,0.0009974640612842,-0.00099747247072496,0.00099746752044081,-0.0009974665483324,0.00099747342643264,-0.00099746309438503,0.00099747689393404,-0.00098176730806777,0.00098179935919507,-0.0009817948206421,0.00098177185396794,0.65805652799752,125803,2834,0.0063774735138751,0.0063774735184378,0.0036105758969634,29.265421492914,-5.8766280566875e-06,-5.8766280566875e-06,-5.8766280566875e-06,3392702.4128238,0.0165009797833
32019200,0.99755959830917,0.016349336526289,0.0061520096298869,0.006152009632872,0.0040453172635305,-0.0015360020190238,0.0015360016360309,1.3892675442184e-08,-1.4275140301145e-08,1.7441554811296e-09,-2.1672300931965e-09,-0.0016240383955888,0.0016240487043455,-0.0016240478001942,0.0016240393319732,-0.0016240396790903,0.0016240473989105,-0.0016240490636339,0.0016240380081178,-0.0013677184879492,0.0013677443915531,-0.0013677460515599,0.0013677167622411,-1.7891046340227e-09,2.2018575287785e-09,5.4870616483873e-09,-5.1193146764433e-09,-0.0015360016432496,0.0015360020142374,-0.0016240422795993,0.001624044838456,-0.0016240457323779,0.001624041299741,-0.0016240410007488,0.0016240461581092,-0.0016240444542342,0.0016240426217456,-0.0013677254276396,0.0013677375552609,-0.0013677357218689,0.0013677269985299,-0.0015317534980987,0.0015317464510848,-0.0015317495948339,0.001531750429356,-1.3621609657103e-08,1.4683734304996e-08,-0.00086717719151682,0.00086717823537107,-4.6104055822301e-09,5.8778397047192e-09,-0.00099753329346278,0.0009975213490804,-0.00099752982148424,0.00099752482745145,-0.00099752385325492,0.00099753077929901,-0.00099752038004861,0.00099753426603556,-0.00098191993942507,0.00098195220265383,-0.00098194764260487,0.00098192450593668,0.71766338559522,125803,2834,0.0063781377668532,0.0063781377718907,0.0036109923205593,29.280953406324,-5.7523727494041e-06,-5.7523727494041e-06,-5.7523727494041e-06,3397491.01771,0.016502752911781
32219200,0.99767011564249,0.016351205315927,0.006152714649109,0.0061527146520925,0.0040457760147254,-0.0015362277632692,0.0015362273798964,1.3990417462997e-08,-1.4372831204637e-08,1.745748011773e-09,-2.1698990508382e-09,-0.0016242571177812,0.0016242674928899,-0.0016242665877546,0.0016242580554038,-0.0016242584027124,0.0016242661861321,-0.0016242678525114,0.0016242567300463,-0.0013679456123877,0.0013679717065522,-0.0013679733672814,0.0013679438856238,-1.7879673625303e-09,2.2005435151889e-09,5.5142792870764e-09,-5.1465992539329e-09,-0.0015362273872614,0.0015362277581055,-0.0016242610259761,0.0016242636035493,-0.0016242644968842,0.0016242600467759,-0.0016242597479986,0.00162426492253,-0.0016242632194213,0.0016242613678489,-0.0013679526221877,0.0013679648024075,-0.001367962969992,0.00136795419235,-0.0015319906103167,0.0015319835475718,-0.001531986711227,0.0015319875252113,-1.3714716371223e-08,1.4779022670032e-08,-0.00086723034280845,0.0008672313887019,-4.6344530877589e-09,5.9040687048347e-09,-0.00099767427967529,0.00099766225766589,-0.00099767079091486,0.00099766575282726,-0.00099766477661456,0.00099767175068385,-0.00099766128667134,0.00099767525414002,-0.00098201055027834,0.00098204301688761,-0.00098203843865214,0.00098201513697303,0.73340851772131,125803,2834,0.0063790698577459,0.0063790698623029,0.003611219879858,29.290197385356,-5.6784209171545e-06,-5.6784209171545e-06,-5.6784209171545e-06,3390750.6530565,0.01650487997167
32419200,0.99777568863319,0.016353036318358,0.0061534041042148,0.006153404107198,0.0040462281069449,-0.0015364653467385,0.0015364649634312,1.4085438430172e-08,-1.44676931372e-08,1.7453103262617e-09,-2.1695135949077e-09,-0.0016244759715949,0.001624486409729,-0.0016244855048036,0.0016244769090085,-0.0016244772562795,0.0016244851032502,-0.0016244867692681,0.0016244755839493,-0.0013681995273664,0.0013682258081527,-0.0013682274682137,0.0013681978011294,-1.7889238910149e-09,2.2016949824035e-09,5.5379702991054e-09,-5.1700905585507e-09,-0.0015364649706531,0.0015364653416752,-0.0016244799038971,0.0016244824965586,-0.0016244833902375,0.0016244789239618,-0.0016244786252042,0.0016244838162043,-0.0016244821121208,0.0016244802458263,-0.0013682066072135,0.0013682188346282,-0.0013682170010823,0.0013682081781288,-0.0015322402648908,0.0015322331845306,-0.0015322363639775,0.0015322371644199,-1.3810869771712e-08,1.4876875059326e-08,-0.00086726712305601,0.00086726817071034,-4.6578185691525e-09,5.9294113517031e-09,-0.00099783088797766,0.00099781878674308,-0.00099782738297231,0.00099782229812122,-0.00099782132017354,0.00099782834447978,-0.00099781781401406,0.00099783186422272,-0.00098208450003988,0.00098211717446727,-0.00098211257833688,0.00098208910484681,0.75109425438671,125803,2834,0.0063800502574124,0.0063800502618805,0.0036113812362433,29.299194830166,-5.6064413586722e-06,-5.6064413586722e-06,-5.6064413586722e-06,3381980.7337995,0.016507038187981
32619200,0.99787627853732,0.016354646902261,0.006154014858462,0.0061540148614453,0.0040466171823536,-0.0015366185597167,0.0015366181763767,1.4182525465641e-08,-1.4564961747475e-08,1.7455690832392e-09,-2.1695749677387e-09,-0.0016246016238074,0.0016246121267188,-0.0016246112217427,0.0016246025612293,-0.0016246029085191,0.0016246108201667,-0.0016246124863367,0.0016246012360969,-0.0013683834042038,0.0013684098749676,-0.0013684115356621,0.0013683816775904,-1.7889826081623e-09,2.2017587041269e-09,5.559636119727e-09,-5.1917900052982e-09,-0.0015366181836433,0.0015366185546663,-0.0016246055813622,0.0016246081883032,-0.0016246090818484,0.0016246046011808,-0.0016246043025022,0.0016246095079756,-0.0016246078037338,0.001624605923139,-0.0013683905574944,0.0013684028274573,-0.001368400993686,0.0013683921281539,-0.0015323998064173,0.0015323927115809,-0.0015323959050118,0.0015323966912811,-1.3904830802258e-08,1.4972357888362e-08,-0.00086719669648691,0.00086719774570429,-4.6770771272579e-09,5.9505748541929e-09,-0.00099791454084664,0.0009979023644302,-0.00099791102231766,0.00099790588926176,-0.00099790490981625,0.00099791198530891,-0.00099790139023488,0.00099791551852867,-0.00098204198418794,0.0009820748588783,-0.00098207024748357,0.00098204660356692,0.69653886291748,125803,2834,0.0063806806756621,0.0063806806802502,0.0036110990682483,29.262951252215,-5.8963899822768e-06,-5.8963899822768e-06,-5.8963899822768e-06,3370714.0033744,0.016508034365369
32819200,0.99797200924648,0.016356058325566,0.0061545540436253,0.0061545540466083,0.0040469502353327,-0.0015366369794646,0.0015366365960619,1.4277634842056e-08,-1.466001366841e-08,1.745581546329e-09,-2.1698671417542e-09,-0.0016246341538205,0.0016246447202461,-0.0016246438152428,0.0016246350914434,-0.0016246354387317,0.0016246434135923,-0.0016246450798969,0.0016246337661314,-0.001368376119227,0.0013684027764028,-0.001368404436879,0.0013683743925893,-1.7886056755008e-09,2.2013235343118e-09,5.5741129558224e-09,-5.2062896517815e-09,-0.0015366366033074,0.0015366369742767,-0.0016246381383696,0.0016246407551655,-0.0016246416485025,0.0016246371584494,-0.0016246368598954,0.0016246420745889,-0.0016246403705892,0.0016246384800355,-0.0013683833519434,0.0013683956500228,-0.0013683938163994,0.0013683849221784,-0.001532415753221,0.0015324086494728,-0.0015324118529606,0.001532412628666,-1.4001135640789e-08,1.5069756617456e-08,-0.0008671139821035,0.00086711503240139,-4.6917206655825e-09,5.9664174406383e-09,-0.00099785968292865,0.00099784743285603,-0.00099785615429498,0.00099785096786505,-0.00099784998737135,0.00099785711832686,-0.00099784645759813,0.0009978606616712,-0.00098199302999233,0.00098202610552494,-0.00098202148308496,0.00098199766094486,0.64446135332377,125803,2834,0.0063807557526368,0.0063807557568964,0.003610758863146,29.204512000939,-6.3639039924886e-06,-6.3639039924886e-06,-6.3639039924886e-06,3369707.4848439,0.016507841186519
33019200,0.99806312606109,0.016357515210699,0.0061551060960871,0.0061551060990704,0.0040473030155418,-0.0015365812875316,0.0015365809041522,1.437341602036e-08,-1.475576143897e-08,1.7454414486677e-09,-2.1696772992596e-09,-0.0016246283858999,0.0016246390160886,-0.0016246381112001,0.0016246293234553,-0.0016246296707145,0.0016246377095517,-0.0016246393757365,0.0016246279982363,-0.001368246212641,0.0013682730575826,-0.0013682747179885,0.0013682444861681,-1.788348121663e-09,2.2009753946321e-09,5.584468169328e-09,-5.2167360130972e-09,-0.0015365809114584,0.0015365812823481,-0.0016246323988308,0.0016246350226611,-0.0016246359158038,0.0016246314189903,-0.0016246311205567,0.0016246363418784,-0.0016246346380868,0.0016246327403577,-0.0013682535292967,0.0013682658474878,-0.0013682640140717,0.0013682550991902,-0.0015323587039126,0.00153235159373,-0.0015323548042249,0.001532355572339,-1.4096952216254e-08,1.5166245182238e-08,-0.00086707735490285,0.00086707840589476,-4.7017096181952e-09,5.9772482555952e-09,-0.00099772293652859,0.00099771061609497,-0.00099771940097073,0.00099771415804322,-0.00099771317687341,0.00099772036565638,-0.00099770964016406,0.00099772391593358,-0.0009819959295698,0.00098202920083676,-0.00098202457081311,0.0009820005681021,0.69524135138909,125803,2834,0.0063805267728979,0.006380526777292,0.0036106029470909,29.145501750312,-6.8359859975042e-06,-6.8359859975042e-06,-6.8359859975042e-06,3377949.3779955,0.016507215900352
33219200,0.9981498642242,0.016358973713354,0.0061556563853928,0.0061556563883762,0.0040476609395848,-0.0015365973242283,0.0015365969409052,1.4469208623138e-08,-1.4851483188383e-08,1.7451535325222e-09,-2.1693797922894e-09,-0.0016246542065165,0.0016246649004162,-0.0016246639956746,0.0016246551439516,-0.0016246554911434,0.0016246635940771,-0.0016246652600094,0.0016246538189321,-0.0013682457895006,0.001368272822429,-0.0013682744824711,0.001368244063319,-1.7880454700853e-09,2.2006455845336e-09,5.5900865658676e-09,-5.2223725173764e-09,-0.001536596948175,0.001536597319035,-0.0016246582494043,0.0016246608771345,-0.0016246617700824,0.0016246572697019,-0.0016246569713432,0.0016246621961427,-0.0016246604925726,0.0016246585908757,-0.0013682531947897,0.0013682655237988,-0.0013682636905541,0.0013682547643902,-0.0015323812135276,0.0015323741002045,-0.0015323773145377,0.0015323780782442,-1.4192968335848e-08,1.5262544070314e-08,-0.00086701668392105,0.00086701773519458,-4.7072006855572e-09,5.983073466333e-09,-0.00099767759503516,0.00099766520698196,-0.00099767405570963,0.00099766875268891,-0.00099766777126499,0.00099767502066736,-0.00099766423078658,0.00099767857470974,-0.00098196132775531,0.00098199479124176,-0.00098199015719961,0.00098196597042956,0.72922790473075,125803,2834,0.0063805923751228,0.0063805923794212,0.0036103533540277,29.086469066534,-7.308247467727e-06,-7.308247467727e-06,-7.308247467727e-06,3375991.6047388,0.016507095590614
33419200,0.99823378139221,0.016360412563578,0.0061561984694538,0.0061561984724374,0.004048015621687,-0.0015372116865441,0.0015372113027906,1.4562300033612e-08,-1.4944303154032e-08,1.7460042487687e-09,-2.1718037932378e-09,-0.0016252510808997,0.0016252618377663,-0.0016252609321459,0.0016252520192385,-0.0016252523667701,0.0016252605302481,-0.0016252621974891,0.0016252506930915,-0.0013688710233183,0.0013688982380102,-0.0013688998973858,0.0013688692965071,-1.7849849036423e-09,2.1971070564422e-09,5.5709197513992e-09,-5.2034862798932e-09,-0.0015372113101889,0.0015372116806142,-0.0016252551611393,0.0016252577780923,-0.0016252586695461,0.0016252541834347,-0.0016252538854676,0.0016252590948776,-0.0016252573940748,0.0016252555023215,-0.0013688785406356,0.0013688908297211,-0.0013688889993302,0.0013688801083453,-0.0015330075651585,0.0015330004702725,-0.0015330036745734,0.0015330044437822,-1.4292596942406e-08,1.5361036936807e-08,-0.00086742907698925,0.00086743012685419,-4.6918290255442e-09,5.9657161202231e-09,-0.00099820154418278,0.00099818909955639,-0.00099819801574655,0.00099819263436732,-0.00099819165426509,0.00099819897929475,-0.00099818812462257,0.00099820252255268,-0.0009824185559879,0.00098245220176305,-0.00098244758070296,0.00098242318831877,0.74278652280074,125803,2834,0.0063831327747775,0.0063831327778152,0.0036120738510552,29.311570788087,-5.5074336953013e-06,-5.5074336953013e-06,-5.5074336953013e-06,3371501.2034518,0.016514010129628
33619200,0.99831526812968,0.016361810302166,0.0061567251987821,0.0061567252017676,0.0040483599016163,-0.0015379886891944,0.0015379883057246,1.4657436729428e-08,-1.503940275804e-08,1.744812766403e-09,-2.1699380524114e-09,-0.0016260041626869,0.0016260149823088,-0.0016260140775158,0.0016260051002243,-0.001626005447464,0.0016260136758371,-0.0016260153418028,0.0016260037751823,-0.0013696672638497,0.0013696946656809,-0.0013696963248911,0.0013696655380828,-1.7849552270784e-09,2.1970785986583e-09,5.5452237238769e-09,-5.1778401291302e-09,-0.0015379883130519,0.0015379886834767,-0.0016260082825571,0.0016260108825342,-0.0016260117741938,0.0016260073050305,-0.0016260070068638,0.0016260121993751,-0.0016260104986239,0.001626008623917,-0.0013696748993917,0.0013696871379375,-0.0013696853081368,0.0013696764673109,-0.0015337943728446,0.0015337872951926,-0.0015337904818365,0.0015337912688723,-1.4390342473465e-08,1.5457053035611e-08,-0.00086795806668821,0.00086795911478763,-4.6680534918135e-09,5.9400585674123e-09,-0.00099887909281943,0.00099886659839247,-0.00099887558093487,0.00099887011671563,-0.00099886913845302,0.00099887654266908,-0.00099886562521932,0.00099888006941138,-0.00098299765647211,0.00098303147349835,-0.00098302687044305,0.00098300227021782,0.74303041878849,125803,2834,0.0063863456084716,0.0063863456118027,0.0036142806701138,29.613212392279,-3.0943008617716e-06,-3.0943008617716e-06,-3.0943008617716e-06,3366484.8215846,0.016522786491457
33819200,0.99839433528504,0.01636317080476,0.0061572378884592,0.0061572378914459,0.004048695024855,-0.0015387620406927,0.0015387616576024,1.47611765646e-08,-1.5143001682811e-08,1.7425803770715e-09,-2.1668507517263e-09,-0.0016267560154864,0.0016267669026092,-0.0016267659990198,0.0016267569511491,-0.001626757298093,0.0016267655980342,-0.0016267672618256,0.0016267556280594,-0.0013704567910417,0.0013704843983809,-0.001370486056672,0.0013704550672458,-1.7862634261138e-09,2.1986132460988e-09,5.523682159654e-09,-5.1561392603893e-09,-0.0015387616647535,0.0015387620354006,-0.0016267601765224,0.0016267627612451,-0.0016267636533343,0.0016267591978324,-0.0016267588993222,0.0016267640790041,-0.0016267623772465,0.0016267605179928,-0.0013704645490347,0.0013704767468887,-0.0013704749167144,0.0013704661186471,-0.0015345761792534,0.0015345691141088,-0.0015345722860307,0.0015345730904968,-1.4479730102978e-08,1.5544231808476e-08,-0.00086848059610209,0.00086848164193155,-4.6396920661602e-09,5.9092710548917e-09,-0.00099955145266336,0.00099953891669606,-0.00099954796022513,0.00099954241528475,-0.00099954143919868,0.00099954891976994,-0.00099953794606196,0.00099955242680219,-0.0009835744912666,0.00098360845841395,-0.00098360387674217,0.00098357908237707,0.74517768545275,125803,2834,0.006389543202076,0.0063895432059234,0.0036164609096072,29.916868095972,-6.650552322248e-07,-6.650552322248e-07,-6.650552322248e-07,3362255.9888394,0.016531504847944
34019200,0.9984709872208,0.01636445059424,0.0061577214979681,0.0061577215009553,0.0040490075953163,-0.0015395285559791,0.0015395281729166,1.4851865776872e-08,-1.5233771859374e-08,1.7429881466733e-09,-2.167090431169e-09,-0.0016275019687726,0.0016275129163688,-0.0016275120126413,0.0016275029048434,-0.0016275032518817,0.0016275116114222,-0.0016275132755534,0.0016275015814217,-0.0013712387087871,0.0013712664930094,-0.0013712681511079,0.0013712369844466,-1.7851066466879e-09,2.1972544036952e-09,5.4962760688921e-09,-5.1289465875259e-09,-0.0015395281801972,0.0015395285506402,-0.0016275061684967,0.0016275087358016,-0.001627509627577,0.0016275051909557,-0.0016275048925374,0.0016275100526905,-0.0016275083520973,0.0016275065100485,-0.0013712465824125,0.0013712587252886,-0.0013712568956934,0.001371248150671,-0.0015353488365056,0.0015353417913316,-0.0015353449441395,0.0015353457637562,-1.4582425775318e-08,1.5644428586034e-08,-0.00086899274219763,0.00086899378570549,-4.6190925456783e-09,5.8860098020346e-09,-0.0010002156614278,0.0010002030702808,-0.0010002121837687,0.0010002065542854,-0.00100020558044,0.0010002131411356,-0.0010002021016292,0.0010002166335501,-0.00098414188397655,0.00098417603305729,-0.0009841714683726,0.00098414645764467,0.72426544589921,125803,2834,0.0063927124038743,0.0063927124078937,0.003618598161178,30.220603282304,1.7648262584346e-06,1.7648262584346e-06,1.7648262584346e-06,3358412.5734555,0.016540121825557
34219200,0.99854651184232,0.01636567785374,0.0061581863636204,0.0061581863666078,0.0040493051235119,-0.0015408616613233,0.0015408612783561,1.4953128221315e-08,-1.5334092233596e-08,1.7401362995011e-09,-2.1654965615665e-09,-0.0016288293256265,0.0016288403395291,-0.0016288394368189,0.0016288302606734,-0.0016288306070919,0.0016288390360989,-0.0016288406986239,0.0016288289383616,-0.0013725560456438,0.0013725840309954,-0.001372585685138,0.0013725543243429,-1.785877761425e-09,2.1981776693047e-09,5.4594083154099e-09,-5.0917333392769e-09,-0.0015408612851885,0.0015408616558099,-0.0016288335715654,0.0016288361138892,-0.0016288370063677,0.0016288325940922,-0.0016288322949281,0.0016288374314494,-0.0016288357305419,0.0016288339132452,-0.0013725640568303,0.0013725761285343,-0.0013725742990838,0.00137256562749,-0.0015366888367198,0.0015366818153065,-0.0015366849463323,0.00153668579249,-1.4675090080237e-08,1.5734256616026e-08,-0.00087005122187569,0.0008700522621195,-4.5794563077735e-09,5.8422253006395e-09,-0.0010014007482903,0.001001388120701,-0.0010013972982906,0.0010013915773501,-0.0010013906063434,0.0010013982526519,-0.0010013871553574,0.0010014017169151,-0.0009852869786877,0.00098532127549564,-0.00098531674281233,0.00098529152389403,0.70594348147494,125803,2834,0.0063982274918459,0.0063982274945735,0.003623003223352,30.831737563263,6.6539005061049e-06,6.6539005061049e-06,6.6539005061049e-06,3362363.6278821,0.016555813291447
34419200,0.99862091566618,0.016366891811705,0.0061586460697489,0.0061586460727383,0.0040495996692178,-0.0015422350987577,0.0015422347155818,1.5048353540364e-08,-1.5429932676795e-08,1.7411618123489e-09,-2.1664357965206e-09,-0.0016302133083888,0.0016302243872456,-0.00163022348457,0.00163021424564,-0.001630214591412,0.0016302230829734,-0.0016302247472428,0.0016302129210119,-0.0013738938770732,0.0013739220464032,-0.0013739237013481,0.0013738921554944,-1.7843340542312e-09,2.1962143451356e-09,5.422638193158e-09,-5.0554258750663e-09,-0.0015422347227888,0.0015422350930395,-0.0016302175977782,0.001630220117357,-0.0016302210103142,0.001630216623866,-0.0016302163237835,0.0016302214341398,-0.0016302197350133,0.0016302179393399,-0.0013739020164943,0.0013739140141671,-0.0013739121859907,0.0013739035868533,-0.0015380661671225,0.0015380591730952,-0.0015380622771916,0.0015380631441096,-1.4773015552901e-08,1.5829808096846e-08,-0.00087117859897845,0.00087117963689588,-4.5453826169587e-09,5.8055134246033e-09,-0.0010026186957489,0.0010026060258945,-0.0010026152703518,0.0010026094598692,-0.0010026084907812,0.0010026162229018,-0.0010026050625023,0.0010026196620461,-0.00098650506506837,0.00098653952771394,-0.00098653502057136,0.00098650958428622,0.70867957956131,125803,2834,0.0064039102716669,0.0064039102747525,0.003627692380269,31.475503915349,1.1804031322791e-05,1.1804031322791e-05,1.1804031322791e-05,3370030.1248685,0.016572134416285
34619200,0.9986940645067,0.016368134218541,0.0061591150045048,0.0061591150074956,0.0040499042065403,-0.0015436154596983,0.0015436150767041,1.5139959809444e-08,-1.5521627521934e-08,1.7408124391396e-09,-2.1652183583595e-09,-0.0016316024087732,0.0016316135474809,-0.0016316126445856,0.0016316033436982,-0.001631603690567,0.0016316122437292,-0.0016316139064213,0.0016316020214,-0.0013752418987024,0.0013752702492188,-0.0013752719049626,0.0013752401758066,-1.7846660585593e-09,2.1967120484561e-09,5.3895540629326e-09,-5.0222996362781e-09,-0.0015436150837879,0.0015436154541353,-0.0016316067391284,0.00163160923612,-0.001631610128281,0.0016316057627037,-0.0016316054635936,0.0016316105526221,-0.0016316088531362,0.0016316070810064,-0.0013752501595184,0.0013752620930651,-0.0013752602650239,0.0013752517289363,-0.0015394525525111,0.0015394455796777,-0.0015394486623525,0.0015394495519746,-1.4874850412695e-08,1.5928820271563e-08,-0.00087230784975321,0.00087230888485871,-4.5167317501403e-09,5.773834357059e-09,-0.0010038431658449,0.0010038304458648,-0.0010038397597852,0.0010038338585927,-0.0010038328927541,0.0010038407090151,-0.0010038294853682,0.0010038441296635,-0.00098772542254356,0.00098776005645688,-0.00098775557139144,0.00098772991721847,0.73613738140422,125803,2834,0.0064096215530869,0.0064096215562363,0.0036323896652791,32.120195999522,1.6961567996173e-05,1.6961567996173e-05,1.6961567996173e-05,3376931.0721201,0.016588522101288
34819200,0.99876694826566,0.016369382934955,0.006159586156026,0.0061595861590175,0.0040502106199116,-0.0015455908449876,0.0015455904614293,1.522499515979e-08,-1.5606159578714e-08,1.7419277025397e-09,-2.1687246121282e-09,-0.0016335656688121,0.0016335768662912,-0.0016335759620971,0.0016335666054492,-0.001633566952831,0.0016335755603643,-0.0016335772251297,0.001633565281673,-0.0013772039733309,0.0013772324875196,-0.0013772341429402,0.0013772022509254,-1.7816985513911e-09,2.1932984259261e-09,5.3452851937307e-09,-4.978165253454e-09,-0.0015455904685657,0.0015455908385229,-0.0016335700427228,0.0016335725128066,-0.0016335734037863,0.0016335690688783,-0.0016335687701877,0.0016335738267555,-0.0016335721301733,0.0016335703848893,-0.0013772123633571,0.0013772242059982,-0.0013772223820118,0.001377213932831,-0.0015414400014501,0.0015414330628475,-0.0015414361200771,0.0015414370351352,-1.498323765473e-08,1.6035388578474e-08,-0.00087391503406402,0.00087391606697578,-4.4854982621163e-09,5.7394255822152e-09,-0.0010056287706014,0.0010056159990171,-0.0010056253869553,0.0010056193897952,-0.0010056184263327,0.0010056263336728,-0.0010056150400474,0.0010056297327193,-0.00098944613023103,0.00098948095404945,-0.00098947649398372,0.00098945060478249,0.74236046707571,125803,2834,0.0064177940284396,0.006417794029829,0.0036390767533954,33.050508805648,2.440407044518e-05,2.440407044518e-05,2.440407044518e-05,3382255.5866033,0.016611937861402
35019200,0.99883971948423,0.016370592119279,0.0061600438098089,0.0061600438128033,0.0040505044966672,-0.0015477721108344,0.0015477717287012,1.5358064537259e-08,-1.5738114417349e-08,1.7367517038982e-09,-2.1614322717866e-09,-0.0016357338553487,0.0016357451382203,-0.0016357442377212,0.0016357347888255,-0.0016357351331265,0.0016357438385888,-0.0016357454974732,0.0016357334682895,-0.0013793712687336,0.0013794000557658,-0.0013794017094103,0.0013793695502928,-1.787036555554e-09,2.1996117076288e-09,5.3306193784716e-09,-4.962619524483e-09,-0.001547771734854,0.0015477721057839,-0.0016357382785439,0.0016357407345982,-0.0016357416295341,0.0016357373017002,-0.0016357370002127,0.0016357420547426,-0.0016357403528341,0.0016357386206,-0.0013793798041843,0.0013793916279533,-0.0013793898016755,0.0013793813775308,-0.0015436311528859,0.0015436242201829,-0.0015436272693781,0.0015436282046491,-1.504385651272e-08,1.6093216863919e-08,-0.00087568403627487,0.00087568506586502,-4.4358291521646e-09,5.6865228574352e-09,-0.0010076062945143,0.001007593514303,-0.0010076029441659,0.0010075968716082,-0.0010075959106996,0.0010076038885351,-0.001007592560765,0.0010076072513636,-0.00099134057529239,0.00099137546851709,-0.00099137104733554,0.00099134501295135,0.72136487568036,125803,2834,0.0064268179332831,0.0064268179355634,0.0036464377379086,34.082407816888,3.2659262535104e-05,3.2659262535104e-05,3.2659262535104e-05,3387976.9345052,0.016637770727652
35219200,0.99891210060895,0.016371760640564,0.0061604873508178,0.0061604873538144,0.0040507859359322,-0.001549928405642,0.0015499280230793,1.5443338514786e-08,-1.582442003883e-08,1.7387707753934e-09,-2.1630623139311e-09,-0.001637894409849,0.0016379057485015,-0.0016379048465856,0.0016378953437949,-0.0016378956897253,0.0016379044466915,-0.0016379061074202,0.0016378940224978,-0.001381489834746,0.0013815187822781,-0.0013815204361846,0.001381488113995,-1.7855194424302e-09,2.1977357380717e-09,5.300564531256e-09,-4.9330878979333e-09,-0.0015499280297944,0.0015499284003111,-0.0016378988701595,0.001637901306731,-0.00163790220014,0.001637897893911,-0.001637897593688,0.0016379026246187,-0.0016379009246426,0.0016378992123303,-0.0013814984804578,0.0013815102411619,-0.0013815084138668,0.0013815000518189,-0.0015457937091742,0.0015457867954972,-0.0015457898193467,0.0015457907695478,-1.5152517630631e-08,1.6199012432613e-08,-0.00087746238885359,0.00087746341621904,-4.4186790469838e-09,5.6667463804552e-09,-0.0010095516407303,0.0010095387981892,-0.0010095483024065,0.0010095421431048,-0.0010095411843845,0.0010095492446264,-0.0010095378458161,0.0010095525965617,-0.00099325251664902,0.00099328760946991,-0.00099328320078296,0.00099325693594579,0.70214228602018,125803,2834,0.0064357391860038,0.0064357391888696,0.0036538354166399,35.116957711841,4.0935661694731e-05,4.0935661694731e-05,4.0935661694731e-05,3397491.1235076,0.016663432354944
35419200,0.99898295911912,0.016372868778273,0.0061609093051704,0.0061609093081677,0.0040510501649353,-0.0015516214302275,0.001551621047482,1.5527929256302e-08,-1.5909651408894e-08,1.7411467414563e-09,-2.1648119462457e-09,-0.0016396081749629,0.001639619571694,-0.0016396186687212,0.0016396091099255,-0.0016396094565117,0.0016396182681183,-0.0016396199306312,0.0016396077876207,-0.0013831301480589,0.0013831592585265,-0.0013831609155181,0.0013831284253866,-1.7853776240568e-09,2.1975108564153e-09,5.300508229399e-09,-4.9332114648091e-09,-0.0015516210545916,0.0015516214250238,-0.0016396126636193,0.0016396151007198,-0.00163961599391,0.0016396116873342,-0.0016396113875408,0.0016396164180429,-0.0016396147182867,0.0016396130060249,-0.0013831388750617,0.0013831506345099,-0.0013831488073738,0.0013831404459959,-0.0015474878820115,0.0015474809676761,-0.0015474839900148,0.001547484940874,-1.525956752785e-08,1.6306609378277e-08,-0.00087886119839086,0.00087886222659752,-4.4285410993593e-09,5.6777854333842e-09,-0.0010110576488252,0.0010110447289741,-0.0010110543039597,0.0010110480805102,-0.0010110471213357,0.0010110552466751,-0.0010110437753691,0.0010110586058702,-0.00099476871819722,0.00099480402970966,-0.00099479961278609,0.000994773144082,0.68162296874549,125803,2834,0.0064427439957239,0.0064427439996707,0.0036596534479925,35.929322789992,4.743458231994e-05,4.743458231994e-05,4.743458231994e-05,3407538.9022423,0.016683591236852
35619200,0.99905149283656,0.016373899587304,0.0061613032837607,0.0061613032867576,0.0040512930167855,-0.0015529532628115,0.0015529528805574,1.5628418416663e-08,-1.6010199480749e-08,1.7494447519578e-09,-2.171816232152e-09,-0.0016409752520378,0.0016409867235088,-0.0016409858219563,0.0016409761997366,-0.0016409765406332,0.0016409854186692,-0.0016409870863139,0.001640974866639,-0.0013843929439544,0.0013844222366881,-0.0013844239075629,0.0013843912183687,-1.7808454351591e-09,2.1922751812311e-09,5.3286502114157e-09,-4.9620719228662e-09,-0.0015529528888573,0.0015529532589182,-0.0016409797652959,0.0016409822242757,-0.0016409831245292,0.0016409788028012,-0.0016409784979732,0.0016409835457078,-0.0016409818453397,0.001640980108349,-0.0013844017429569,0.0013844135475404,-0.0013844117295949,0.0013844033111196,-0.001548818580243,0.0015488116553533,-0.0015488146927541,0.0015488156291545,-1.5345657205058e-08,1.6403989313769e-08,-0.00087998007075817,0.00087998110822346,-4.4455324172053e-09,5.7067514789601e-09,-0.0010122203336476,0.0010122073467518,-0.0010122169766241,0.001012210717508,-0.001012209750271,0.0010122179276777,-0.0010122063855866,0.001012221296613,-0.00099599251346663,0.00099602803344831,-0.00099602359835995,0.00099599697118056,0.65729898643405,125803,2834,0.0064482550484274,0.0064482550575506,0.0036643053047253,36.573856310999,5.2590850487989e-05,5.2590850487989e-05,5.2590850487989e-05,3418715.7752608,0.016699526888454
35819200,0.99911758855989,0.016374956455585,0.0061617048488317,0.0061617048518263,0.0040515467549269,-0.0015542444591509,0.0015542440760053,1.5719139037622e-08,-1.6101234496044e-08,1.7445467260009e-09,-2.168891333388e-09,-0.0016423160750462,0.0016423276021805,-0.0016423266977684,0.0016423170129492,-0.0016423173594473,0.0016423262964379,-0.0016423279618607,0.0016423156875072,-0.0013855935401777,0.0013856230222846,-0.0013856246824672,0.0013855918152333,-1.7867240275721e-09,2.1989973785843e-09,5.3580153587267e-09,-4.9906171272195e-09,-0.0015542440834061,0.0015542444540268,-0.0016423206100033,0.0016423230848231,-0.0016423239794303,0.0016423196338857,-0.0016423193337625,0.0016423244037897,-0.0016423227022638,0.0016423209525389,-0.0013856023978687,0.0013856142703199,-0.0013856124420357,0.0013856039696829,-0.0015501117308912,0.0015501047751296,-0.0015501078355746,0.0015501087519259,-1.5449814421062e-08,1.6502139702901e-08,-0.00088111532529647,0.00088111635853273,-4.4831188502762e-09,5.7382848009881e-09,-0.001013338456017,0.0010133253745338,-0.0010133350730844,0.0010133287645154,-0.0010133278004537,0.001013336020693,-0.0010133244160594,0.0010133394178541,-0.00099723632233987,0.00099727205501143,-0.00099726759510072,0.00099724079238692,0.69619234622703,125803,2834,0.006453599194893,0.006453599199603,0.0036690217849657,37.214085959153,5.7712687673225e-05,5.7712687673225e-05,5.7712687673225e-05,3433437.4093831,0.016715188506391
36019200,0.99918116114901,0.016376034192752,0.0061621123550192,0.0061621123580137,0.0040518094797195,-0.0015555932902169,0.001555592906881,1.5814839201224e-08,-1.6197050930742e-08,1.7454105220243e-09,-2.1699999602261e-09,-0.0016436831552237,0.0016436947466924,-0.0016436938417883,0.0016436840935348,-0.0016436844402242,0.0016436934402737,-0.001643695106491,0.0016436827675711,-0.0013868955422922,0.0013869252114356,-0.0013869268721434,0.0013868938163898,-1.7876175772748e-09,2.200057753857e-09,5.3922623069579e-09,-5.0246987244104e-09,-0.0015555929142215,0.0015555932849748,-0.0016436877115605,0.0016436902084673,-0.0016436911032792,0.0016436867344959,-0.001643686434499,0.0016436915279407,-0.0016436898255142,0.0016436880540205,-0.0013869044595971,0.0013869163999882,-0.0013869145703746,0.0013869060316899,-0.0015514688444669,0.0015514618642659,-0.0015514649475749,0.0015514658430356,-1.554494737325e-08,1.6599784025404e-08,-0.00088223000792984,0.00088223104378517,-4.5158872832378e-09,5.7739998083263e-09,-0.0010145274543899,0.0010145142883025,-0.0010145240487267,0.0010145177011944,-0.0010145167345957,0.0010145249988635,-0.0010145133273068,0.001014528418771,-0.0009984513340126,0.00099848728039518,-0.00099848279556816,0.00099845582971007,0.73586309336933,125803,2834,0.0064591799245362,0.0064591799288781,0.0036736579935353,37.854145616544,6.2833164932353e-05,6.2833164932353e-05,6.2833164932353e-05,3439998.1061629,0.016731250910118
36219200,0.99924007347216,0.016377000594233,0.0061624789843627,0.0061624789873573,0.0040520426225126,-0.001555683940448,0.0015556835565552,1.5899859726788e-08,-1.6284001566224e-08,1.7522306509682e-09,-2.1752512349797e-09,-0.0016437676083085,0.0016437792600434,-0.0016437783524229,0.0016437685498451,-0.0016437688975302,0.0016437779495864,-0.0016437796205365,0.0016437672202265,-0.0013869958115334,0.0013870256405842,-0.0013870273102432,0.0013869940790146,-1.7851774418193e-09,2.197164441501e-09,5.4618579441476e-09,-5.0950640015679e-09,-0.0015556835648898,0.0015556839351501,-0.0016437721701083,0.0016437747147746,-0.0016437756080282,0.0016437711939218,-0.0016437708950507,0.0016437760324339,-0.0016437743315097,0.001643772512069,-0.0013870047401575,0.0013870168138348,-0.0013870149854715,0.0013870063075336,-0.0015515607421378,0.0015515537190593,-0.0015515568442959,0.0015515576887679,-1.5648201175237e-08,1.6708699687929e-08,-0.00088214451961021,0.00088214556177292,-4.5910133855859e-09,5.8570828328421e-09,-0.0010145590333485,0.001014545750007,-0.0010145555752353,0.0010145492152072,-0.0010145482430778,0.001014556531108,-0.0010145447826809,0.0010145600041069,-0.00099840139646025,0.00099843760967875,-0.00099843306458012,0.00099840594739863,0.71361054629195,125803,2834,0.0064595517632272,0.0064595517695161,0.0036733121378437,37.827180333337,6.2617442666694e-05,6.2617442666694e-05,6.2617442666694e-05,3431417.45974,0.016731656556208
36419200,0.99929381906548,0.016377870306405,0.0061628092681176,0.0061628092711104,0.0040522517671772,-0.0015551328147966,0.001555132430908,1.6004307746972e-08,-1.6387763431547e-08,1.7516101010432e-09,-2.1756278208282e-09,-0.001643223134597,0.0016432348561711,-0.0016432339489419,0.0016432240765035,-0.0016432244235803,0.0016432335462912,-0.0016432352169243,0.0016432227466097,-0.0013864403169484,0.0013864703523878,-0.0013864720205604,0.0013864385853974,-1.7881832148773e-09,2.2007357760566e-09,5.5504663306727e-09,-5.1829473296014e-09,-0.0015551324387551,0.0015551328095915,-0.0016432277036527,0.0016432303051209,-0.0016432312000303,0.0016432267256348,-0.0016432264263182,0.0016432316255222,-0.0016432299212391,0.0016432280455688,-0.0013864492621071,0.0013864615125668,-0.0013864596808705,0.0013864508317842,-0.0015510095256026,0.0015510024384349,-0.0015510056245888,0.0015510064170977,-1.573250756571e-08,1.679959585279e-08,-0.00088153897954351,0.00088154002809543,-4.6675689098157e-09,5.9408388936694e-09,-0.0010139856858707,0.0010139722967673,-0.001013982174258,0.0010139758156304,-0.0010139748371794,0.0010139831363737,-0.0010139713235928,0.0010139866624084,-0.00099781389814896,0.00099785034176728,-0.00099784573814352,0.00099781851090236,0.70434019492899,125803,2834,0.0064572689066322,0.0064572689121018,0.0036708018344912,37.496725000913,5.9973800007304e-05,5.9973800007304e-05,5.9973800007304e-05,3423588.6165637,0.016724462348495
36619200,0.99934289229068,0.016378619522949,0.0061630952270694,0.0061630952300614,0.0040524290658178,-0.0015545396196042,0.0015545392358392,1.6099021592471e-08,-1.6482077760368e-08,1.7502999935955e-09,-2.1744020664506e-09,-0.001642641261282,0.0016426530447828,-0.0016426521379453,0.0016426422022726,-0.0016426425494607,0.0016426517354199,-0.0016426534054132,0.0016426408732808,-0.0013858341723622,0.001385864394725,-0.0013858660605684,0.0013858324426477,-1.7911178492851e-09,2.2040880593349e-09,5.6250937671731e-09,-5.2571180237633e-09,-0.0015545392435831,0.0015545396148368,-0.0016426458377138,0.001642648486828,-0.0016426493822557,0.0016426448571705,-0.001642644558077,0.0016426498087309,-0.0016426481020169,0.0016426461795562,-0.001385843137639,0.0013858555369909,-0.0013858537015892,0.0013858447096084,-0.0015504158431796,0.0015504087006873,-0.0015504119363573,0.0015504126848277,-1.5827694293185e-08,1.6899339430457e-08,-0.00088093049306255,0.00088093154654317,-4.7404707666552e-09,6.0193384879201e-09,-0.0010133746189359,0.0010133611192133,-0.0010133710567553,0.0010133646884811,-0.0010133637049507,0.0010133720238921,-0.0010133601410249,0.0010133756005205,-0.00099721849435638,0.0009972551839785,-0.0009972505252589,0.00099722316210549,0.66675280376566,125803,2834,0.006454812733834,0.0064548127399925,0.0036682770992025,37.158375918482,5.7267007347853e-05,5.7267007347853e-05,5.7267007347853e-05,3417725.230861,0.016716900749447
36819200,0.99938775521597,0.016379285825038,0.0061633500606916,0.0061633500636828,0.0040525857006639,-0.0015538872454021,0.0015538868614506,1.6195936025095e-08,-1.657891907652e-08,1.7501394120894e-09,-2.1750057964188e-09,-0.0016420267676795,0.0016420386160021,-0.0016420377090654,0.0016420277088389,-0.0016420280560216,0.0016420373065136,-0.00164203897666,0.0016420263796852,-0.001385133069193,0.0013851634818795,-0.0013851651470957,0.0013851313391765,-1.7913644244582e-09,2.2044402265136e-09,5.6860672938197e-09,-5.3179472464172e-09,-0.0015538868688958,0.0015538872402226,-0.0016420313571188,0.0016420340464615,-0.0016420349416631,0.0016420303760192,-0.0016420300772045,0.001642035368491,-0.0016420336612625,0.0016420316986475,-0.0013851420700336,0.00138515458929,-0.0013851527530649,0.0013851436417888,-0.0015497597065402,0.0015497525232128,-0.0015497558005454,0.001549756509157,-1.5920436999759e-08,1.6996612809499e-08,-0.00088035392502133,0.00088035498292125,-4.797672669237e-09,6.0815380696295e-09,-0.0010127034927798,0.0010126898941065,-0.0010126998907648,0.0010126935031335,-0.0010126925153735,0.0010127008620738,-0.0010126889117398,0.0010127044785324,-0.00099665466901454,0.00099669158878746,-0.00099668688590934,0.00099665938174961,0.64957833208249,125803,2834,0.0064521137084229,0.0064521137131117,0.0036658793807861,36.819714011823,5.4557712094588e-05,5.4557712094588e-05,5.4557712094588e-05,3418812.0494113,0.016708973602173
37019200,0.99942998755276,0.01637995442452,0.006163604095761,0.0061636040987524,0.0040527462300066,-0.0015542582918395,0.0015542579077055,1.6293118063663e-08,-1.6674915948587e-08,1.7475244927969e-09,-2.174826871179e-09,-0.0016424420300132,0.001642453942275,-0.0016424530357827,0.00164244297041,-0.0016424433175523,0.0016424526334758,-0.0016424543026457,0.0016424416420976,-0.0013854292385326,0.0013854598445385,-0.0013854615041997,0.0013854275111942,-1.7891656815695e-09,2.2019235324e-09,5.6923929433079e-09,-5.3242675467554e-09,-0.0015542579148211,0.0015542582858715,-0.001642446649839,0.0016424493447772,-0.0016424502385008,0.0016424456699136,-0.0016424453714967,0.0016424506649164,-0.0016424489598883,0.0016424469909474,-0.0013854383327698,0.0013854508634921,-0.0013854490288372,0.0013854399039371,-0.0015501354227077,0.0015501282395929,-0.0015501315261884,0.0015501322244595,-1.601580085233e-08,1.7092118816561e-08,-0.00088073446290711,0.00088073552053847,-4.8035665798898e-09,6.0864557535364e-09,-0.0010129902415151,0.0010129765753066,-0.0010129866357966,0.0010129801880126,-0.0010129792002318,0.0010129876069131,-0.001012975593072,0.001012991227053,-0.00099709418402366,0.00099713129451178,-0.00099712658951897,0.00099709890356993,0.68961815102187,125803,2834,0.0064536509553542,0.0064536509577251,0.0036674566439517,37.01598910251,5.612791282008e-05,5.612791282008e-05,5.612791282008e-05,3428693.72733,0.016713701970911
37219200,0.99946998329995,0.016380630424922,0.0061638595157263,0.0061638595187194,0.0040529113904761,-0.0015549497208034,0.001554949337753,1.6385945471849e-08,-1.6767452567775e-08,1.7422547841946e-09,-2.1671105994352e-09,-0.0016431481549931,0.0016431601253855,-0.0016431592220245,0.0016431490915997,-0.0016431494381577,0.0016431588207012,-0.0016431604847404,0.0016431477679478,-0.001386087727425,0.0013861185192648,-0.0013861201753555,0.0013860860039445,-1.7911111264904e-09,2.2041545369845e-09,5.6723496894321e-09,-5.304122622897e-09,-0.0015549493444682,0.0015549497157579,-0.0016431528105049,0.0016431554909897,-0.0016431563853657,0.0016431518290012,-0.0016431515305207,0.0016431568121316,-0.0016431551057108,0.0016431531519558,-0.0013860969316859,0.001386109424658,-0.0013861075877952,0.0013860985034725,-0.0015508344060722,0.001550827232122,-0.0015508305021359,0.0015508312175214,-1.6116484085359e-08,1.7190329238095e-08,-0.00088132071104664,0.00088132176659624,-4.7884272595805e-09,6.0693286166999e-09,-0.0010135992186992,0.0010135854949625,-0.0010135956237074,0.001013589096701,-0.0010135881110556,0.0010135965928211,-0.001013584514713,0.0010136002024424,-0.00099773898593565,0.00099777627718503,-0.00099777158408546,0.000997743689781,0.73362542668798,125803,2834,0.0064565119148091,0.0064565119182632,0.0036698946198595,37.342560498269,5.8740483986151e-05,5.8740483986151e-05,5.8740483986151e-05,3431893.071261,0.016721998500689
37419200,0.99950781722618,0.01638122635418,0.0061640861676517,0.0061640861706454,0.0040530540158829,-0.0015557050070028,0.0015557046239694,1.648309368245e-08,-1.6864926503837e-08,1.7431825241469e-09,-2.1675014417306e-09,-0.0016438870809171,0.0016438991165719,-0.0016438982131846,0.0016438880181234,-0.0016438883644806,0.0016438978117422,-0.0016438994761202,0.0016438866939083,-0.0013868540999534,0.0013868850806233,-0.0013868867389822,0.0013868523757269,-1.7868178773521e-09,2.1991641764392e-09,5.6463393165853e-09,-5.2788443324145e-09,-0.0015557046311095,0.0015557050017397,-0.0016438917760358,0.0016438944418476,-0.001643895334489,0.0016438907975048,-0.001643890499274,0.001643895760393,-0.0016438940574493,0.0016438921170177,-0.0013868634252665,0.0013868758635498,-0.0013868740314107,0.0013868649935679,-0.0015515969578722,0.0015515898096697,-0.0015515930622466,0.0015515937862713,-1.6212305362265e-08,1.7284122898616e-08,-0.00088187510937826,0.00088187616281094,-4.7621229548372e-09,6.0408659248737e-09,-0.0010142824948462,0.0010142687239901,-0.0010142789181678,0.0010142723075581,-0.0010142713241619,0.001014279885086,-0.0010142677459776,0.001014283476277,-0.00099834408693638,0.00099838154385583,-0.00099837687077602,0.00099834877030326,0.68665558563698,125803,2834,0.0064596348649288,0.0064596348688133,0.003672206298729,37.672606587541,6.1380852700325e-05,6.1380852700325e-05,6.1380852700325e-05,3427151.8586266,0.01673070058673
37619200,0.99954355747557,0.016381769813696,0.0061642935121996,0.0061642935151936,0.0040531827863024,-0.0015563898087313,0.001556389425908,1.6579646055076e-08,-1.6961358265912e-08,1.7424792546902e-09,-2.1663909265972e-09,-0.0016445903340229,0.0016446024334962,-0.0016446015304978,0.0016445912706828,-0.0016445916169365,0.0016446011292515,-0.0016446027928655,0.001644589947135,-0.0013875009923144,0.0013875321627591,-0.001387533820629,0.0013874992688485,-1.7845684661289e-09,2.1965027688681e-09,5.6152573043157e-09,-5.2481559550189e-09,-0.0015563894332359,0.0015563898034869,-0.0016445950704351,0.0016445977170008,-0.0016445986084864,0.0016445940932399,-0.001644593795247,0.0016445990338991,-0.0016445973331057,0.0016445954111904,-0.0013875104435366,0.0013875228192847,-0.0013875209894619,0.0013875120101156,-0.001552283043356,0.0015522759201434,-0.0015522791522451,0.0015522798915801,-1.6309359194082e-08,1.7378314355337e-08,-0.0008824548104313,0.00088245586102437,-4.7321509049039e-09,6.0077312941056e-09,-0.001014882147007,0.0010148683306481,-0.0010148785913314,0.001014871893168,-0.0010148709125465,0.0010148795555027,-0.001014867355396,0.0010148831256834,-0.00099898463821461,0.00099902225829271,-0.00099901760901371,0.00099898929747638,0.66415285420783,125803,2834,0.0064624683915554,0.006462468395867,0.0036746169226649,38.002790974827,6.4022327798614e-05,6.4022327798614e-05,6.4022327798614e-05,3431692.347478,0.016738913566498
37819200,0.99957636437727,0.016382249452582,0.0061644771724597,0.0061644771754538,0.0040532951046683,-0.0015560068696202,0.0015560064863829,1.6678416232774e-08,-1.706115161053e-08,1.7462630655091e-09,-2.1696709007492e-09,-0.0016442455103856,0.0016442576776592,-0.0016442567729236,0.0016442464488046,-0.0016442467955349,0.0016442563711633,-0.0016442580375949,0.0016442451229119,-0.0013870723049729,0.001387103666068,-0.0013871053285639,0.0013870705781011,-1.7822651808457e-09,2.1937767618142e-09,5.6125125452109e-09,-5.2459402078114e-09,-0.0015560064942915,0.0015560068641263,-0.0016442502805032,0.0016442529265838,-0.0016442538168046,0.0016442493045165,-0.001644249006874,0.001644254241895,-0.0016442525430552,0.0016442506207915,-0.001387081853712,0.0013870942224395,-0.0013870923946033,0.0013870834178971,-0.0015518933851141,0.0015518862683427,-0.0015518894970858,0.001551890232754,-1.6402625645393e-08,1.7470553002333e-08,-0.0008821268509844,0.00088212790078702,-4.7257539999629e-09,6.0007719050392e-09,-0.0010144821281245,0.0010144682536056,-0.0010144785769143,0.0010144718116815,-0.0010144708318807,0.0010144795403481,-0.0010144672791817,0.0010144831059907,-0.00099867139094008,0.00099870918702482,-0.00099870454219849,0.00099867604332037,0.64016140861893,125803,2834,0.0064608843332382,0.0064608843382381,0.0036732525055219,37.804414523224,6.2435316185789e-05,6.2435316185789e-05,6.2435316185789e-05,3433845.712735,0.016734304493887
38019200,0.99960643033713,0.01638270781393,0.0061646518917864,0.0061646518947802,0.0040534040273634,-0.0015554959385883,0.0015554955558928,1.6770837156143e-08,-1.7152918583876e-08,1.7440352839192e-09,-2.1668328649198e-09,-0.0016437840659452,0.0016437962932244,-0.0016437953897978,0.0016437850030731,-0.0016437853494263,0.0016437949884798,-0.0016437966526957,0.0016437836789693,-0.0013864963666459,0.0013865279107365,-0.0013865295708946,0.0013864946414299,-1.7860064120242e-09,2.1980813314267e-09,5.6040897741197e-09,-5.2369763151596e-09,-0.0015554955634438,0.0015554959338352,-0.0016437888698052,0.0016437915079225,-0.001643792400382,0.0016437878917238,-0.0016437875935725,0.0016437928260209,-0.0016437911239007,0.0016437892108004,-0.001386506014429,0.0013865183692669,-0.0013865165380542,0.0013865075809316,-0.0015513796655973,0.0015513725467003,-0.0015513757692184,0.0015513765189465,-1.6502731628789e-08,1.7570275270798e-08,-0.00088174228176943,0.00088174333112772,-4.7217226393829e-09,5.9962922190312e-09,-0.0010139582660567,0.0010139443271913,-0.0010139547176282,0.0010139478823678,-0.0010139469030974,0.0010139556805336,-0.0010139433532421,0.0010139592434815,-0.00099830080788228,0.00099833879519021,-0.00099833415452373,0.00099830545699329,0.66569813140017,125803,2834,0.0064587719731384,0.0064587719789276,0.0036716491942285,37.560224608782,6.0481796870259e-05,6.0481796870259e-05,6.0481796870259e-05,3439120.8800505,0.016728377574636
38219200,0.99963400832524,0.016383131596609,0.0061648132749888,0.006164813277982,0.0040535050436384,-0.0015550203859981,0.0015550200029145,1.6867175082379e-08,-1.7249260840686e-08,1.7446213287218e-09,-2.168586354999e-09,-0.001643335010752,0.0016433473030513,-0.0016433463988569,0.0016433359484323,-0.0016433362950495,0.0016433459973375,-0.0016433476626617,0.0016433346235243,-0.001385986144386,0.0013860178767666,-0.0013860195366585,0.0013859844190637,-1.7863885318801e-09,2.1985671363004e-09,5.5939822140493e-09,-5.2266871689491e-09,-0.0015550200103226,0.001555020380799,-0.0016433398510026,0.0016433424822858,-0.0016433433748535,0.001643338872734,-0.001643338574485,0.0016433438004436,-0.0016433420982326,0.0016433401920899,-0.0013859958964168,0.0013860082317702,-0.0013860064005796,0.0013859974645713,-0.0015509055200738,0.0015508984074894,-0.0015509016246812,0.0015509023822065,-1.6598902789488e-08,1.7665383577864e-08,-0.00088134391855304,0.00088134496671469,-4.7118874561167e-09,5.9848408821475e-09,-0.00101348568714,0.0010134716905148,-0.0010134821458347,0.0010134752386269,-0.0010134742604141,0.0010134831076009,-0.0010134707176481,0.0010134866634459,-0.00099790938191533,0.0009979475491925,-0.00099794291661402,0.0009979140239558,0.67076171021303,125803,2834,0.006456804703148,0.0064568047077194,0.0036699921789977,37.314689928157,5.8517519425253e-05,5.8517519425253e-05,5.8517519425253e-05,3438536.8617237,0.016722691890959
38419200,0.9996594971116,0.01638354930333,0.006164971399413,0.0061649714024063,0.0040536065015106,-0.0015548025077282,0.0015548021258996,1.6957573618178e-08,-1.7337808766726e-08,1.7382792432329e-09,-2.1618730794379e-09,-0.0016431363548899,0.0016431487033027,-0.0016431478039336,0.0016431372906251,-0.0016431376351241,0.0016431474033349,-0.001643149062075,0.0016431359695837,-0.0013857393256079,0.0013857712391328,-0.0013857728922035,0.001385737603701,-1.7930754748927e-09,2.2065514799378e-09,5.5685348655901e-09,-5.1998648077105e-09,-0.0015548021319124,0.0015548025036617,-0.0016431412341163,0.0016431438436434,-0.001643144742775,0.0016431402540794,-0.0016431399538343,0.0016431451689266,-0.0016431434592294,0.0016431415771211,-0.0013857491936803,0.0013857614828214,-0.0013857596442842,0.0013857507641453,-0.0015506918782435,0.0015506847664539,-0.0015506879653123,0.0015506887553269,-1.670094770956e-08,1.7768465179733e-08,-0.00088116878654337,0.00088116983490423,-4.6938041196863e-09,5.9669475237544e-09,-0.0010132604514623,0.0010132463974043,-0.0010132569218842,0.0010132499340288,-0.0010132489561323,0.0010132578834608,-0.0010132454248934,0.001013261427502,-0.00099774981021259,0.0009977881634834,-0.00099778354668384,0.0009977544416719,0.7125373164875,125803,2834,0.0064559035190965,0.0064559035231203,0.0036692635899035,37.196796392379,5.7574371139034e-05,5.7574371139034e-05,5.7574371139034e-05,3438131.0952603,0.016720118247648
38619200,0.99968320730562,0.016383939994393,0.006165119249853,0.0061651192528467,0.0040537014916938,-0.0015548678313473,0.0015548674495258,1.7065995221619e-08,-1.7445957842316e-08,1.7402439284484e-09,-2.1642012820188e-09,-0.0016431885126543,0.001643200935291,-0.0016432000355546,0.0016431894500603,-0.001643189793694,0.001643199634918,-0.0016432012945317,0.0016431881275479,-0.0013858185013182,0.00138585062825,-0.0013858522854263,0.0013858167785222,-1.7911139741681e-09,2.2044075183372e-09,5.5448676881624e-09,-5.176283215873e-09,-0.001554867455553,0.0015548678271838,-0.0016431934362775,0.0016431960311736,-0.0016431969307902,0.0016431924581458,-0.0016431921571514,0.0016431973565331,-0.0016431956476381,0.0016431937794054,-0.0013858285000218,0.0013858407424405,-0.0013858389089149,0.0013858300700968,-0.0015507647218165,0.0015507576326603,-0.0015507608195936,0.0015507616236748,-1.6785016575015e-08,1.7851541889796e-08,-0.00088116396733601,0.00088116501396173,-4.6577868621432e-09,5.9291646308451e-09,-0.0010133164861279,0.0010133023996634,-0.0010133129813339,0.0010133059116311,-0.0010133049358007,0.0010133139408937,-0.0010133014296252,0.0010133174596169,-0.00099776101839618,0.00099779950692537,-0.00099779491766555,0.00099776562663175,0.71625965420011,125803,2834,0.0064561721906056,0.0064561721944575,0.0036692485214553,37.19373501648,5.754988013184e-05,5.754988013184e-05,5.754988013184e-05,3431225.4563655,0.016720650051659
38819200,0.999705266631,0.016384304729463,0.0061652572487588,0.0061652572517531,0.0040537902289508,-0.0015549393604519,0.0015549389775648,1.7161391408743e-08,-1.7543095382655e-08,1.7435134115091e-09,-2.1675646296826e-09,-0.0016432455998376,0.0016432580875874,-0.001643257184089,0.0016432465370982,-0.0016432468833327,0.0016432567828384,-0.0016432584470509,0.001643245212825,-0.0013859084957003,0.0013859408055667,-0.0013859424642719,0.0013859067710291,-1.788264696741e-09,2.2008102724913e-09,5.5155800872443e-09,-5.147891984724e-09,-0.0015549389846527,0.0015549393554919,-0.0016432505642587,0.0016432531422544,-0.0016432540368279,0.0016432495857494,-0.0016432492865272,0.0016432544622901,-0.0016432527584745,0.0016432509061749,-0.0013859186127968,0.0013859307957792,-0.0013859289637745,0.0013859201830786,-0.0015508412499288,0.0015508341857776,-0.0015508373508922,0.0015508381652622,-1.6884072799908e-08,1.7944440390722e-08,-0.00088115665255858,0.00088115769422321,-4.6316040182096e-09,5.8970861941355e-09,-0.0010133767505718,0.0010133626152468,-0.0010133732651382,0.0010133661074981,-0.0010133651356611,0.0010133742205368,-0.0010133616488819,0.0010133777203824,-0.00099776732444922,0.00099780598077283,-0.00099780141141542,0.00099777190486268,0.71844599038838,125803,2834,0.006456466399333,0.006456466403735,0.0036692233360438,37.193613764539,5.7548910116315e-05,5.7548910116315e-05,5.7548910116315e-05,3424594.8352077,0.0167212235131
38880000,0.99971182350306,0.016384413271006,0.0061652983092707,0.0061652983122651,0.0040538166494701,-0.0015549615090512,0.0015549611261027,1.7183485687249e-08,-1.756528834691e-08,1.7439093056501e-09,-2.1679561848973e-09,-0.0016432628196519,0.0016432753223085,-0.0016432744185662,0.0016432637570205,-0.0016432641034275,0.0016432740172365,-0.0016432756817433,0.0016432624326024,-0.0013859367083664,0.0013859690611408,-0.0013859707202751,0.0013859349833283,-1.787889081804e-09,2.2003808036567e-09,5.504847683328e-09,-5.1372230287158e-09,-0.0015549611332434,0.0015549615040247,-0.0016432677949091,0.0016432703660278,-0.0016432712603701,0.0016432668165492,-0.0016432665174396,0.0016432716857098,-0.0016432699822724,0.0016432681368582,-0.0013859468574251,0.0013859590189952,-0.0013859571873844,0.0013859484274494,-0.0015508637315391,0.0015508566751723,-0.0015508598331264,0.0015508606537952,-1.6920568117647e-08,1.7980515094753e-08,-0.00088115074441901,0.0008811517857101,-4.6273966065042e-09,5.8924359850785e-09,-0.0010133946746853,0.0010133805177704,-0.0010133911922439,0.001013384007005,-0.0010133830355801,0.0010133921472354,-0.0010133795517117,0.0010133956442156,-0.00099776863767207,0.00099780736184111,-0.00099780279561529,0.00099777321460871,0.71909629338201,125803,2834,0.0064565573736512,0.0064565573780253,0.0036692007470938,37.193609112302,5.7548872898413e-05,5.7548872898413e-05,5.7548872898413e-05,3422429.7304212,0.01672138579533
