time,ASR_ext,ASR_strain,ASR_strain_xx,ASR_strain_yy,ASR_strain_zz,disp_x_101,disp_x_102,disp_x_103,disp_x_104,disp_x_105,disp_x_106,disp_x_p1_neg,disp_x_p1_pos,disp_x_p2_neg,disp_x_p2_pos,disp_x_p3_neg,disp_x_p3_pos,disp_x_p4_neg,disp_x_p4_pos,disp_x_p5_neg,disp_x_p5_pos,disp_x_p6_neg,disp_x_p6_pos,disp_y_101,disp_y_102,disp_y_103,disp_y_104,disp_y_105,disp_y_106,disp_y_p1_neg,disp_y_p1_pos,disp_y_p2_neg,disp_y_p2_pos,disp_y_p3_neg,disp_y_p3_pos,disp_y_p4_neg,disp_y_p4_pos,disp_y_p5_neg,disp_y_p5_pos,disp_y_p6_neg,disp_y_p6_pos,disp_y_p7_neg,disp_y_p7_pos,disp_y_p8_neg,disp_y_p8_pos,disp_z_101,disp_z_102,disp_z_103,disp_z_104,disp_z_105,disp_z_106,disp_z_p1_neg,disp_z_p1_pos,disp_z_p2_neg,disp_z_p2_pos,disp_z_p3_neg,disp_z_p3_pos,disp_z_p4_neg,disp_z_p4_pos,disp_z_p5_neg,disp_z_p5_pos,disp_z_p6_neg,disp_z_p6_pos,humidity,ndof,nelem,strain_xx,strain_yy,strain_zz,temp,thermal_strain_xx,thermal_strain_yy,thermal_strain_zz,vonmises,vstrain
2419200,0,0,0,0,0,0,0,0,0,0,0,0,0,0,0,0,0,0,0,0,0,0,0,0,0,0,0,0,0,0,0,0,0,0,0,0,0,0,0,0,0,0,0,0,0,0,0,0,0,0,0,0,0,0,0,0,0,0,0,0,0,0,0,0,0,0,0,0,0,0,0,0,0,0,0
2619200,0.01952677454215,0.00040058005570554,0.00013352668523518,0.00013352668523518,0.00013352668523518,-3.5399927422977e-05,3.5399532919037e-05,-1.8421139241878e-10,-2.1282806621926e-10,3.8873972654393e-10,-7.944857226205e-10,-3.4732554508594e-05,3.4732560335732e-05,-3.4732551021595e-05,3.4732537632357e-05,-3.4732925769336e-05,3.4732158504278e-05,-3.4732935467352e-05,3.4732149362839e-05,-3.5608294556921e-05,3.5607526583345e-05,-3.5608325978951e-05,3.5607502671447e-05,-3.8465525877382e-10,7.9437817279911e-10,-2.6692641208986e-09,3.0573267428195e-09,-3.5399534291863e-05,3.5399926050144e-05,-3.473345435427e-05,3.4731581641012e-05,-3.4731624977773e-05,3.4733501795566e-05,-3.4733077147288e-05,3.4731974448982e-05,-3.4731247591865e-05,3.4733894801463e-05,-3.5610299132764e-05,3.5605455296556e-05,-3.5604756789297e-05,3.5611153491155e-05,-3.6055922020891e-05,3.6057062788558e-05,-3.605475984808e-05,3.6058228322101e-05,-6.2847901614188e-10,-6.001878897703e-10,-3.299801276111e-05,3.2996776020377e-05,2.1604182226738e-09,-3.4883646707181e-09,-3.268969418063e-05,3.2690347906643e-05,-3.2691568002621e-05,3.2688476345102e-05,-3.2689684490754e-05,3.2690356866705e-05,-3.2691558234815e-05,3.2688485553942e-05,-3.4280332961915e-05,3.4277246584026e-05,-3.4280351973919e-05,3.4277209640394e-05,0.81992965368171,125803,2834,0.00014748793665497,0.00014748793665505,0.00013747967844915,31.519551508801,1.2156412070411e-05,1.2156412070411e-05,1.2156412070411e-05,551395.4646653,0.00043254929874559
2819200,0.041122837528515,0.00083755725426493,0.00028068258371614,0.00028068258650772,0.00027619208404107,-7.3532927879826e-05,7.3531973501202e-05,-3.8288787262288e-10,-5.6843165245026e-10,1.2293916477232e-09,-2.2253251230693e-09,-7.2898598047468e-05,7.2898847714415e-05,-7.2898663277913e-05,7.2898784681394e-05,-7.2899705820532e-05,7.2897694256393e-05,-7.2899763953872e-05,7.289763258001e-05,-7.3366437464459e-05,7.3364510640581e-05,-7.3366616667211e-05,7.3364337959501e-05,-1.3013669244021e-09,2.3855012578712e-09,1.0031279113259e-09,2.0342727252056e-11,-7.3531934931849e-05,7.3532967802956e-05,-7.2898634850688e-05,7.2898773711374e-05,-7.2898942446431e-05,7.2898435940703e-05,-7.2897459130099e-05,7.2900002334683e-05,-7.2897761199259e-05,7.2899667491639e-05,-7.336390004021e-05,7.3367100398241e-05,-7.3364828167493e-05,7.3366115152029e-05,-7.4384975663146e-05,7.4382072503241e-05,-7.4381361112032e-05,7.4385751582125e-05,3.2736471970448e-10,6.0356733450944e-10,-6.7423114549671e-05,6.7424045782911e-05,-2.6207743141198e-11,9.8055516607363e-10,-6.7921193619005e-05,6.792169720658e-05,-6.7920872378113e-05,6.7922025963597e-05,-6.7921102761143e-05,6.7921785817629e-05,-6.7920776756292e-05,6.7922118553868e-05,-6.9848739990116e-05,6.9850274901482e-05,-6.9849012573037e-05,6.9849994729743e-05,0.82138489005453,125803,2834,0.00030633811493296,0.00030633811775249,0.00028089233129108,32.736193393522,2.1889547148179e-05,2.1889547148179e-05,2.1889547148179e-05,736604.13475206,0.00089396832795699
3019200,0.062601869027579,0.0012707922827512,0.00042919668871054,0.00042919669319125,0.00041239890084939,-0.00010915859635243,0.00010915760071652,-2.9632797564846e-10,-6.9620368328625e-10,1.7558051006094e-09,-2.8053661329315e-09,-0.00010855422746086,0.00010855487946655,-0.00010855437059742,0.00010855475386428,-0.00010855570289482,0.00010855335451312,-0.00010855583091106,0.00010855322028388,-0.00010829784440885,0.00010829571563066,-0.00010829823658,0.00010829532964401,-1.8520376062136e-09,2.9685441956113e-09,3.7724779052565e-09,-2.7285685313433e-09,-0.00010915757274768,0.00010915862649163,-0.00010855375215282,0.00010855535243548,-0.00010855582699283,0.00010855316702079,-0.00010855221696701,0.00010855695199064,-0.00010855428925086,0.0001085547705123,-0.00010829233465289,0.000108301353714,-0.00010829860855311,0.00010829487317795,-0.00011034159674658,0.00011033577905472,-0.00011033688161321,0.00011034058570137,6.3790508030933e-10,1.1075552091177e-09,-9.764909980806e-05,9.7650854837821e-05,-2.2761867544298e-09,4.1418607779528e-09,-9.8858852826164e-05,9.8858300076042e-05,-9.885673921901e-05,9.8860424935058e-05,-9.8858695261822e-05,9.8858449030186e-05,-9.8856578263048e-05,9.8860582509579e-05,-0.00010176851181606,0.00010177285426422,-0.00010176897567935,0.00010177238453176,0.82013323415392,125803,2834,0.00045472159386205,0.0004547215983817,0.00040679295976242,32.491947835143,1.9935582681143e-05,1.9935582681143e-05,1.9935582681143e-05,993520.94844511,0.0013171036110134
3219200,0.083856895396613,0.0016900427803549,0.00057483958851199,0.00057483959419262,0.00054036359765025,-0.00014401290401691,0.00014401194383771,-1.7667410583028e-10,-7.8256977829516e-10,2.0152178499045e-09,-3.030194439434e-09,-0.00014367668259074,0.00014367760080564,-0.00014367689566758,0.00014367740955267,-0.0001436783223449,0.00014367591585489,-0.00014367851643072,0.00014367570936689,-0.00014197436003017,0.00014197230144321,-0.00014197494703993,0.00014197170382669,-2.0769187598296e-09,3.1029750266809e-09,5.6617182520712e-09,-4.7036664188366e-09,-0.00014401194249472,0.0001440129081051,-0.00014367581524569,0.00014367848457711,-0.00014367914511,0.00014367501272131,-0.00014367416424156,0.00014368019912531,-0.00014367749277443,0.00014367672969148,-0.0001419669824949,0.00014197983649276,-0.00014197701432938,0.00014196951744693,-0.00014539655519609,0.00014538901713431,-0.00014539149147527,0.00014539417511414,7.4003315033052e-10,1.4114302605832e-09,-0.00012584290900543,0.00012584506934381,-3.9591432080296e-09,6.293669320801e-09,-0.00012795334502357,0.00012795183911379,-0.00012794995753145,0.00012795523892269,-0.00012795311953698,0.00012795205520351,-0.00012794972853159,0.00012795546409834,-0.00013177709984039,0.00013178332578362,-0.00013177776207401,0.00013178265879074,0.80675912455695,125803,2834,0.00059987102005625,0.00059987102577222,0.00052421456886882,32.204230281588,1.7633842252703e-05,1.7633842252703e-05,1.7633842252703e-05,1206755.3323132,0.0017254447967675
3419200,0.10486057131729,0.0020913509219472,0.00071609731822801,0.00071609732436565,0.00065915627935352,-0.00017780479097783,0.00017780394383283,-1.9025765268578e-11,-8.2931208300425e-10,2.1120350078685e-09,-3.0120212619283e-09,-0.00017807248436126,0.00017807361057792,-0.00017807276460884,0.00017807335056598,-0.00017807415442763,0.00017807190076367,-0.00017807441433721,0.00017807162360076,-0.00017401442706724,0.00017401265207633,-0.00017401520456393,0.00017401184442152,-2.1688368238032e-09,3.0790195024985e-09,6.9266295599744e-09,-6.0797505556293e-09,-0.00017780394283165,0.00017780479494218,-0.00017807135872132,0.00017807476298139,-0.00017807555299776,0.00017807041373985,-0.00017806968229732,0.00017807649885749,-0.00017807387571368,0.00017807215194189,-0.00017400594412582,0.00017402130804435,-0.00017401854366954,0.00017400836683091,-0.00017918803695481,0.00017917944297581,-0.00017918290512211,0.00017918466653615,7.2918552616097e-10,1.6039452097366e-09,-0.00015188064141667,0.00015188297952983,-5.1500858003198e-09,7.7110535740362e-09,-0.00015512053450351,0.0001551182567368,-0.00015511628014308,0.0001551225227528,-0.00015512024127997,0.00015511854079761,-0.0001551159832023,0.00015512281571349,-0.00015959073460658,0.00015959821176583,-0.00015959159521485,0.00015959734517343,0.78589835489665,125803,2834,0.00074057593349623,0.00074057593966528,0.00063264483573647,31.91475850589,1.5318068047118e-05,1.5318068047118e-05,1.5318068047118e-05,1411116.3159543,0.0021160340557772
3619200,0.12612933076865,0.002486302072628,0.00085654878642033,0.00085654879280301,0.00077320449340461,-0.00021211699964429,0.00021211622072929,1.1640594011373e-10,-8.9752333534437e-10,2.0590807277839e-09,-2.8886295692907e-09,-0.00021338403501794,0.00021338524088816,-0.00021338438493445,0.00021338491484552,-0.00021338565280711,0.00021338358989596,-0.00021338598099905,0.00021338324528588,-0.00020588118076738,0.00020587973133826,-0.00020588215113462,0.000205878718129,-2.1166211339273e-09,2.9532671015069e-09,7.4333439176782e-09,-6.6564631613623e-09,-0.00021211622124114,0.00021211700221549,-0.00021338278138424,0.00021338653028225,-0.0002133873318321,0.00021338182148463,-0.00021338115930187,0.00021338820643144,-0.00021338570908086,0.0002133835001238,-0.00020587239585802,0.00020588869490597,-0.00020588604557794,0.00020587467790792,-0.0002134886203806,0.0002134797729575,-0.00021348366330585,0.00021348481916902,5.8866709863447e-10,1.6668696508131e-09,-0.0001774554323691,0.00017745768819888,-5.7103853660756e-09,8.2164979084025e-09,-0.00018179698847537,0.00018179419663362,-0.00018179237957649,0.000181798816383,-0.00018179662768755,0.00018179454886598,-0.00018179201500566,0.00018179917727671,-0.00018709213636112,0.00018710009219764,-0.00018709319636157,0.00018709902695371,0.77011574153941,125803,2834,0.00088342678579496,0.00088342679221265,0.0007391364905203,31.993780725912,1.5950245807294e-05,1.5950245807294e-05,1.5950245807294e-05,1645014.2736858,0.0025091347864793
3819200,0.14800507351573,0.0028887643183652,0.0010006684052509,0.0010006684117669,0.00088742750134733,-0.00024780357350544,0.00024780282052675,2.3085605266782e-10,-9.8603484403295e-10,1.9780264067834e-09,-2.7797666976752e-09,-0.00025028197021224,0.00025028320750951,-0.00025028239318326,0.00025028281897859,-0.00025028352911234,0.00025028162095756,-0.00025028392676941,0.00025028121052323,-0.0002387984935894,0.00023879733239003,-0.00023879966051883,0.00023879611887644,-2.0357249204275e-09,2.8403699136095e-09,7.434564895327e-09,-6.6876686785216e-09,-0.00024780282311912,0.00024780357406265,-0.00025028071413091,0.00025028450750796,-0.00025028527444233,0.00025027978754555,-0.00025027915449934,0.00025028611908998,-0.00025028371391854,0.00025028140164811,-0.00023878988636623,0.00023880612283109,-0.00023880356077693,0.00023879206777437,-0.00024924896992614,0.00024924027468817,-0.00024924420298305,0.00024924512804218,4.0201489746043e-10,1.6841125581571e-09,-0.00020350050301591,0.00020350258623025,-5.8006509844374e-09,8.1493208333303e-09,-0.00020885823226223,0.00020885518672724,-0.00020885361529095,0.00020885981381425,-0.00020885780395952,0.00020885560733356,-0.00020885318295273,0.00020886024280631,-0.00021545335573244,0.00021546135109698,-0.00021545461567909,0.00021546008665958,0.77140159846941,125803,2834,0.0010319772610996,0.0010319772676548,0.00084757615634983,32.324814565341,1.8598516522727e-05,1.8598516522727e-05,1.8598516522727e-05,1869222.2792801,0.0029157760680418
4019200,0.17047911544899,0.0033001345647675,0.0011489832718797,0.0011489832784679,0.0010021680144199,-0.0002845373796918,0.00028453667463433,3.5687006368805e-10,-1.064184352972e-09,1.9323428091654e-09,-2.6844480796597e-09,-0.00028837366761896,0.00028837497463846,-0.00028837416215608,0.00028837452161013,-0.00028837518248184,0.00028837343589022,-0.00028837564937026,0.00028837295845254,-0.00027251887292581,0.00027251800682063,-0.00027252023582898,0.00027251658935898,-1.9923905405425e-09,2.7459640172114e-09,7.27862478724e-09,-6.580858541071e-09,-0.00028453667791915,0.00028453737960005,-0.00028837249227494,0.00028837619662774,-0.0002883769695154,0.00028837156460074,-0.00028837097735735,0.00028837776229379,-0.00028837545367706,0.00028837313258733,-0.00027251058704124,0.0002725264725826,-0.00027252400379397,0.00027251267288297,-0.00028611693288094,0.00028610841307442,-0.00028611230072573,0.00028611312891856,1.9757287154815e-10,1.6823696756068e-09,-0.0002296382569552,0.00022964012985886,-5.7686823801235e-09,7.9137913106973e-09,-0.00023603056611415,0.00023602732701152,-0.00023602603832863,0.00023603186470709,-0.00023603007024884,0.00023602781536042,-0.00023602553852505,0.00023603236113007,-0.00024422459981565,0.00024423249958392,-0.00024422605823852,0.00024423103730645,0.77299484019118,125803,2834,0.0011848633430946,0.0011848633497391,0.00095639210415112,32.662297828186,2.1298382625488e-05,2.1298382625488e-05,2.1298382625488e-05,2070731.7446517,0.0033316602486324
4219200,0.19352588529602,0.0037211320837849,0.0013018303260971,0.0013018303328184,0.0011174714248693,-0.00032240484769846,0.00032240418608269,4.8028721149655e-10,-1.1442265916631e-09,1.9112744675829e-09,-2.6186922296764e-09,-0.00032767627298773,0.0003276776624746,-0.00032767683704958,0.00032767714334303,-0.00032767776024497,0.00032767615315408,-0.00032767829543112,0.00032767560843012,-0.00030719675799602,0.00030719616367912,-0.00030719831466241,0.00030719454149227,-1.9716777112317e-09,2.6792349802352e-09,7.0606766976615e-09,-6.4075531301952e-09,-0.00032240419005241,0.00032240484698898,-0.00032767520946369,0.00032767877086488,-0.00032767956364128,0.00032767427003127,-0.00032767372291292,0.00032768030752434,-0.00032767807618385,0.00032767580906904,-0.00030718883139006,0.00030720426168646,-0.00030720186880175,0.00030719084642558,-0.00032417740855536,0.00032416906096243,-0.00032417286109064,0.00032417368955652,-5.1069123239465e-12,1.6830973205322e-09,-0.00025585484342852,0.00025585650978781,-5.6762195146774e-09,7.6160121014421e-09,-0.00026345317806226,0.00026344979033498,-0.00026344878084926,0.0002634541972254,-0.00026345261416996,0.00026345034621638,-0.00026344821329774,0.00026345476145451,-0.00027333447238414,0.00027334224015474,-0.00027333613002328,0.00027334057897734,0.7748867202901,125803,2834,0.0013424425139623,0.0013424425207456,0.0010655272322541,33.000034869909,2.4000278959272e-05,2.4000278959272e-05,2.4000278959272e-05,2252920.2311211,0.0037574590731609
4419200,0.21751443993101,0.004158869403149,0.0014619307318681,0.0014619307386566,0.0012350079326243,-0.00036256032434091,0.00036255971819312,6.1361839332047e-10,-1.2220246081929e-09,1.9115240743252e-09,-2.5621479959463e-09,-0.00036933396346361,0.00036933545953715,-0.00036933459752093,0.00036933487052859,-0.00036933543214343,0.0003693339693364,-0.00036933603833592,0.00036933335403824,-0.00034390837139162,0.00034390805997729,-0.00034391013118308,0.0003439062249344,-1.9780649508853e-09,2.6330788108957e-09,6.7322847740027e-09,-6.1297373345501e-09,-0.00036255971993364,0.00036256032594305,-0.00036933306895767,0.00036933639490437,-0.0003693372304956,0.00036933209740998,-0.00036933159492857,0.0003693379187308,-0.0003693357564204,0.00036933362276687,-0.00034390090938288,0.00034391568468447,-0.00034391336027098,0.00034390286610049,-0.00036460553799287,0.00036459738019898,-0.00036460102982282,0.00036460196807659,-1.921464179893e-10,1.6917952374786e-09,-0.00028298160262369,0.00028298308705306,-5.463240349649e-09,7.2183279542057e-09,-0.00029200496275046,0.00029200152868949,-0.00029200076863969,0.00029200573233718,-0.00029200433282025,0.00029200214995675,-0.00029200013629132,0.00029200636139659,-0.00030369101917333,0.00030369859548653,-0.00030369286767752,0.00030369674491596,0.77612067062979,125803,2834,0.0015095149091163,0.0015095149160697,0.0011784422007822,33.593816885585,2.8750535084679e-05,2.8750535084679e-05,2.8750535084679e-05,2426159.9921231,0.0042063008443178
4619200,0.2425819848713,0.0046158598790405,0.0016303831948721,0.0016303832020639,0.0013550934821045,-0.00040498484288844,0.00040498426073424,7.1898082448228e-10,-1.3033610983455e-09,1.9187714136004e-09,-2.545261678194e-09,-0.00041334254561391,0.00041334412468293,-0.00041334324090085,0.00041334347064799,-0.00041334400991395,0.00041334263668876,-0.00041334467785538,0.00041334195999182,-0.00038253923045353,0.00038253912711767,-0.00038254116866723,0.00038253711024479,-1.9721446151152e-09,2.5917036132626e-09,6.4111985638434e-09,-5.843036884643e-09,-0.00040498426784415,0.00040498483924914,-0.00041334179751737,0.00041334490686834,-0.00041334576761777,0.00041334081190667,-0.00041334033862368,0.00041334641450233,-0.00041334430779097,0.00041334232329205,-0.00038253219218843,0.00038254631922835,-0.00038254405232685,0.00038253410688877,-0.00040742244580133,0.00040741449638756,-0.00040741797983441,0.0004074190404877,-3.8424238239883e-10,1.7197939456667e-09,-0.00031078945162264,0.00031079076953166,-5.258541666919e-09,6.8401487814032e-09,-0.00032146002246367,0.00032145654281222,-0.00032145602296674,0.00032146055134068,-0.00032145931962236,0.00032145723610897,-0.00032145531646829,0.0003214612544989,-0.00033507957519773,0.00033508701058577,-0.0003350816418084,0.00033508494242205,0.77693645627683,125803,2834,0.0016859964744491,0.0016859964816673,0.0012941834695479,34.291517243711,3.4332137949689e-05,3.4332137949689e-05,3.4332137949689e-05,2588585.8210774,0.0046770894779911
4819200,0.26869637893939,0.0050916630214685,0.0018071269225664,0.0018071269302252,0.0014774091686769,-0.00044942025065136,0.00044941968381169,8.2839466756742e-10,-1.3975281471215e-09,1.9174787384143e-09,-2.5283990211896e-09,-0.00045944092886876,0.00045944258625685,-0.00045944168992377,0.00045944186243426,-0.00045944238788857,0.00045944110228984,-0.00045944312276063,0.00045944035730797,-0.00042282575075291,0.00042282586774057,-0.0004228278880841,0.00042282365094831,-1.9724107546024e-09,2.5745160599281e-09,6.1517689100986e-09,-5.6007128731067e-09,-0.0004494196919324,0.00044942024616888,-0.00045944030281983,0.00045944323920197,-0.00045944411551986,0.00045943931238059,-0.00045943885097642,0.00045944474000277,-0.00045944266228225,0.00045944081681188,-0.00042281907623854,0.00042283268794983,-0.00042283045224048,0.00042282097532472,-0.00045239108041475,0.00045238329600009,-0.00045238663134168,0.00045238782348911,-5.4290585299719e-10,1.7645628175819e-09,-0.00033907653760345,0.00033907774037492,-5.0720851584455e-09,6.530647963895e-09,-0.00035160167465199,0.00035159817746734,-0.00035159783978285,0.00035160202104576,-0.00035160090351786,0.00035159893854036,-0.00035159706534157,0.00035160279228001,-0.00036728892349908,0.00036729627776784,-0.00036729118974506,0.00036729401054333,0.777921785169,125803,2834,0.0018708082299932,0.0018708082375586,0.0014119114864744,34.991918207362,3.9935345658892e-05,3.9935345658892e-05,3.9935345658892e-05,2742443.0843424,0.0051668427306817
5019200,0.29580653422532,0.0055837576788358,0.001991239761108,0.0019912397689324,0.0016012781487954,-0.00049564007822767,0.00049563952082701,9.35408952678e-10,-1.4950947057801e-09,1.9137610025915e-09,-2.5150343414567e-09,-0.00050741117816543,0.000507412907469,-0.00050741200507111,0.00050741211372803,-0.00050741263112106,0.00050741142823959,-0.00050741343335856,0.0005074106146065,-0.00046457187296053,0.00046457220543229,-0.00046457421063351,0.0004645697879267,-1.9698547966411e-09,2.5621718749449e-09,5.9554647636631e-09,-5.4140027613823e-09,-0.00049563952907145,0.00049564007369339,-0.00050741064934577,0.00050741345708144,-0.00050741434185552,0.0005074096586316,-0.00050740920265417,0.00050741495278059,-0.00050741289381722,0.00050741115776112,-0.00046456549758305,0.00046457871898759,-0.00046457650541584,0.00046456738895358,-0.00049920951619221,0.00049920186352323,-0.00049920508206753,0.00049920637593639,-6.7990579807031e-10,1.8300451032165e-09,-0.00036771434734824,0.00036771547835093,-4.9229879706234e-09,6.3016145032792e-09,-0.00038232368916378,0.00038232017990701,-0.00038231997966748,0.00038232389783756,-0.00038232285024227,0.00038232100835784,-0.00038231913781277,0.00038232473663666,-0.0004000966647832,0.0004001040190278,-0.00040009912922584,0.00040010155359887,0.77677325226144,125803,2834,0.002063003305121,0.0020630033128345,0.0015310922244196,35.692425898914,4.553940719131e-05,4.553940719131e-05,4.553940719131e-05,2888684.9249363,0.0056731466729386
5219200,0.32321427149563,0.0060811206129348,0.0021784578422619,0.0021784578501087,0.0017242049205642,-0.0005418813371812,0.00054188077974007,1.0464344104706e-09,-1.6062257852283e-09,1.915898672993e-09,-2.5171659618665e-09,-0.00055543184229625,0.00055543364611661,-0.00055543274117337,0.00055543277800491,-0.00055543329554025,0.00055543216586649,-0.00055543417170191,0.00055543127694006,-0.00050615561371906,0.00050615616441095,-0.00050615817150967,0.00050615352760546,-1.9812713136096e-09,2.5810468529887e-09,5.9401775618276e-09,-5.391794499381e-09,-0.00054188078447237,0.00054188133609646,-0.0005554313569083,0.00055543414968068,-0.0005554350380104,0.00055543036399589,-0.00055542990003943,0.00055543565623691,-0.00055543358121801,0.00055543187253025,-0.00050614935486203,0.0005061625586665,-0.00050616032948101,0.00050615126423221,-0.00054614122034666,0.00054613355906826,-0.0005461367582757,0.00054613809944007,-7.6700542777541e-10,1.9278612327068e-09,-0.00039543162900841,0.00039543277166134,-4.8926446231479e-09,6.2799031199634e-09,-0.0004122793636374,0.00041227582220773,-0.00041227567072266,0.00041227952346863,-0.00041227846223677,0.00041227671293238,-0.00041227476800686,0.00041228042340607,-0.00043218376302734,0.00043219128952647,-0.00043218640592887,0.00043218864454654,0.77855551811481,125803,2834,0.0022552478648614,0.0022552478724437,0.0016464377728042,36.022412364244,4.8179298913955e-05,4.8179298913955e-05,4.8179298913955e-05,3013812.1687966,0.0061759470738088
5419200,0.35071290832394,0.0065730947391971,0.0023647499434029,0.0023647499509593,0.001843594844835,-0.00058780319403626,0.00058780263141297,1.1377298277818e-09,-1.7027384472151e-09,1.9224177201053e-09,-2.5288433721885e-09,-0.0006032376190438,0.00060323948612869,-0.0006032385816857,0.00060323855419302,-0.00060323907723967,0.00060323800055874,-0.00060324001609909,0.00060323704844364,-0.00054731353996599,0.00054731426198367,-0.00054731628028301,0.00054731144334394,-1.9785983035918e-09,2.5784088928628e-09,5.9441525887203e-09,-5.3957287055457e-09,-0.00058780263861382,0.00058780319035905,-0.00060323716257622,0.00060323995963674,-0.00060324084723322,0.00060323617081447,-0.00060323570746264,0.00060324146549607,-0.00060323939042526,0.00060323767858331,-0.00054730736374579,0.00054732057256217,-0.000547318344918,0.00054730927189056,-0.00059259658396728,0.00059258892268469,-0.00059259212354305,0.00059259345958291,-8.6288475000602e-10,2.0509209911098e-09,-0.0004222092440841,0.00042221041452078,-4.8913033749797e-09,6.305609240643e-09,-0.00044156611180005,0.00044156251900104,-0.00044156241202635,0.00044156622782805,-0.00044156513884183,0.00044156348205232,-0.0004415614358291,0.00044156720028769,-0.00046315137630515,0.00046315915318471,-0.00046315423468967,0.00046315629250612,0.76958002830433,125803,2834,0.0024461250429162,0.0024461250502397,0.0017578697076892,36.275403779549,5.0203230236389e-05,5.0203230236389e-05,5.0203230236389e-05,3131851.969901,0.0066723068085001
5619200,0.37821996796406,0.0070415735386216,0.0025432838477443,0.0025432838547507,0.0019550058361267,-0.00063217317976193,0.0006321726220332,1.2432104322453e-09,-1.8032346706539e-09,1.9239673230895e-09,-2.525236963803e-09,-0.00064991086759308,0.00064991280743898,-0.00064991189786745,0.00064991180651471,-0.00064991232510484,0.00064991132188184,-0.00064991333222306,0.00064991030143658,-0.00058688149175786,0.00058688242155768,-0.00058688443414466,0.00058687940055714,-1.9812474418095e-09,2.5757517668141e-09,5.9494499494327e-09,-5.4059784494212e-09,-0.00063217262917398,0.00063217317595939,-0.00064991044807943,0.00064991324468016,-0.00064991413485541,0.00064990945053517,-0.00064990899343419,0.00064991474974841,-0.00064991267899566,0.00064991095802508,-0.00058687541334801,0.00058688863305797,-0.0005868864118239,0.00058687731759506,-0.00063679555428469,0.00063678788291171,-0.00063679109473189,0.00063679241881938,-9.5709873600478e-10,2.1577641992996e-09,-0.00044712719168974,0.00044712837500062,-4.8927254230472e-09,6.3188418416654e-09,-0.00046970252212518,0.00046969887059393,-0.00046969881719508,0.00046970258428232,-0.00046970148158548,0.00046969990095345,-0.00046969777392727,0.00046970362399697,-0.00049126591648236,0.0004912739070137,-0.00049126897199249,0.00049127085029263,0.73637048205193,125803,2834,0.002630513500575,0.0026305135075118,0.0018615626494907,36.526324656282,5.2210597250255e-05,5.2210597250255e-05,5.2210597250255e-05,3263754.4320361,0.0071480475756041
5819200,0.40564979692095,0.0074889050507225,0.0027144134136155,0.002714413420574,0.0020600782165331,-0.00067539211839843,0.00067539156560836,1.3474796325986e-09,-1.9024960886092e-09,1.9230873369725e-09,-2.5190913652233e-09,-0.00069572890302252,0.00069573091307205,-0.00069573000061772,0.00069572984396118,-0.00069573035801867,0.0006957294297953,-0.00069573143281765,0.0006957283414469,-0.00062523255061547,0.00062523368714315,-0.00062523569276974,0.00062523046716136,-1.98034566277e-09,2.5694458170568e-09,5.9524685093696e-09,-5.414007657321e-09,-0.00067539157277319,0.00067539211455353,-0.00069572851934872,0.00069573131571332,-0.00069573220661933,0.00069572751801584,-0.00069572706726816,0.00069573281816173,-0.00069573075333432,0.00069572902281979,-0.00062522657333119,0.00062523979650451,-0.00062523758401737,0.00062522847152648,-0.00067944660744482,0.0006794389340361,-0.00067944215480875,0.00067944346259324,-1.0555852753195e-09,2.2627212405664e-09,-0.00047041341770429,0.00047041460748719,-4.8961535473351e-09,6.3278911405556e-09,-0.00049694170167388,0.00049693798578199,-0.00049693799227606,0.00049694170362523,-0.00049694059324274,0.00049693908390803,-0.00049693688131501,0.00049694281126445,-0.0005171969790909,0.00051720517859795,-0.0005172002337698,0.00051720192281959,0.71317583467459,125803,2834,0.0028100815951543,0.0028100816020516,0.0019584681859172,36.777163084436,5.4217304675485e-05,5.4217304675485e-05,5.4217304675485e-05,3365932.3168753,0.0076074619250707
6019200,0.43252086198561,0.0079167109393485,0.0028786155894542,0.0028786155964344,0.0021594797534599,-0.00071701193309374,0.00071701137557852,1.4410565837694e-09,-2.0013157909411e-09,1.9206468136759e-09,-2.5204565436356e-09,-0.00074001865334533,0.00074002072300848,-0.00074001981607886,0.00074001958903112,-0.00074002010871816,0.00074001923944679,-0.00074002124673714,0.00074001808767853,-0.00066183756729885,0.00066183888345771,-0.00066184089687489,0.00066183547896167,-1.9779198936697e-09,2.5723486789952e-09,6.0165670731275e-09,-5.4732617915504e-09,-0.00071701138257827,0.0007170119294166,-0.00074001827637508,0.00074002111845947,-0.0007400220031102,0.00074001727872391,-0.00074001682517528,0.00074002262028731,-0.00074002054891389,0.00074001878448019,-0.00066183161474302,0.00066184496102418,-0.00066184274432892,0.00066183351779194,-0.00072046064594907,0.00072045293401494,-0.00072045618813154,0.00072045746386599,-1.1518254565005e-09,2.3809152589085e-09,-0.00049188476422483,0.00049188597652956,-4.9517500592877e-09,6.4064158297648e-09,-0.00052273674546861,0.00052273293819936,-0.00052273299178293,0.0005227366999601,-0.00052273556650338,0.00052273410695408,-0.00052273180878025,0.00052273788019475,-0.00054129142183849,0.00054129990033299,-0.00054129488751263,0.00054129643027796,0.70261522817987,125803,2834,0.0029829706394043,0.0029829706463084,0.0020478270677812,36.775476052584,5.4203808420676e-05,5.4203808420676e-05,5.4203808420676e-05,3413366.3424544,0.0080460149094705
6219200,0.45876548523785,0.0083366769273486,0.0030400333260513,0.0030400333321317,0.0022566102691655,-0.0007578958312627,0.00075789526702687,1.5413216808865e-09,-2.1079819433633e-09,1.9039438337052e-09,-2.5110088217277e-09,-0.00078344907919684,0.00078345120180901,-0.00078345031037596,0.00078344999976873,-0.00078345052590602,0.00078344972726553,-0.0007834517325035,0.00078344850666862,-0.00069780287674643,0.00069780439923947,-0.00069780641003204,0.00069780079179277,-1.9607339602469e-09,2.5621613140069e-09,6.0708473119352e-09,-5.5209260904296e-09,-0.00075789527402925,0.00075789582755756,-0.00078344870435856,0.00078345159547798,-0.00078345246422638,0.00078344772196005,-0.00078344726186337,0.00078345308851934,-0.00078345101930627,0.00078344921860292,-0.00069779697905033,0.00069781042409963,-0.00069780821045171,0.00069779888076223,-0.0007610755616089,0.000761067851245,-0.00076107113272212,0.00076107235408317,-1.2411696158896e-09,2.4916143207458e-09,-0.00051267619252419,0.00051267742640004,-4.9905719333814e-09,6.4666641028257e-09,-0.00054780625545883,0.00054780237028715,-0.00054780246795929,0.00054780616567015,-0.00054780500917244,0.00054780360631218,-0.00054780121810175,0.00054780741281572,-0.00056492994493597,0.00056493867414021,-0.00056493360632263,0.00056493500943471,0.7074549137791,125803,2834,0.0031527699038863,0.0031527699107353,0.0021343600272304,36.758786499973,5.4070291999782e-05,5.4070291999782e-05,5.4070291999782e-05,3435959.4463206,0.0084756782964952
6419200,0.48434277441835,0.0087431391378175,0.0031966602467391,0.003196660252699,0.0023498186383795,-0.00079749525419957,0.00079749468728379,1.6419003428069e-09,-2.2110761148777e-09,1.8786176685492e-09,-2.4885764369922e-09,-0.00082556646950176,0.00082556864146436,-0.00082556776857647,0.00082556737204241,-0.00082556790084947,0.00082556718299426,-0.000825569175152,0.00082556589448418,-0.00073259258477583,0.00073259432052987,-0.00073259631791826,0.00073259051344117,-1.9351393979668e-09,2.5391957174032e-09,6.103033996535e-09,-5.5506017924143e-09,-0.00079749469429671,0.00079749525037467,-0.0008255660998748,0.00082556903023074,-0.00082556988089493,0.00082556513620638,-0.00082556467304706,0.00082557050736226,-0.0008255684517389,0.00082556661669502,-0.00073258677035225,0.00073260026300806,-0.00073259806336585,0.00073258865911013,-0.00080044860878186,0.00080044092893483,-0.00080044422843603,0.00080044538427637,-1.3342097993384e-09,2.6017223458447e-09,-0.00053260906947984,0.00053261032060046,-5.0128626496497e-09,6.5061938730327e-09,-0.00057198287826784,0.00057197892234737,-0.00057197906991065,0.00057198273841441,-0.00057198156426091,0.00057198022610243,-0.00057197775230227,0.00057198405343395,-0.00058752569948439,0.00058753466619577,-0.00058752956004775,0.0005875308025051,0.70210892343902,125803,2834,0.0033172031688509,0.0033172031754714,0.0022173237271975,36.741628736295,5.3933029890357e-05,5.3933029890357e-05,5.3933029890357e-05,3475552.4916763,0.0088910978782078
6619200,0.50962673501876,0.0091686323224588,0.0033598289404789,0.0033598289464243,0.0024489744355556,-0.00083833250918285,0.00083833194787261,1.7507566864674e-09,-2.3137345948199e-09,1.841688716968e-09,-2.4467364900268e-09,-0.00086849958120605,0.00086850180284205,-0.00086850095019595,0.00086850046387592,-0.00086850098652437,0.00086850037121654,-0.00086850233194249,0.00086849901179612,-0.00076912863883743,0.00076913061703968,-0.00076913258092243,0.00076912660039836,-1.8983697476073e-09,2.4961822092573e-09,6.0563478816114e-09,-5.509728181178e-09,-0.00083833195489815,0.00083833250507807,-0.00086849924131609,0.00086850216297989,-0.00086850299451444,0.00086849829902383,-0.00086849783956693,0.00086850361430346,-0.00086850159177027,0.00086849975247099,-0.00076912300590399,0.00076913638294453,-0.00076913421730982,0.00076912486455878,-0.00084195528366693,0.00084194770762854,-0.00084195098603644,0.00084195208453266,-1.4324113339313e-09,2.6988615768373e-09,-0.00055373528930803,0.00055373653917933,-4.9669435049747e-09,6.4578768597034e-09,-0.000596854291964,0.00059685030040374,-0.00059685051400954,0.00059685408580072,-0.00059685291201733,0.00059685166981699,-0.00059684913181299,0.00059685546550253,-0.00061213879273275,0.00061214791682071,-0.0006121428438599,0.00061214386487993,0.74070665726668,125803,2834,0.003486747108897,0.0034867471149584,0.0023052494246551,37.008587282278,5.6068698258227e-05,5.6068698258227e-05,5.6068698258227e-05,3491480.961864,0.0093220121880018
6819200,0.53571072063017,0.0096415620836404,0.003540498997471,0.0035404990040989,0.0025605640820706,-0.00088374757797503,0.00088374703469887,1.844784404191e-09,-2.3887475593724e-09,1.792291368376e-09,-2.3803346010295e-09,-0.00091543904523253,0.00091544130561891,-0.0009154404725587,0.00091543990807894,-0.00091544041481666,0.00091543991060946,-0.00091544181553312,0.00091543849628672,-0.00081064046539541,0.00081064266297161,-0.00081064456818479,0.00081063848613094,-1.8478177222605e-09,2.4257082723171e-09,5.8290876130681e-09,-5.3012801065611e-09,-0.00088374704225158,0.00088374757343801,-0.00091543878559065,0.00091544158661652,-0.00091544240022701,0.00091543786692786,-0.00091543742455983,0.00091544299611784,-0.0009154410346605,0.00091543928172199,-0.0008106351919265,0.00081064807787512,-0.00081064597616965,0.00081063699735659,-0.00088913608039584,0.0008891287440236,-0.00088913190044238,0.00088913300996053,-1.5667669209148e-09,2.8023958779943e-09,-0.00057844958128415,0.00057845079950811,-4.7843636054613e-09,6.2398080954841e-09,-0.00062472387948108,0.00062471991308969,-0.00062472023627928,0.00062472356359223,-0.00062472242212609,0.00062472135974664,-0.00062471877336487,0.00062472502381681,-0.00064166174927938,0.000641670947493,-0.00064166604093571,0.00064166665983866,0.79221450036903,125803,2834,0.0036752624249385,0.0036752624311893,0.0024080967854646,38.072505794789,6.4580046358312e-05,6.4580046358312e-05,6.4580046358312e-05,3530894.4576566,0.0098064896518756
7019200,0.56249762328766,0.010090851717899,0.0037141035370548,0.0037141035447927,0.0026626446360514,-0.00092889768224298,0.00092889715937768,1.9606655252494e-09,-2.4846049301719e-09,1.7567758262632e-09,-2.3233983423637e-09,-0.00096263239056562,0.00096263471005119,-0.00096263388634852,0.00096263324290534,-0.00096263372998491,0.00096263334549229,-0.00096263520028429,0.00096263186179361,-0.00085094806830541,0.00085095052417495,-0.00085095237951694,0.00085094613925242,-1.8126118800101e-09,2.3689911577119e-09,5.632853672677e-09,-5.1256553270864e-09,-0.00092889716722188,0.0009288976776809,-0.00096263221646712,0.0009626349041269,-0.00096263571028963,0.00096263130972451,-0.00096263088478983,0.00096263628294455,-0.00096263437488836,0.00096263269375072,-0.00085094312747725,0.0008509555990642,-0.00085095355177133,0.00085094488562913,-0.00093474693889824,0.00093473979747799,-0.00093474284995742,0.00093474397010317,-1.6810215376673e-09,2.8843876677308e-09,-0.00060203793095497,0.00060203911635805,-4.6147465802111e-09,6.0331611323624e-09,-0.0006523116331535,0.00065230769271606,-0.00065230811396149,0.00065231121908999,-0.00065231010919182,0.00065230920603908,-0.00065230658506854,0.00065231274549368,-0.00066900327833422,0.00066901251107005,-0.00066900776000179,0.00066900803142044,0.73335806528245,125803,2834,0.003862637220602,0.0038626372274073,0.0025062661678172,39.156607917602,7.3252863340818e-05,7.3252863340818e-05,7.3252863340818e-05,3591957.5199286,0.010284173923
7219200,0.58983420878588,0.010531253946374,0.0038850932001384,0.0038850932088496,0.002761067537386,-0.00097385814611801,0.00097385764285433,2.0729150453977e-09,-2.57762741734e-09,1.7318985231301e-09,-2.277808912766e-09,-0.0010101051899903,0.0010101075735863,-0.0010101067531989,0.0010101060383863,-0.0010101065065766,0.0010101062323486,-0.0010101080451388,0.001010104680761,-0.00089055915519415,0.00089056185467912,-0.00089056366847408,0.00089055726883719,-1.7875044327607e-09,2.32366826099e-09,5.4635296573522e-09,-4.9758520530912e-09,-0.00097385765105545,0.00097385814195843,-0.0010101050972784,0.0010101076837959,-0.0010101084894436,0.0010101041970259,-0.0010101037878708,0.0010101090394846,-0.0010101071765208,0.0010101055574585,-0.00089055451035873,0.00089056662674827,-0.00089056462619584,0.00089055622977817,-0.00097967227465332,0.00097966528905651,-0.00097966825371054,0.00097966939021614,-1.7994213712744e-09,2.9680190743193e-09,-0.00062523116741045,0.00062523231761659,-4.4756208347362e-09,5.85474034019e-09,-0.00067971374002599,0.00067970980314632,-0.00067971032613434,0.00067971322421128,-0.00067971214873433,0.0006797113838728,-0.00067970872970449,0.00067971481820932,-0.00069556825895764,0.00069557754994899,-0.00069557293825652,0.00069557287145364,0.70718847836142,125803,2834,0.0040491857045933,0.0040491857129745,0.0026027950437288,40.241506389651,8.1932051117211e-05,8.1932051117211e-05,8.1932051117211e-05,3670599.4196626,0.010758758803896
7419200,0.61672744823255,0.010948489055978,0.0040476702986854,0.004047670307495,0.0028531484497972,-0.0010159928773973,0.0010159923834573,2.1836987625312e-09,-2.6800369627399e-09,1.73476715726e-09,-2.2694906946759e-09,-0.0010551239545277,0.0010551264154855,-0.0010551255876143,0.0010551248100939,-0.001055125268895,0.001055125076664,-0.0010551268790245,0.0010551234537448,-0.00092724248272425,0.00092724540176524,-0.00092724720722268,0.00092724060511103,-1.7900668425691e-09,2.3170851221797e-09,5.4643172188144e-09,-4.9857688730804e-09,-0.0010159923916059,0.0010159928734698,-0.0010551239010192,0.0010551264834367,-0.0010551272983938,0.001055122994111,-0.0010551225915539,0.0010551278385607,-0.0010551259869759,0.0010551243527125,-0.00092723794010387,0.00092725005864633,-0.00092724806951634,0.00092723964941562,-0.0010213225109341,0.0010213155183697,-0.0010213184920748,0.0010213196099688,-1.9004752096602e-09,3.0610227525914e-09,-0.0006462629376027,0.00064626407964636,-4.4820053922291e-09,5.8518475840263e-09,-0.000705011586687,0.00070500757488549,-0.00070500817060971,0.00070501099789218,-0.00070500992979419,0.00070500922103106,-0.00070500651014027,0.00070501265645669,-0.00071944238711034,0.00071945185943575,-0.0007194472521151,0.00071944699064231,0.68501443607545,125803,2834,0.0042239731562305,0.0042239731649894,0.0026903387448759,40.770168465806,8.6161347726447e-05,8.6161347726447e-05,8.6161347726447e-05,3735924.3952076,0.011200698604521
7619200,0.64243935301387,0.011337791969178,0.0041995298564809,0.0041995298642736,0.0029387322484235,-0.0010547930434136,0.0010547925477557,2.2796449802636e-09,-2.7792571971298e-09,1.7471405531436e-09,-2.2806565051563e-09,-0.0010968527427934,0.0010968552750787,-0.0010968544424002,0.0010968536044646,-0.001096854065689,0.001096853928144,-0.001096855740988,0.00109685224052,-0.00096117175466134,0.00096117484934671,-0.00096117666959226,0.00096116986461456,-1.800416388574e-09,2.3297664630004e-09,5.5725250928855e-09,-5.0921041940321e-09,-0.0010547925556972,0.0010547930396963,-0.0010968526891309,0.0010968553383381,-0.0010968561590894,0.0010968517769237,-0.0010968513726605,0.0010968567009904,-0.001096854839331,0.0010968531435861,-0.00096116718354949,0.00096117952023244,-0.00096117751952022,0.00096116889977153,-0.0010593500415298,0.0010593429547508,-0.0010593459913829,0.0010593470648564,-1.9991436563462e-09,3.1737297328528e-09,-0.00066500025791152,0.00066500141463182,-4.5851758303511e-09,5.9714632756942e-09,-0.00072829397708994,0.00072828983594054,-0.00072829048770782,0.00072829333233245,-0.00072829225084536,0.00072829155194481,-0.00072828875679555,0.00072829506179123,-0.0007405766833519,0.00074058645241825,-0.00074058175369511,0.00074058137080228,0.67223240822777,125803,2834,0.0043848970088609,0.0043848970176335,0.0027683419560537,40.851607412936,8.6812859303486e-05,8.6812859303486e-05,8.6812859303486e-05,3784783.7265012,0.011605134500552
7819200,0.66693607308301,0.011704145006179,0.0043424083800075,0.0043424083848535,0.0030193282413181,-0.0010916555495222,0.001091655052051,2.381811509911e-09,-2.882093287352e-09,1.7495826310398e-09,-2.2865533702464e-09,-0.0011365301797425,0.0011365327814017,-0.0011365319477365,0.0011365310429717,-0.0011365315054994,0.0011365314317898,-0.0011365332493124,0.0011365296760597,-0.00099328354778684,0.00099328684243214,-0.00099328866378157,0.00099328165604233,-1.8034872989363e-09,2.3346174688505e-09,5.6696805701711e-09,-5.1875830644939e-09,-0.0010916550595456,0.001091655545246,-0.0011365301301256,0.0011365328419869,-0.0011365336632549,0.0011365292163304,-0.0011365288108642,0.0011365342074746,-0.0011365323409872,0.0011365305856932,-0.00099327898621076,0.00099329151618022,-0.00099328950994453,0.00099328070546322,-0.0010954203861047,0.001095413229496,-0.0010954163325262,0.0010954173505837,-2.092139070781e-09,3.2826000239402e-09,-0.00068234557665662,0.0006823467490637,-4.672068350155e-09,6.0755043967859e-09,-0.00075028328939486,0.00075027903218529,-0.00075027973641649,0.00075028259225333,-0.00075028149537176,0.00075028081564525,-0.00075027793794519,0.00075028438892761,-0.0007602985124096,0.0007603085581278,-0.00076030378230612,0.00076030328256888,0.66655083354702,125803,2834,0.004537758231969,0.004537758238646,0.0028405558076358,40.921533245477,8.7372265963816e-05,8.7372265963816e-05,8.7372265963816e-05,3797450.1817494,0.011987556812688
8019200,0.69021151546661,0.01204890892952,0.0044769696314416,0.0044769696360899,0.0030949696619883,-0.001126521222407,0.0011265207244807,2.4834491864497e-09,-2.9838530184561e-09,1.7473740692158e-09,-2.2850731137614e-09,-0.0011741149944325,0.0011741176622384,-0.0011741168304938,0.0011741158565045,-0.0011741163192029,0.0011741163139742,-0.0011741181309568,0.0011741144906723,-0.0010233188909037,0.0010233223863613,-0.0010233242072222,0.0010233170016491,-1.8012679256778e-09,2.3327232722288e-09,5.7459165940012e-09,-5.2635455619818e-09,-0.0011265207318195,0.0011265212178483,-0.0011741149523294,0.0011741177162544,-0.0011741185355639,0.0011741140398136,-0.0011741136342712,0.0011741190804837,-0.0011741172145147,0.001174115407792,-0.0010233143576118,0.0010233270357201,-0.0010233250295312,0.0010233160747362,-0.0011295321464762,0.0011295249437363,-0.0011295280979993,0.0011295290615371,-2.1881255787701e-09,3.3899419535709e-09,-0.00069848237399849,0.00069848355794792,-4.7416045258707e-09,6.1579611947372e-09,-0.00077103726230955,0.00077103289800279,-0.00077103365875419,0.00077103650875499,-0.00077103540046749,0.00077103474938254,-0.00077103179243683,0.00077103837312586,-0.00077868387053136,0.00077869417696384,-0.00077868933984525,0.00077868870300495,0.66097249018346,125803,2834,0.0046823159443613,0.0046823159501272,0.0029077408631086,40.991002435033,8.7928019480266e-05,8.7928019480266e-05,8.7928019480266e-05,3799430.5319787,0.012348221813987
8219200,0.71241013609081,0.012374849536577,0.0046042730498839,0.0046042730544617,0.0031663034322312,-0.0011597715372176,0.0011597710403788,2.5871662357886e-09,-3.0857392660777e-09,1.7381570089083e-09,-2.2759397718375e-09,-0.001210042826635,0.0012100455579752,-0.0012100447309596,0.001210043684194,-0.0012100441452183,0.0012100442159117,-0.0012100460260232,0.0012100423242458,-0.0010514856433274,0.0010514893509496,-0.0010514911633561,0.0010514837646446,-1.7923053644779e-09,2.3222391391363e-09,5.7829726772063e-09,-5.3020084222601e-09,-0.001159771047716,0.0011597715323154,-0.0012100428025143,0.0012100455962438,-0.0012100464102365,0.0012100418946481,-0.0012100414901723,0.0012100469539477,-0.0012100450960423,0.0012100432561352,-0.0010514811864664,0.0010514939318115,-0.0010514919334696,0.0010514828962367,-0.0011620655515772,0.0011620583426316,-0.0011620615261166,0.0011620624420573,-2.2879216498308e-09,3.4911534344531e-09,-0.00071381556565215,0.00071381675115378,-4.7772564233235e-09,6.1955123756953e-09,-0.000790702559556,0.00079069810523115,-0.0007906989309999,0.00079070174093232,-0.00079070063028903,0.00079070002392214,-0.00079069699785092,0.00079070367202894,-0.00079645017956706,0.00079646070764025,-0.00079645584599249,0.00079645503945512,0.65549139454039,125803,2834,0.0048201543961613,0.0048201544012065,0.0029715814602267,41.181258038936,8.9450064311492e-05,8.9450064311492e-05,8.9450064311492e-05,3803817.1324173,0.012692019677022
8419200,0.73358414150686,0.012684951630831,0.0047253875887298,0.0047253875940005,0.0032341764481009,-0.0011914699303262,0.0011914694355917,2.6891240539296e-09,-3.1855093749929e-09,1.7254543659065e-09,-2.2609921231838e-09,-0.0012443625302206,0.0012443653220837,-0.0012443645024191,0.0012443633811844,-0.0012443638400798,0.0012443639892286,-0.0012443657883542,0.0012443620303828,-0.0010781369180328,0.0010781408337695,-0.0010781426357465,0.0010781350508504,-1.7795151375046e-09,2.307332470765e-09,5.7934509392768e-09,-5.3145284483738e-09,-0.0011914694428956,0.0011914699254916,-0.0012443625291129,0.0012443653379084,-0.0012443661451923,0.0012443616288354,-0.0012443612260066,0.0012443666864676,-0.0012443648396374,0.0012443629809244,-0.0010781325596655,0.0010781453158771,-0.0010781433293959,0.0010781342585771,-0.0011931564713506,0.0011931492792891,-0.001193152472811,0.00119315335279,-2.3910964311232e-09,3.5927238812516e-09,-0.00072843032169379,0.00072843150562072,-4.7901788417638e-09,6.2072434731593e-09,-0.00080920011045694,0.00080919557851374,-0.00080919647368369,0.00080919922256478,-0.00080919811333606,0.00080919756528645,-0.00080919447226593,0.00080920122172278,-0.00081351336542147,0.0008135241007507,-0.0008135192326254,0.00081351823201995,0.65380934988026,125803,2834,0.0049515399535962,0.0049515399587119,0.0030324316754742,41.430492996942,9.1443943975535e-05,9.1443943975535e-05,9.1443943975535e-05,3808573.1014323,0.013019831007146
8619200,0.75371899814268,0.01297935788363,0.0048403576190424,0.0048403576245996,0.0032986426399877,-0.0012215174696165,0.0012215169770337,2.7916778670986e-09,-3.2859901366099e-09,1.7110142052199e-09,-2.244116955591e-09,-0.001276952825154,0.0012769556764607,-0.0012769548651328,0.0012769536680118,-0.0012769541247923,0.0012769543540343,-0.0012769561409445,0.0012769523276268,-0.0011034818541269,0.0011034859809127,-0.0011034877705954,0.0011034799990289,-1.7647858240633e-09,2.2904213046487e-09,5.7935274088208e-09,-5.3167079592453e-09,-0.0012215169843738,0.0012215174649019,-0.0012769528491445,0.0012769556672652,-0.0012769564664854,0.001276951957595,-0.0012769515563168,0.001276957005328,-0.0012769551711782,0.0012769532990468,-0.0011034776055112,0.0011034903518275,-0.001103488378105,0.0011034792922105,-0.0012226979869363,0.0012226908229282,-0.0012226940190806,0.0012226948647894,-2.4944434046462e-09,3.6928020036395e-09,-0.00074225475796686,0.00074225593859762,-4.7931153310671e-09,6.2070501644517e-09,-0.00082666600984242,0.00082666140584733,-0.00082666237207897,0.00082666505088975,-0.00082666394489682,0.00082666346050525,-0.00082666030282039,0.00082666711789182,-0.00082964254902551,0.00082965348129292,-0.00082964861465422,0.00082964741339146,0.65260875347582,125803,2834,0.0050760658792074,0.0050760658846472,0.0030899919376179,41.681263993313,9.3450111946506e-05,9.3450111946506e-05,9.3450111946506e-05,3813534.6587936,0.013330512102057
8819200,0.77280665845719,0.013247809718049,0.004945611688203,0.0049456116938661,0.0033565863359802,-0.0012494512811984,0.0012494507904105,2.8940345150556e-09,-3.3865541864472e-09,1.6949477376865e-09,-2.2261120286291e-09,-0.001307476045795,0.0013074789551844,-0.0013074781534846,0.0013074768791837,-0.0013074773342023,0.0013074776440914,-0.0013074794181469,0.0013074755501631,-0.0011268858039998,0.001126890142711,-0.0011268919194711,0.0011268839622197,-1.7484704410753e-09,2.2723763534699e-09,5.7880378153742e-09,-5.3129002201151e-09,-0.0012494507977489,0.0012494512766362,-0.0013074760955564,0.0013074789203621,-0.0013074797100034,0.0013074752139583,-0.0013074748139931,0.0013074802469936,-0.0013074784259356,0.0013074765439031,-0.0011268816721242,0.0011268943963111,-0.0011268924361584,0.0011268833462433,-0.0012498498913144,0.0012498427622243,-0.0012498459569469,0.0012498467701606,-2.5982500485552e-09,3.7924532134811e-09,-0.0007548357764826,0.00075483695288845,-4.790887395107e-09,6.2005396570923e-09,-0.00084283613578418,0.00084283146266241,-0.00084283250081001,0.00084283510492049,-0.00084283400301232,0.00084283358519206,-0.00084283036371206,0.00084283723975002,-0.00084406823105967,0.00084407935528549,-0.00084407449566846,0.00084407308843969,0.62941992699593,125803,2834,0.0051918158247926,0.0051918158305444,0.003142379617638,41.932096088872,9.5456768710973e-05,9.5456768710973e-05,9.5456768710973e-05,3830175.8655475,0.013618256817929
9019200,0.79044887822023,0.013495997020041,0.0050428404489781,0.0050428404547024,0.0034103161163604,-0.001274410268009,0.0012744097883787,3.0035087018709e-09,-3.4865258471463e-09,1.7004952638605e-09,-2.2173714721765e-09,-0.0013348520324822,0.001334855019787,-0.0013348542082421,0.0013348528756813,-0.0013348533185765,0.0013348537110735,-0.001334855474234,0.0013348515462371,-0.0011475925552389,0.0011475971122257,-0.0011475988818655,0.0011475907229488,-1.7521091642089e-09,2.263980742114e-09,5.8160158179303e-09,-5.3522660162082e-09,-0.0012744097961296,0.0012744102636729,-0.0013348521147518,0.0013348549505297,-0.001334855749367,0.0013348512230596,-0.0013348508323976,0.0013348562767802,-0.001334854468359,0.0013348525500291,-0.0011475884961414,0.0011476012788979,-0.0011475993308205,0.0011475901574264,-0.0012741857380933,0.0012741785852897,-0.0012741818078958,0.0012741825759001,-2.6981231132884e-09,3.889289781514e-09,-0.00076552439325936,0.00076552556706527,-4.8222850542481e-09,6.2299599123357e-09,-0.00085676915738631,0.00085676439420546,-0.00085676550049999,0.00085676805852056,-0.00085676695767284,0.00085676658417686,-0.0008567632993416,0.00085677025746693,-0.00085655724009638,0.00085656856890849,-0.00085656368840384,0.00085656211052837,0.62977530095888,125803,2834,0.0052952264847589,0.0052952264918458,0.0031868948935975,41.750258698375,9.4002069586999e-05,9.4002069586999e-05,9.4002069586999e-05,3833247.4548672,0.013873078312279
9219200,0.80663970890532,0.013721168098684,0.0051311087656378,0.0051311087702432,0.0034589505628027,-0.0012968609269003,0.0012968604527749,3.1058105830304e-09,-3.5837343500815e-09,1.7085910037177e-09,-2.2191897424532e-09,-0.0013595902888835,0.0013595933518958,-0.0013595925323321,0.0013595911411117,-0.0013595915793279,0.0013595920396527,-0.0013595938010888,0.0013595898087656,-0.0011660917012456,0.0011660964527444,-0.0011660982213979,0.0011660898701859,-1.7600415719969e-09,2.2663597989806e-09,5.845696094345e-09,-5.3872314990109e-09,-0.0012968604609416,0.0012968609231773,-0.0013595904025911,0.0013595932511845,-0.0013595940589288,0.0013595895019794,-0.0013595891172157,0.0013595945806662,-0.0013595927731939,0.0013595908326865,-0.0011660877099831,0.0011661005515845,-0.0011660986056651,0.0011660893687647,-0.0012960436346247,0.0012960364419721,-0.0012960396898239,0.001296040443703,-2.8033610805455e-09,3.9904948602683e-09,-0.00077491434929693,0.00077491551920385,-4.8582369024346e-09,6.2623613011526e-09,-0.00086912942427467,0.00086912456619509,-0.00086912574518346,0.00086912825262564,-0.00086912715660766,0.00086912682430819,-0.00086912347500998,0.00086913052079721,-0.00086762421151294,0.00086763576290342,-0.00086763086397169,0.00086762910067046,0.62300580227366,125803,2834,0.0053882339366347,0.0053882339458513,0.0032260067676138,41.452590769038,9.1620726152308e-05,9.1620726152308e-05,9.1620726152308e-05,3833981.7110525,0.014101383098135
9419200,0.8214885654542,0.013925297969347,0.0052111658075347,0.0052111658113155,0.003502966350497,-0.0013171745106897,0.0013171740396205,3.2085988084501e-09,-3.6827984388004e-09,1.717500862057e-09,-2.2261547979108e-09,-0.001382098324417,0.0013821014636945,-0.0013821006356878,0.0013820991854735,-0.0013820996206985,0.0013821001459549,-0.0013821019097989,0.0013820978479605,-0.0011828115459509,0.0011828164943233,-0.0011828182628211,0.0011828097140759,-1.7696400434173e-09,2.272567177173e-09,5.8671978360899e-09,-5.4119441967682e-09,-0.0013171740476098,0.0013171745065473,-0.0013820984738032,0.0013821013289318,-0.0013821021450562,0.0013820975641783,-0.0013820971831512,0.0013821026635376,-0.0013821008536211,0.0013820989003981,-0.0011828076321237,0.0011828205208993,-0.0011828185730415,0.0011828092937501,-0.0013157932039593,0.0013157859768948,-0.0013157892457635,0.0013157899968365,-2.9066242486578e-09,4.09128185603e-09,-0.00078331356935576,0.00078331473661716,-4.8832220719048e-09,6.2847503781321e-09,-0.0008802440735522,0.00088023912901255,-0.00088024037873578,0.00088024283111819,-0.00088024173797201,0.00088024145492291,-0.00088023804025648,0.00088024516753761,-0.00087754108108258,0.00087755284651094,-0.00087754793522951,0.00087754598572192,0.61620824006581,125803,2834,0.0054723793485269,0.005472379356501,0.0032609945140321,41.151833646376,8.9214669171007e-05,8.9214669171007e-05,8.9214669171007e-05,3836293.5338662,0.014307577174575
9619200,0.83510194151726,0.014110227511001,0.0052837193568023,0.0052837193605524,0.0035427887936462,-0.0013355425576974,0.0013355420884098,3.3109397924738e-09,-3.7829872968642e-09,1.7273968160954e-09,-2.2345731848525e-09,-0.001402571783708,0.0014025749985347,-0.0014025741627175,0.0014025726528834,-0.0014025730860749,0.0014025736746221,-0.0014025754428154,0.001402571309213,-0.0011979136322229,0.0011979187750993,-0.0011979205472249,0.0011979117964089,-1.7797501199732e-09,2.2805636011095e-09,5.8799536269397e-09,-5.4268180025271e-09,-0.0013355420962688,0.0013355425531111,-0.001402571971143,0.0014025748265653,-0.0014025756499999,0.0014025710526771,-0.0014025706747014,0.0014025761672834,-0.0014025743526127,0.0014025723949621,-0.0011979098009071,0.0011979227207318,-0.001197920768962,0.0011979114666417,-0.0013336221162297,0.0013336148601,-0.0013336181412559,0.0013336188987665,-3.0096886894384e-09,4.1915434016675e-09,-0.00079083525131975,0.00079083641571958,-4.8985990165927e-09,6.2974376435935e-09,-0.00089024283360508,0.00089023780898177,-0.00089023912939875,0.00089024152052048,-0.00089024043022096,0.00089024020264709,-0.00089023672307002,0.00089024392464607,-0.00088643425314212,0.00088644622410108,-0.00088644130667593,0.00088643916505468,0.60938040504687,125803,2834,0.0055484584805978,0.00554845848738,0.0032923291638451,40.850953133567,8.6807625068536e-05,8.6807625068536e-05,8.6807625068536e-05,3839184.1118278,0.014493739416135
9819200,0.84734626669321,0.014277425970415,0.0053492060187789,0.0053492060225339,0.0035790139291025,-0.001351264415853,0.0013512639471316,3.4105768473949e-09,-3.8832105769354e-09,1.7393953433133e-09,-2.244353207256e-09,-0.0014201871309702,0.0014201904197124,-0.0014201895742452,0.0014201880070687,-0.0014201884395512,0.0014201890876923,-0.0014201908642967,0.0014201866557806,-0.0012107756797761,0.0012107810142824,-0.001210782794329,0.0012107738367673,-1.7943728229067e-09,2.2944148753616e-09,5.9107491585179e-09,-5.4585702767816e-09,-0.0013512639551101,0.0013512644111892,-0.001420187349876,0.001420190215454,-0.0014201910456229,0.0014201864191811,-0.0014201860418865,0.0014201915640001,-0.0014201897420592,0.0014201877714159,-0.0012107719010486,0.0012107848959686,-0.0012107829338626,0.0012107735764595,-0.0013489239545321,0.001348916653807,-0.0013489199526826,0.0013489207088866,-3.1142274165978e-09,4.2926684226028e-09,-0.00079688235891053,0.00079688352079916,-4.9327574143602e-09,6.3294487153243e-09,-0.00089845000480079,0.00089844488688123,-0.00089844627772631,0.00089844862111588,-0.00089844753202171,0.00089844734986256,-0.00089844380400615,0.00089845109306616,-0.00089376171987043,0.00089377390865189,-0.00089376896765751,0.00089376664704427,0.61213711031306,125803,2834,0.0056135712946465,0.0056135713015263,0.003317529274297,40.185146819478,8.1481174555826e-05,8.1481174555826e-05,8.1481174555826e-05,3834490.1143096,0.014651454037763
10019200,0.85835062290815,0.014428741493477,0.0054083590175786,0.0054083590207881,0.0036120234551099,-0.0013651842626894,0.0013651837945541,3.5129274033616e-09,-3.9850691766956e-09,1.7521205401555e-09,-2.2560481943939e-09,-0.0014357929362299,0.001435796301684,-0.0014357954493967,0.0014357938212876,-0.001435794253445,0.0014357949622271,-0.0014357967459032,0.0014357924621187,-0.0012222258021428,0.0012222313256611,-0.0012222331148881,0.0012222239503849,-1.8044453149637e-09,2.3043793810278e-09,5.934500150601e-09,-5.4825618022577e-09,-0.0013651838029881,0.0013651842588805,-0.0014357931885276,0.001435796063425,-0.0014357969022465,0.0014357922515281,-0.0014357918744206,0.00143579741944,-0.0014357955901379,0.0014357936105381,-0.0012222220939325,0.0012222351389093,-0.0012222331713383,0.0012222237745002,-0.0013625238597031,0.0013625165199913,-0.0013625198356587,0.0013625206001233,-3.2150789943208e-09,4.393148726322e-09,-0.00080217034138216,0.00080217150295527,-4.955374090087e-09,6.3523672521687e-09,-0.00090563512959719,0.00090562992944665,-0.00090563138800698,0.00090563367847235,-0.00090563259049551,0.00090563245898372,-0.00090562884672561,0.00090563621749053,-0.00090024722072981,0.00090025962153515,-0.00090025466760157,0.00090025216379256,0.61574676852229,125803,2834,0.0056712164572997,0.0056712164668895,0.0033395692154507,39.481052525225,7.5848420201801e-05,7.5848420201801e-05,7.5848420201801e-05,3825674.9101305,0.014790827132151
10219200,0.86825423433785,0.014566065372607,0.0054619377118634,0.0054619377145337,0.0036421899462097,-0.0013775755371624,0.0013775750685935,3.6144258920053e-09,-4.0862829665074e-09,1.7600657183181e-09,-2.265860994502e-09,-0.0014496243878758,0.0014496278269466,-0.0014496269695276,0.0014496252794558,-0.0014496257112714,0.0014496264817503,-0.0014496282715116,0.0014496239141423,-0.0012324798001978,0.0012324855171332,-0.0012324873111297,0.0012324779437672,-1.8126990164658e-09,2.3128082891764e-09,5.9458152799536e-09,-5.4936630408063e-09,-0.001377575076704,0.0013775755327152,-0.0014496246764951,0.0014496275538103,-0.0014496283992342,0.0014496237349378,-0.0014496233572232,0.0014496289157144,-0.0014496270810805,0.0014496250992556,-0.0012324761776219,0.0012324892497453,-0.001232487277165,0.0012324778645495,-0.0013746793105688,0.0013746719472037,-0.0013746752724517,0.001374676048042,-3.3171847448978e-09,4.4939620962192e-09,-0.00080685950274254,0.00080686066265885,-4.9673523179619e-09,6.3627681633903e-09,-0.00091201090118461,0.00091200562395539,-0.00091200715214327,0.00091200938057727,-0.00091200829448305,0.00091200822113369,-0.00091200454291603,0.00091201198735826,-0.00090600305072611,0.00090601565734281,-0.0009060106983667,0.00090600800209342,0.62007022708712,125803,2834,0.0057225276044439,0.0057225276120376,0.0033591158071817,38.775858773642,7.0206870189139e-05,7.0206870189139e-05,7.0206870189139e-05,3814643.7743203,0.014914829333254
10419200,0.87719488330618,0.014691223566578,0.0055106726622049,0.005510672664901,0.0036698782394717,-0.0013886984367468,0.0013886979680295,3.7157333128391e-09,-4.1871379588095e-09,1.7643345253796e-09,-2.2711604841356e-09,-0.0014620447391805,0.001462048248836,-0.0014620473883391,0.0014620456340881,-0.0014620460658461,0.0014620469004084,-0.0014620486934659,0.0014620442655504,-0.0012417670727714,0.0012417729856482,-0.001241774781417,0.0012417652137478,-1.8176121582551e-09,2.3176669502717e-09,5.9401037290108e-09,-5.4880157633525e-09,-0.0013886979758499,0.0013886984317567,-0.0014620450669505,0.0014620479369844,-0.0014620487858273,0.0014620441220606,-0.0014620437446289,0.0014620493022876,-0.001462047464397,0.0014620454896846,-0.0012417635534576,0.0012417766179735,-0.0012417746427555,0.001241765244255,-0.0013856513188257,0.0013856439495676,-0.0013856472726805,0.0013856480616802,-3.4203498884846e-09,4.5941090687685e-09,-0.00081108527418507,0.00081108643088884,-4.9636407456603e-09,6.3556751273093e-09,-0.00091774800145092,0.00091774265674392,-0.00091774425591841,0.00091774640981128,-0.00091774532683487,0.0009177453216111,-0.00091774157887895,0.00091774908436933,-0.00091123982976049,0.00091125262877371,-0.0009112476771797,0.0009112447758177,0.6250614251429,125803,2834,0.0057685833615463,0.0057685833674112,0.0033767327642981,38.100767751799,6.480614201439e-05,6.480614201439e-05,6.480614201439e-05,3802149.8219442,0.015026217216487
10619200,0.88554070923747,0.014805883998533,0.0055553733137533,0.0055553733166017,0.0036951373681782,-0.0014000428148037,0.0014000423465879,3.8203606326051e-09,-4.2898680394761e-09,1.7626144348095e-09,-2.2709358791736e-09,-0.0014746303637762,0.0014746339427509,-0.0014746330823093,0.0014746312587217,-0.0014746316900546,0.0014746325948442,-0.0014746343863157,0.0014746298911972,-0.001251295179016,0.0012513012988285,-0.0012513030898955,0.0012512933240395,-1.8128284590997e-09,2.3113912611587e-09,5.8722284063878e-09,-5.4214305313937e-09,-0.0014000423545361,0.0014000428090336,-0.0014746307479086,0.0014746335756304,-0.0014746344230888,0.0014746298056996,-0.0014746294296063,0.0014746349373914,-0.0014746331047017,0.0014746311700308,-0.0012512918372349,0.0012513047638905,-0.0012513027949103,0.0012512935243351,-0.0013968067798258,0.0013967994636703,-0.0013968027476358,0.0013968035697919,-3.5234412145283e-09,4.6893104748427e-09,-0.00081596888257188,0.00081597003091679,-4.8983776439989e-09,6.2808462740349e-09,-0.0009240926913083,0.00092408731894403,-0.0009240889925107,0.00092409102518801,-0.00092408995054917,0.00092409004957984,-0.00092408624892896,0.00092409376612677,-0.00091707705613586,0.00091708999544537,-0.00091708510127477,0.00091708195088868,0.61395112248627,125803,2834,0.0058155542504499,0.0058155542549531,0.0033970809588489,38.029636887037,6.4237095096295e-05,6.4237095096295e-05,6.4237095096295e-05,3798019.6906979,0.015142248117503
10819200,0.89333387806473,0.014911100334999,0.0055964420966434,0.0055964420999492,0.0037182161384063,-0.0014105308676435,0.0014105304012216,3.9202512186045e-09,-4.3888291738108e-09,1.7571604599541e-09,-2.2619381940467e-09,-0.001486312685359,0.0014863163273311,-0.0014863154699462,0.0014863135771771,-0.00148631400687,0.0014863149841416,-0.0014863167696703,0.0014863122141672,-0.001260030933762,0.0012600372533921,-0.0012600390408039,0.0012600290841041,-1.8095244613286e-09,2.3066161907135e-09,5.7961412917176e-09,-5.3469027718568e-09,-0.0014105304091342,0.001410530862209,-0.001486313123991,0.0014863159031653,-0.0014863167496056,0.0014863121837468,-0.0014863118083833,0.0014863172622791,-0.0014863154342904,0.0014863135451205,-0.0012600277639167,0.0012600405392256,-0.0012600385749682,0.0012600294473227,-0.0014070731183663,0.001407065859742,-0.0014070690914088,0.0014070699537933,-3.6314003272371e-09,4.7880541186745e-09,-0.00082047470057221,0.00082047583981414,-4.8304519448838e-09,6.2032267163584e-09,-0.00092996043162826,0.00092995502993566,-0.00092995678132325,0.00092995868795332,-0.00092995762214708,0.00092995782972753,-0.0009299539690368,0.0009299614974395,-0.00092244157837935,0.00092245466150857,-0.00092244982343662,0.0009224464132062,0.6038675363421,125803,2834,0.005858977268454,0.0058589772735848,0.0034158554535094,37.973754476569,6.3790035812551e-05,6.3790035812551e-05,6.3790035812551e-05,3797481.5930208,0.015249490348009
11019200,0.90060775157265,0.015007456779852,0.0056341013189016,0.0056341013221828,0.0037392541387674,-0.001420187231893,0.0014201867671977,4.0221280921006e-09,-4.4891915616911e-09,1.7516506444517e-09,-2.2545170715216e-09,-0.0014971111055037,0.0014971148124963,-0.0014971139575524,0.0014971119947666,-0.0014971124227778,0.0014971134735254,-0.0014971152531187,0.0014971106361019,-0.0012680318547339,0.0012680383780251,-0.0012680401601172,0.0012680300108489,-1.8039749902141e-09,2.2991976084171e-09,5.7226968753388e-09,-5.2752279532968e-09,-0.0014201867752821,0.0014201872265796,-0.0014971115993688,0.0014971143331102,-0.0014971151775754,0.0014971106621732,-0.001497110287915,0.0014971156878081,-0.0014971138663986,0.001497112019163,-0.001268028859938,0.0012680414867313,-0.0012680395296626,0.0012680305382079,-0.0014164840909299,0.001416476891424,-0.0014164800763169,0.0014164809723354,-3.7375006563977e-09,4.8851405661914e-09,-0.00082458360371355,0.00082458473374078,-4.7633361176656e-09,6.1259689465936e-09,-0.00093533322045033,0.00093532779005113,-0.00093532961812315,0.00093533140001058,-0.00093533034321695,0.00093533065759584,-0.00093532673815222,0.00093533427730588,-0.00092731349637023,0.00092732672101983,-0.00092732193953641,0.00092731827360754,0.59320719556738,125803,2834,0.0058989549863183,0.0058989549920577,0.0034329765846553,37.918473289158,6.3347786313261e-05,6.3347786313261e-05,6.3347786313261e-05,3799451.018985,0.015348068431074
11219200,0.90738491549601,0.01509716719752,0.0056691340416853,0.0056691340449825,0.003758899110852,-0.0014290782464932,0.0014290777836699,4.1239040812081e-09,-4.5892302451074e-09,1.7461326057298e-09,-2.2468090979361e-09,-0.0015070684892395,0.0015070722609862,-0.0015070714084707,0.0015070693758871,-0.001507069802165,0.0015070709263169,-0.0015070726998287,0.0015070680216947,-0.0012753985618219,0.0012754052887387,-0.0012754070651318,0.001275396724079,-1.7986569750288e-09,2.2919156927381e-09,5.6575071218528e-09,-5.2119201338918e-09,-0.0014290777918125,0.001429078241245,-0.0015070690352342,0.0015070717287919,-0.0015070725714194,0.0015070681008253,-0.0015070677278362,0.0015070730792349,-0.0015070712643637,0.001507069453656,-0.0012753957339936,0.0012754082287615,-0.001275406278706,0.0012753974072154,-0.0014251673775765,0.001425160231369,-0.0014251633748856,0.0014251642992977,-3.8435494407991e-09,4.982718737657e-09,-0.00082835186039361,0.00082835298182487,-4.7044280894897e-09,6.0575908081624e-09,-0.00094023439442865,0.00094022893012329,-0.00094023083442355,0.00094023249771758,-0.00094023144931437,0.00094023186556903,-0.00094022788658452,0.00094023544293204,-0.00093179787706208,0.0009318112500546,-0.00093180651909139,0.0009318026031045,0.5926323607934,125803,2834,0.0059357629446152,0.005935762950611,0.0034486780236393,37.83771154674,6.270169237392e-05,6.270169237392e-05,6.270169237392e-05,3801794.4623098,0.015438775834768
11419200,0.91365565723138,0.015180755796924,0.0057017246490009,0.005701724652268,0.003777306495655,-0.001437050854324,0.0014370503930391,4.2281158327871e-09,-4.6921569559435e-09,1.7436186978221e-09,-2.2423222694174e-09,-0.001516014093013,0.0015160179328344,-0.0015160170812885,0.0015160149788051,-0.0015160154036831,0.0015160166005731,-0.0015160183702022,0.0015160136270482,-0.0012819944612463,0.0012820013937612,-0.0012820031670835,0.0012819926273589,-1.7928133103134e-09,2.2840140383467e-09,5.6137149751866e-09,-5.1701194393228e-09,-0.0014370504014691,0.0014370508489323,-0.0015160146855978,0.0015160173533566,-0.0015160181940727,0.0015160137542332,-0.001516013382728,0.0015160186993807,-0.0015160168911833,0.0015160151024996,-0.0012819917805069,0.0012820041843691,-0.0012820022414785,0.0012819934481812,-0.0014329815187941,0.0014329744123434,-0.0014329775283525,0.0014329784660306,-3.9461174021909e-09,5.0784429000848e-09,-0.00083162316004311,0.00083162427454907,-4.6627852957551e-09,6.008384765648e-09,-0.00094452468478034,0.00094451917769716,-0.00094452115496618,0.00094452271509707,-0.00094452167354184,0.00094452217936493,-0.00094451814085999,0.00094452572661006,-0.00093575001434498,0.00093576354509246,-0.00093575885034679,0.00093575470290599,0.59626237915951,125803,2834,0.0059687673672378,0.0059687673735331,0.0034623112699044,37.630841865653,6.1046734925224e-05,6.1046734925224e-05,6.1046734925224e-05,3801053.3542821,0.015519664348136
11619200,0.91945804985219,0.015258482681204,0.0057319918867198,0.0057319918899165,0.0037944989045673,-0.0014443963797351,0.0014443959201975,4.3285508228024e-09,-4.7906682824312e-09,1.7386916516929e-09,-2.2358580995404e-09,-0.0015242454934507,0.0015242493977439,-0.0015242485480349,0.0015242463773117,-0.0015242468004896,0.001524248069147,-0.0015242498334112,0.0015242450292587,-0.0012880849417047,0.0012880920755416,-0.0012880938430222,0.0012880831136425,-1.7902982926161e-09,2.2798726760043e-09,5.5757570537727e-09,-5.1336618845835e-09,-0.0014443959285425,0.001444396374473,-0.0015242461301236,0.001524248774106,-0.0015242496144771,0.0015242451999172,-0.0015242448294684,0.0015242501178257,-0.0015242483138167,0.001524246545839,-0.0012880824001819,0.0012880947277392,-0.0012880927893857,0.0012880840648904,-0.0014402038346688,0.0014401967582684,-0.0014401998515826,0.0014402008056444,-4.0522245628688e-09,5.1787317570055e-09,-0.00083463570164964,0.00083463681018244,-4.6311295866958e-09,5.9700937490971e-09,-0.00094847406586288,0.00094846850764727,-0.00094847055942086,0.00094847202181992,-0.00094847098600345,0.0009484715780786,-0.0009484674765806,0.00094847510189363,-0.00093941129334555,0.00093942499621082,-0.00093942033155801,0.00093941595321154,0.5987335885884,125803,2834,0.005999174581059,0.0059991745874445,0.0034748670071683,37.420782226049,5.9366257808396e-05,5.9366257808396e-05,5.9366257808396e-05,3798043.3679451,0.015594188357346
11819200,0.92482843945399,0.015330909987693,0.0057601571599253,0.0057601571631016,0.003810595664666,-0.0014511766897769,0.0014511762316066,4.4303275375348e-09,-4.8909387444139e-09,1.7359245721077e-09,-2.2318613527559e-09,-0.0015318315170116,0.0015318354879355,-0.0015318346389838,0.0015318324000356,-0.001531832821855,0.0015318341615248,-0.0015318359222403,0.0015318310542672,-0.0012937276227067,0.00129373495829,-0.0012937367219643,0.001293725798356,-1.7877558005816e-09,2.2757861722235e-09,5.5492995025537e-09,-5.108656107445e-09,-0.0014511762398921,0.0014511766843471,-0.0015318321950622,0.0015318348228349,-0.0015318356628264,0.0015318312658824,-0.0015318308965416,0.0015318361643319,-0.0015318343643212,0.0015318326096249,-0.0012937252092408,0.0012937374826345,-0.0012937355485573,0.0012937268708113,-0.0014468939116263,0.0014468868573094,-0.0014468899355153,0.0014468908985707,-4.1561707810725e-09,5.2779974836822e-09,-0.00083742300074729,0.0008374241044589,-4.6084202178742e-09,5.9420179584899e-09,-0.00095212150943023,0.00095211589561567,-0.00095211801978745,0.00095211939289253,-0.00095211836175199,0.00095211903377175,-0.00095211486921356,0.00095212254076462,-0.00094281432368526,0.00094282820386538,-0.00094282356077826,0.00094281896222266,0.60218091979653,125803,2834,0.0060272409261181,0.0060272409320323,0.0034864848422777,37.210596785448,5.7684774283587e-05,5.7684774283587e-05,5.7684774283587e-05,3793443.4948125,0.015663009029402
12019200,0.92980778838622,0.015400179037709,0.0057869904410721,0.0057869904442618,0.0038261981523754,-0.0014575786542456,0.0014575781972273,4.5322925378094e-09,-4.9915232901545e-09,1.7341483656637e-09,-2.2292408378697e-09,-0.0015389408422929,0.0015389448805383,-0.0015389440317616,0.0015389417250591,-0.0015389421457233,0.0015389435555448,-0.0015389453136425,0.001538940380793,-0.0012991269698602,0.0012991345070408,-0.0012991362676469,0.0012991251486432,-1.7860285729354e-09,2.272707739598e-09,5.5310001185381e-09,-5.0916088463687e-09,-0.0014575782054506,0.0014575786486147,-0.0015389415597237,0.0015389441761557,-0.0015389450161524,0.0015389406310791,-0.0015389402627447,0.001538945516057,-0.0015389437191752,0.0015389419732599,-0.0012991246764404,0.0012991369122889,-0.0012991349815627,0.0012991263357199,-0.0014532882034083,0.0014532811642612,-0.0014532842327644,0.0014532852014179,-4.2594463264726e-09,5.3774594533344e-09,-0.00084013106258642,0.00084013216234616,-4.5929647487543e-09,5.9221270404682e-09,-0.00095560142755149,0.00095559575401712,-0.00095559794959181,0.00095559923955127,-0.00095559821221523,0.00095559895974221,-0.00095559473141692,0.00095560245504532,-0.00094615846093241,0.00094617252389399,-0.00094616789675771,0.00094616308435678,0.61929849987484,125803,2834,0.0060537403095351,0.006053740314903,0.0034977719407978,37.02819860902,5.6225588872156e-05,5.6225588872156e-05,5.6225588872156e-05,3786010.3276362,0.015728313357432
12219200,0.93444246860452,0.015466795283967,0.0058127019191752,0.0058127019224172,0.0038413914423742,-0.0014637707841978,0.0014637703281222,4.6343677768338e-09,-5.0924455002267e-09,1.7333673601111e-09,-2.227820755664e-09,-0.0015457394710709,0.0015457435772943,-0.0015457427282178,0.001545740354146,-0.0015457407738201,0.0015457422530138,-0.0015457440094435,0.0015457390106048,-0.0013044451975249,0.0013044529357505,-0.0013044546941749,0.001304443378495,-1.7849306115362e-09,2.2704422563923e-09,5.5180623755535e-09,-5.0797496952587e-09,-0.0014637703363444,0.0014637707783941,-0.0015457402266717,0.001545742834942,-0.0015457436752397,0.0015457392982721,-0.0015457389307719,0.0015457441737549,-0.0015457423792966,0.0015457406393052,-0.0013044430182763,0.0013044552276635,-0.0013044532995638,0.0013044446759758,-0.0014595454208934,0.0014595383922115,-0.0014595414542173,0.0014595424266102,-4.3621277906986e-09,5.4770824681843e-09,-0.00084285582109854,0.00084285691768237,-4.5820518055527e-09,5.9076505888904e-09,-0.00095905861363265,0.00095905287794703,-0.00095905514406857,0.00095905635511253,-0.00095905533082215,0.00095905615114919,-0.00095905185840991,0.00095905963802629,-0.00094954033922403,0.00094955458872289,-0.0009495499734027,0.00094954495168531,0.63789980697323,125803,2834,0.0060793698164922,0.006079369821499,0.0035091290013223,36.914448379751,5.5315587038007e-05,5.5315587038007e-05,5.5315587038007e-05,3773820.3106175,0.015791924346395
12419200,0.93875684350416,0.015526786445147,0.0058359352894475,0.0058359352927685,0.0038549158629307,-0.0014694731845556,0.0014694727294459,4.7354296705212e-09,-5.1927674527541e-09,1.7332208597042e-09,-2.2262502528771e-09,-0.0015520090305751,0.0015520132042658,-0.0015520123548758,0.0015520099140123,-0.0015520103328193,0.0015520118805254,-0.0015520136355875,0.0015520085710534,-0.001309309571103,0.0013093175075507,-0.0013093192652711,0.0013093077532513,-1.7851506656372e-09,2.2697635998585e-09,5.5120933367547e-09,-5.0747044110265e-09,-0.0014694727377531,0.0014694731789285,-0.0015520098217947,0.0015520124257871,-0.0015520132669824,0.0015520088928536,-0.0015520085260196,0.0015520137644405,-0.0015520119711189,0.0015520102337334,-0.0013093074963036,0.0013093196937334,-0.0013093177668724,0.0013093091529978,-0.0014652398945865,0.001465232869076,-0.0014652359274192,0.0014652369021899,-4.4652161372843e-09,5.5778689946663e-09,-0.00084528519769253,0.00084528629202151,-4.5783738398863e-09,5.9016233318213e-09,-0.00096225307332493,0.00096224727073098,-0.00096224960699979,0.00096225074468294,-0.0009622497226197,0.00096225061190806,-0.00096224625337144,0.00096225409556852,-0.00095252839465995,0.00095254283803322,-0.00095253822789563,0.00095253300106681,0.61826606053642,125803,2834,0.0061029701973147,0.0061029702028644,0.0035192596011054,36.802438205627,5.4419505645013e-05,5.4419505645013e-05,5.4419505645013e-05,3760406.7336923,0.015850171760445
12619200,0.94277324785442,0.015579646240739,0.0058565198531014,0.0058565198564396,0.0038666065311982,-0.0014745963382773,0.0014745958838892,4.8369010268173e-09,-5.2935568912941e-09,1.7334484054587e-09,-2.2256867939139e-09,-0.001557713546394,0.0015577177881414,-0.0015577169381177,0.0015577144304657,-0.0015577148485716,0.0015577164644997,-0.0015577182187644,0.0015577130876298,-0.0013135745617788,0.0013135826970852,-0.0013135844541617,0.0013135727446989,-1.7853482434837e-09,2.2691501313411e-09,5.5100149977452e-09,-5.0734161081976e-09,-0.0014745958922226,0.0014745963326148,-0.0015577143724513,0.0015577169747476,-0.0015577178167481,0.0015577134429771,-0.0015577130767678,0.0015577183132674,-0.001557716520958,0.0015577147837267,-0.0013135725882905,0.001313584781477,-0.0013135828557282,0.0013135742442227,-0.0014702577498752,0.001470250725072,-0.0014702537829861,0.0014702547576582,-4.5676216736352e-09,5.6784209303443e-09,-0.00084740845967345,0.00084740955211056,-4.5778033511158e-09,5.8990456823406e-09,-0.00096509015474701,0.0009650842836502,-0.00096508668942229,0.00096508775658346,-0.00096508673635489,0.00096508769249374,-0.00096508326811851,0.00096509117515057,-0.00095510433248167,0.00095511897153992,-0.00095511436414724,0.00095510893589693,0.58731201757077,125803,2834,0.0061241728920841,0.006124172897615,0.003528113999031,36.690496625066,5.352397300053e-05,5.352397300053e-05,5.352397300053e-05,3755161.9113426,0.015902254876059
12819200,0.94647871569766,0.015628806936511,0.005875632664173,0.0058756326675256,0.0038775416048121,-0.0014789238471936,0.001478923393264,4.940321638271e-09,-5.3968971339089e-09,1.7365701993842e-09,-2.2277154306463e-09,-0.0015625962103659,0.0015626005228295,-0.0015625996709753,0.0015625970965308,-0.0015625975141482,0.001562599197689,-0.0015626009532885,0.0015625957519321,-0.0013171054291416,0.001317113765139,-0.0013171155246783,0.001317103610327,-1.7854202166379e-09,2.2684751574879e-09,5.5287175435831e-09,-5.0929154832956e-09,-0.0014789234018826,0.0014789238415368,-0.0015625970655007,0.0015625996797655,-0.0015626005224812,0.0015625961354802,-0.0015625957698591,0.0015626010183223,-0.0015625992267674,0.0015625974759763,-0.0013171035367258,0.0013171157665379,-0.0013171138415299,0.0013171051913714,-0.0014745070486172,0.0014745000112288,-0.001474503081188,0.001474504041598,-4.6670919697851e-09,5.7774107085098e-09,-0.00084908170838479,0.00084908280048598,-4.5944030755938e-09,5.9155526194851e-09,-0.00096732040915799,0.00096731446030418,-0.00096731693265188,0.00096731794439753,-0.00096731692449707,0.00096731793550129,-0.00096731344521733,0.00096732142917108,-0.00095719859826915,0.00095721344178704,-0.00095720882318667,0.00095720321150244,0.59134553077279,125803,2834,0.0061420831313215,0.0061420831374567,0.0035350923120982,36.407272650608,5.1258181204862e-05,5.1258181204862e-05,5.1258181204862e-05,3754769.291815,0.015945742961927
13019200,0.94985455363405,0.015673748113922,0.0058930872716644,0.0058930872749731,0.0038875735672843,-0.0014823348096934,0.0014823343569164,5.0356807385865e-09,-5.4918297286657e-09,1.7363106367254e-09,-2.2250329655349e-09,-0.0015665043774195,0.0015665087540859,-0.0015665079027563,0.0015665052646895,-0.0015665056809217,0.0015665074296567,-0.0015665091841436,0.0015665039203724,-0.0013198199708839,0.0013198284920139,-0.0013198302520783,0.0013198181538057,-1.7911857403875e-09,2.2743684263258e-09,5.563479584515e-09,-5.1276581147923e-09,-0.0014823343653597,0.0014823348051721,-0.0015665052538863,0.0015665078881481,-0.0015665087350295,0.0015665043215245,-0.0015665039553357,0.0015665092306365,-0.0015665074350228,0.001566505664784,-0.0013198181340419,0.0013198304346088,-0.0013198285055213,0.0013198197926059,-0.0014778576074898,0.0014778505348703,-0.0014778536245275,0.0014778545756014,-4.7731991267679e-09,5.8861141663997e-09,-0.0008501304782115,0.00085013157302946,-4.6342616928503e-09,5.9590875528233e-09,-0.00096885370169345,0.00096884765680918,-0.00096885019832572,0.00096885116906113,-0.00096885014679011,0.00096885120371579,-0.00096884663895055,0.00096885472435566,-0.00095860975076005,0.00095862483583167,-0.00095862018672495,0.00095861439285706,0.59302696127885,125803,2834,0.0061561989745755,0.0061561989827031,0.0035394737723416,35.87490750166,4.6999260013283e-05,4.6999260013283e-05,4.6999260013283e-05,3749818.7826444,0.015978883591024
13219200,0.95293358443887,0.015714912968041,0.0059090565792451,0.0059090565823894,0.0038967998064067,-0.0014853440848741,0.0014853436317888,5.1412721722525e-09,-5.5971849755469e-09,1.7403365111495e-09,-2.2302089361773e-09,-0.0015699554686258,0.0015699599177804,-0.001569959063387,0.0015699563580042,-0.0015699567747247,0.0015699585904838,-0.0015699603477789,0.0015699550111697,-0.0013222130571299,0.0013222217840164,-0.0013222235460787,0.0013222112371493,-1.7907501294598e-09,2.2733276937789e-09,5.6035241258973e-09,-5.1682447922758e-09,-0.0014853436406356,0.0014853440798457,-0.0015699563687329,0.0015699590292028,-0.001569959875568,0.001569955434905,-0.0015699550699066,0.0015699603711439,-0.001569958576378,0.0015699567786509,-0.0013222112860456,0.0013222236654455,-0.0013222217372473,0.0013222129426864,-0.0014808243373045,0.0014808172388733,-0.0014808203584218,0.0014808212783857,-4.8699327369376e-09,5.9834501405878e-09,-0.0008510048599566,0.00085100595557935,-4.6692073139161e-09,5.9948397090101e-09,-0.0009701621309519,0.00097015599803832,-0.00097015860310809,0.00097015953336545,-0.00097015851005409,0.00097015960945391,-0.00097015497942482,0.00097016315454233,-0.00095981906181017,0.00095983436020828,-0.00095982968658639,0.0009598237289051,0.59512403001756,125803,2834,0.0061686520769325,0.0061686520848382,0.003543128783098,35.336205735338,4.2689645882701e-05,4.2689645882701e-05,4.2689645882701e-05,3743302.4860324,0.016007907730722
13419200,0.95574603560211,0.015751911123521,0.0059234249664442,0.0059234249695146,0.0039050611875622,-0.0014879716577128,0.0014879712048409,5.2415561531163e-09,-5.6968941013839e-09,1.7410600540458e-09,-2.2314137016667e-09,-0.0015729886506483,0.0015729931675427,-0.001572992312166,0.0015729895410345,-0.0015729899574608,0.0015729918395389,-0.0015729935971279,0.0015729881936683,-0.0013242763877204,0.0013242853110507,-0.0013242870721341,0.0013242745679453,-1.7931024078346e-09,2.2755896329374e-09,5.6386152753719e-09,-5.2033684883538e-09,-0.0014879712132677,0.001487971652365,-0.0015729895743902,0.0015729922564845,-0.0015729931043315,0.0015729886386037,-0.0015729882740065,0.0015729935998516,-0.0015729918035927,0.0015729899841045,-0.0013242746802549,0.0013242871300165,-0.0013242852001132,0.0013242763385876,-0.0014833964445233,0.0014833893181808,-0.0014833924627073,0.0014833933641402,-4.9713783432906e-09,6.0870818142701e-09,-0.00085170073654263,0.00085170183422768,-4.7042621557813e-09,6.0321760730431e-09,-0.00097126323034422,0.00097125700690108,-0.00097125967852625,0.00097126056643255,-0.00097125954122408,0.00097126068670261,-0.00097125598630093,0.00097126425587216,-0.00096080356389451,0.00096081908941516,-0.00096081439043877,0.00096080825856535,0.58608286883499,125803,2834,0.0061795250566241,0.0061795250629983,0.0035460406032104,34.797254225969,3.8378033807752e-05,3.8378033807752e-05,3.8378033807752e-05,3736356.1463634,0.016032966464519
13619200,0.95833245361824,0.015785499222046,0.0059364772670664,0.0059364772701372,0.0039125446848424,-0.001490453275688,0.0014904528232048,5.3391098962105e-09,-5.7933780373365e-09,1.7386131080924e-09,-2.2298286785586e-09,-0.0015758512710331,0.0015758558528222,-0.0015758549980923,0.0015758521615585,-0.0015758525771174,0.0015758545257702,-0.0015758562819527,0.0015758508149158,-0.0013262296326927,0.0013262387492104,-0.0013262405058448,0.00132622781575,-1.7962361753355e-09,2.2787359313491e-09,5.6590822815695e-09,-5.2236870679127e-09,-0.0014904528309798,0.0014904532701119,-0.0015758522219201,0.0015758549160926,-0.0015758557661398,0.001575851284967,-0.0015758509201375,0.0015758562613071,-0.0015758544632575,0.0015758526317161,-0.0013262280024653,0.0013262404943544,-0.0013262385615906,0.0013262296631484,-0.0014858177779358,0.0014858106312169,-0.0014858137911404,0.0014858146846561,-5.0759749315551e-09,6.1933993546363e-09,-0.00085242666899427,0.00085242776816278,-4.7287029971194e-09,6.0580966264012e-09,-0.00097234711712787,0.00097234080854865,-0.00097234354905115,0.00097234438511514,-0.000972343358362,0.00097234455861066,-0.0009723397863101,0.00097234814409465,-0.00096179110621237,0.00096180685708776,-0.00096180214099238,0.00096179582070654,0.57889842414304,125803,2834,0.0061897944217198,0.0061897944262713,0.0035490746339641,34.356430601001,3.4851444808009e-05,3.4851444808009e-05,3.4851444808009e-05,3732600.4925529,0.016056922919553
13819200,0.96072525910166,0.015816557578776,0.0059485382325505,0.0059485382357011,0.0039194811105241,-0.0014928383058631,0.0014928378538078,5.440147907451e-09,-5.8941453600816e-09,1.7386856839929e-09,-2.2290116206368e-09,-0.0015785907277028,0.0015785953767139,-0.0015785945215866,0.0015785916177394,-0.0015785920333489,0.0015785940496444,-0.0015785958052915,0.0015785902719233,-0.001328126992213,0.001328136306583,-0.0013281380632798,0.0013281251757263,-1.7960415693394e-09,2.278101237062e-09,5.6681865538424e-09,-5.233308541191e-09,-0.0014928378616571,0.0014928383003362,-0.0015785917088119,0.0015785944090839,-0.0015785952586785,0.0015785907708583,-0.0015785904068903,0.001578595753601,-0.001578593956424,0.0015785921182382,-0.0013281254521464,0.001328137961399,-0.0013281360295055,0.0013281271118495,-0.0014881523039551,0.0014881451512171,-0.0014881483176725,0.0014881492035991,-5.1778438012332e-09,6.2946809392593e-09,-0.00085320505888586,0.00085320615768771,-4.7382982255413e-09,6.0674741429907e-09,-0.00097343906870379,0.00097343268567329,-0.00097343549405386,0.0009734362681267,-0.00097343524182287,0.00097343650312857,-0.00097343166366253,0.00097344009547013,-0.00096281600659808,0.00096283196254029,-0.000962827239249,0.00096282072602517,0.578421469881,125803,2834,0.0061996644660551,0.0061996644708617,0.0035523243896988,34.00406672255,3.2032533780398e-05,3.2032533780398e-05,3.2032533780398e-05,3731030.833753,0.016080287107875
14019200,0.96294124583279,0.015845319069133,0.0059597003537803,0.0059597003569577,0.0039259183583948,-0.001494995825379,0.0014949953736493,5.5447803485312e-09,-5.9986962001252e-09,1.7403921418618e-09,-2.2299119877195e-09,-0.0015810729185708,0.0015810776378551,-0.0015810767820725,0.0015810738095666,-0.0015810742247414,0.0015810763104863,-0.0015810780663588,0.0015810724629872,-0.0013298414810246,0.0013298509993153,-0.0013298527578449,0.0013298396633404,-1.7934052702295e-09,2.2747190919823e-09,5.6725007811333e-09,-5.2383697348875e-09,-0.0014949953818348,0.0014949958197939,-0.001581073932751,0.0015810766368772,-0.001581077485636,0.0015810729958573,-0.0015810726324578,0.0015810779799907,-0.001581076185012,0.0015810743413144,-0.0013298400390373,0.0013298525548205,-0.0013298506258442,0.0013298416955379,-0.0014902666900575,0.0014902595398317,-0.0014902627095541,0.0014902635861465,-5.276000086155e-09,6.3923910631645e-09,-0.00085389052352303,0.00085389162189825,-4.7390960943619e-09,6.0680306473593e-09,-0.00097441031846916,0.00097440386864387,-0.00097440674304754,0.00097440745170008,-0.00097440642591999,0.0009744077516686,-0.00097440284737984,0.00097441134450574,-0.0009637276195873,0.00096374376642678,-0.00096373904307925,0.00096373233896708,0.57820995977545,125803,2834,0.0062085928423342,0.0062085928477174,0.0035551868455554,33.653961312099,2.9231690496789e-05,2.9231690496789e-05,2.9231690496789e-05,3728901.053164,0.01610134425755
14219200,0.9649953535305,0.01587100428761,0.0059697030131913,0.0059697030163709,0.0039315982580475,-0.0014968975219183,0.0014968970705991,5.6462916111376e-09,-6.0998357981446e-09,1.7397181018062e-09,-2.2287736687884e-09,-0.0015832860741223,0.001583290860574,-0.001583290005014,0.0015832869649548,-0.0015832873796989,0.0015832895338809,-0.0015832912886753,0.0015832856189838,-0.0013313217653038,0.001331331483154,-0.00133133324072,0.0013313199487109,-1.7925555503055e-09,2.273363955042e-09,5.6722242524373e-09,-5.2385745750489e-09,-0.0014968970788334,0.0014968975163119,-0.0015832871219409,0.0015832898261514,-0.001583290674745,0.0015832861852871,-0.0015832858223074,0.001583291168589,-0.0015832893747381,0.0015832875299898,-0.001331320423379,0.001331332938024,-0.0013313310102391,0.0013313220789241,-0.0014920994708361,0.001492092322447,-0.0014920954923011,0.0014920963663724,-5.3776104339011e-09,6.4932457140065e-09,-0.00085444224221165,0.00085444333980751,-4.7392323222939e-09,6.0673987943578e-09,-0.00097523854965729,0.00097523203158337,-0.00097523497440009,0.00097523561458889,-0.00097523458959074,0.00097523598224774,-0.0009752310111434,0.00097523957489568,-0.00096446292138634,0.00096447926537224,-0.00096447454307961,0.00096446763983319,0.55856304990997,125803,2834,0.0062164622498207,0.0062164622552617,0.0035574925230069,33.303944840822,2.6431558726576e-05,2.6431558726576e-05,2.6431558726576e-05,3727004.2366157,0.01611968418239
14419200,0.96686951230001,0.015894691652265,0.005978909486336,0.0059789094895215,0.0039368726764078,-0.001497948624246,0.0014979481733747,5.7500517941e-09,-6.2041573690746e-09,1.7422348406274e-09,-2.2290949060337e-09,-0.0015846311710493,0.0015846360273228,-0.0015846351708975,0.0015846320628067,-0.0015846324772936,0.001584634700006,-0.0015846364555502,0.0015846307158803,-0.001331990708545,0.0013320006282904,-0.0013320023892015,0.0013319888899119,-1.7908967344517e-09,2.2710660861274e-09,5.6869830310628e-09,-5.2541239249424e-09,-0.0014979481821392,0.001497948618984,-0.0015846322477265,0.0015846349623112,-0.0015846358100761,0.0015846313114255,-0.0015846309490307,0.0015846363036815,-0.0015846345114902,0.001584632654888,-0.0013319894510488,0.0013320019939243,-0.0013320000672607,0.001331991103493,-0.0014930973430449,0.0014930901883402,-0.001493093365173,0.0014930942236292,-5.4762713142739e-09,6.5915011218124e-09,-0.0008543787267941,0.00085437982443598,-4.7507418582223e-09,6.079506075553e-09,-0.00097534734216121,0.00097534075028408,-0.00097534375879529,0.00097534434125926,-0.00097534331622816,0.00097534476692501,-0.00097533973005173,0.00097534836738187,-0.0009645513058029,0.000964567849104,-0.00096456311761372,0.00096455602935627,0.56383117359121,125803,2834,0.0062208116838638,0.0062208116911196,0.0035572379623503,32.648737420821,2.1189899366567e-05,2.1189899366567e-05,2.1189899366567e-05,3724947.0115465,0.016128268186697
14619200,0.96856644822636,0.015916255205325,0.0059872789791417,0.0059872789822535,0.0039416972439301,-0.0014984566739862,0.0014984562233608,5.850107763047e-09,-6.3035206428889e-09,1.7409558564642e-09,-2.2285612211609e-09,-0.0015853936478741,0.0015853985707509,-0.0015853977144632,0.0015853945396831,-0.0015853949536849,0.0015853972439162,-0.001585398998477,0.0015853931933415,-0.0013321762158626,0.0013321863324429,-0.0013321880911483,0.0013321743991569,-1.7916605085895e-09,2.27161538772e-09,5.7018502006722e-09,-5.2690737492373e-09,-0.0014984562319897,0.0014984566686511,-0.0015853947540766,0.0015853974780286,-0.0015853983264476,0.0015853938172071,-0.0015853934549976,0.0015853988196535,-0.0015853970272318,0.0015853951609859,-0.0013321750431145,0.0013321876152868,-0.0013321856888167,0.0013321766968038,-0.0014935657079457,0.001493558541705,-0.0014935617305313,0.0014935625810198,-5.5785238617458e-09,6.6947374966002e-09,-0.00085393090072828,0.00085393199912946,-4.7668266485268e-09,6.0963150893598e-09,-0.00097503882177384,0.00097503215123513,-0.00097503522762205,0.00097503575324778,-0.00097503472753176,0.00097503623634739,-0.00097503113019053,0.00097503984770217,-0.00096422539179612,0.00096424214854507,-0.00096423740618373,0.00096423012862181,0.56645232688717,125803,2834,0.0062229131653621,0.0062229131721847,0.0035553858027339,31.824633292134,1.4597066337075e-05,1.4597066337075e-05,1.4597066337075e-05,3718260.3592572,0.016130659972476
14819200,0.9701056328914,0.015935941923032,0.0059949084923362,0.0059949084954391,0.0039461249352568,-0.0014987640049721,0.0014987635546246,5.9509030335854e-09,-6.4037028758611e-09,1.7401442027303e-09,-2.2278687463155e-09,-0.0015859228497676,0.0015859278396519,-0.0015859269835438,0.0015859237415376,-0.0015859241552457,0.001585926513254,-0.0015859282670583,0.0015859223956345,-0.0013322058650737,0.0013322161798869,-0.0013322179370634,0.0013322040495697,-1.791744989244e-09,2.2714009725582e-09,5.7099352872539e-09,-5.277408664207e-09,-0.0014987635631105,0.0014987639994919,-0.0015859239868314,0.0015859267161529,-0.0015859275648273,0.001585923049837,-0.0015859226879976,0.0015859280577538,-0.0015859262656336,0.0015859243935371,-0.0013322047846531,0.0013322173724807,-0.0013322154464257,0.0013322064379891,-0.0014938440669838,0.0014938368949526,-0.001493840090514,0.0014938409351408,-5.680400240158e-09,6.7967335073392e-09,-0.00085339923115223,0.00085340032961551,-4.7757604853469e-09,6.1053308284876e-09,-0.00097462680002871,0.00097462005569994,-0.00097462319994989,0.00097462366360555,-0.00097462263786406,0.00097462420864589,-0.00097461903457814,0.00097462782601163,-0.00096379890516092,0.00096381586766359,-0.00096381111972525,0.00096380364883371,0.56961684277909,125803,2834,0.0062241838819436,0.0062241838881671,0.0035531845015806,30.996182457542,7.9694596603368e-06,7.9694596603368e-06,7.9694596603368e-06,3710081.5852999,0.01613100824402
15019200,0.97148303337165,0.015953493668309,0.006001708398259,0.0060017084013617,0.0039500768686886,-0.0014983321599421,0.0014983317093904,6.0581706280458e-09,-6.5117583104299e-09,1.7445056441971e-09,-2.2314693855538e-09,-0.0015856863878689,0.0015856914509137,-0.0015856905924878,0.0015856872816299,-0.0015856876954526,0.0015856901223237,-0.0015856918791037,0.0015856859327829,-0.0013315415806317,0.00133155210482,-0.0013315538654179,0.0013315397611277,-1.7882105773943e-09,2.2670488175564e-09,5.7297469624658e-09,-5.2981070643575e-09,-0.0014983317184843,0.0014983321540537,-0.0015856875537622,0.0015856902977145,-0.0015856911441611,0.0015856866180131,-0.0015856862568184,0.0015856916369858,-0.0015856898482166,0.0015856879589946,-0.0013315405841801,0.0013315532104042,-0.0013315512858979,0.0013315422327459,-0.0014933811950399,0.0014933740179275,-0.0014933772252831,0.0014933780440862,-5.7753901486606e-09,6.8912139295565e-09,-0.00085229800467458,0.00085229910304375,-4.7882328965806e-09,6.1179763889887e-09,-0.00097361352576865,0.00097360670921237,-0.0009736099166927,0.0009736103258367,-0.00097360929971858,0.00097361092590389,-0.00097360568859698,0.00097361455141708,-0.0009627590238495,0.00096277617778774,-0.00096277142040722,0.00096276377365978,0.56737758845631,125803,2834,0.0062223947359512,0.0062223947425917,0.0035486158548562,29.893568868926,-8.5144904859267e-07,-8.5144904859267e-07,-8.5144904859267e-07,3697540.7502773,0.016122732205
15219200,0.97269739999422,0.015968283590041,0.0060074610953499,0.0060074610984233,0.0039533613962675,-0.0014970638320078,0.0014970633815769,6.1699475242795e-09,-6.6243222180916e-09,1.7528958929396e-09,-2.2380687648884e-09,-0.0015845981707821,0.0015846033114954,-0.0015846024520461,0.0015845990706652,-0.0015845994827131,0.0015846019813314,-0.0015846037413291,0.0015845977157286,-0.0013300700034142,0.0013300807376259,-0.001330082510501,0.0013300681760649,-1.7822202799232e-09,2.2598801195733e-09,5.7612407196928e-09,-5.3309248972088e-09,-0.001497063392056,0.0014970638265864,-0.0015845993628883,0.0015846021294188,-0.0015846029771655,0.0015845984328901,-0.0015845980710268,0.001584603469084,-0.0015846016819445,0.0015845997670712,-0.0013300690845343,0.0013300817657015,-0.0013300798495726,0.0013300707246427,-0.0014920613030594,0.001492054117327,-0.0014920573434607,0.0014920581332981,-5.8633976257193e-09,6.9838913572953e-09,-0.00085055033888669,0.00085055144126564,-4.8046883082964e-09,6.140082253314e-09,-0.00097191084752791,0.00097190395953723,-0.00097190722538358,0.00097190759059019,-0.00097190656134616,0.00097190823806548,-0.0009719029365452,0.00097191187517467,-0.00096101269365916,0.00096103003875561,-0.00096102526837898,0.00096101746254538,0.54391179539298,125803,2834,0.0062171431766088,0.0062171431870835,0.0035413594387649,28.488297993708,-1.2093616050332e-05,-1.2093616050332e-05,-1.2093616050332e-05,3682076.950605,0.016104688531615
15419200,0.97377028000274,0.015983217183716,0.0060131829130174,0.0060131829160146,0.0039568513546845,-0.0014956429863668,0.0014956425366713,6.2553442312335e-09,-6.7079520740216e-09,1.7422157950916e-09,-2.2285494036396e-09,-0.0015833220647834,0.0015833272584913,-0.0015833264016482,0.0015833229586579,-0.0015833233714453,0.0015833259316931,-0.0015833276857132,0.0015833216113869,-0.0013284936396119,0.0013285045500118,-0.0013285063093179,0.0013284918229959,-1.7918736319023e-09,2.2706702068927e-09,5.7695673499345e-09,-5.3379856010257e-09,-0.0014956425457325,0.0014956429812879,-0.0015833232841555,0.0015833260523773,-0.0015833269022028,0.0015833223470715,-0.0015833219859441,0.001583327394535,-0.0015833256023893,0.0015833236897514,-0.0013284927981825,0.0013285055029403,-0.0013285035773737,0.0013284944490359,-0.0014906597896868,0.0014906525782577,-0.0014906558110141,0.001490656615052,-5.9820357362028e-09,7.1010037540626e-09,-0.00084881886701287,0.00084881996823366,-4.8324382295902e-09,6.165849230089e-09,-0.00097010668223747,0.00097009969918011,-0.00097010304312882,0.00097010334649393,-0.00097010231821783,0.00097010405457061,-0.00097009867573688,0.00097010771080289,-0.00095932118133973,0.00095933877847154,-0.00095933398916311,0.00095932596602811,0.61487579143179,125803,2834,0.0062112618037966,0.0062112618120424,0.0035341661071287,27.075355346642,-2.3397157226863e-05,-2.3397157226863e-05,-2.3397157226863e-05,3669856.3260873,0.016085427326368
15619200,0.97473736263932,0.015996966241566,0.0060184385663992,0.0060184385693865,0.0039600891057802,-0.0014948210388487,0.0014948205898038,6.3506117042893e-09,-6.8017661620068e-09,1.7364374837915e-09,-2.2233974954386e-09,-0.0015825592729,0.0015825645278305,-0.0015825636733699,0.0015825601641217,-0.0015825605765411,0.00158256320402,-0.0015825649537672,0.001582558820715,-0.0013276154632248,0.0013276265636595,-0.0013276283163609,0.0013276136518579,-1.7952011137794e-09,2.2743944999286e-09,5.751424682878e-09,-5.3193074667237e-09,-0.0014948205978853,0.0014948210338143,-0.0015825605302673,0.0015825632850593,-0.0015825641366922,0.0015825595913362,-0.0015825592302447,0.001582564628887,-0.0015825628345526,0.0015825609366945,-0.0013276147356884,0.0013276274059563,-0.001327625478351,0.0013276163900402,-0.0014898688707289,0.0014898616636671,-0.0014898648871422,0.0014898657114448,-6.0905108261251e-09,7.208174371162e-09,-0.00084753979959586,0.00084754089925203,-4.8225941180215e-09,6.1538536081196e-09,-0.00096895022197847,0.00096894317323709,-0.00096894659042608,0.00096894681273945,-0.00096894578628464,0.00096894759992742,-0.00096894215096399,0.00096895124940589,-0.00095808330845769,0.00095810110910846,-0.0009580963291278,0.00095808808598948,0.62694795757359,125803,2834,0.0062078563314901,0.0062078563377963,0.0035288614192903,25.966008030294,-3.2271935757651e-05,-3.2271935757651e-05,-3.2271935757651e-05,3643914.3151319,0.016073118464428
15819200,0.97564691775877,0.016010845922528,0.0060237086808138,0.0060237086838244,0.0039634285578896,-0.001495337566614,0.0014953371180517,6.4503038375278e-09,-6.9000857631752e-09,1.7324474569194e-09,-2.2203268529505e-09,-0.001583101244662,0.0015831065642965,-0.0015831057113413,0.0015831021341107,-0.001583102546058,0.0015831052426261,-0.0015831069892882,0.001583100793314,-0.001328103382453,0.001328114680894,-0.0013281164283352,0.0013281015753809,-1.7946325916768e-09,2.2735884700478e-09,5.6852428648971e-09,-5.2531513193809e-09,-0.001495337125686,0.0014953375614344,-0.0015831025566281,0.0015831052679862,-0.0015831061198404,0.0015831016183012,-0.0015831012571792,0.0015831066112289,-0.0015831048179252,0.0015831029634005,-0.0013281028212693,0.0013281153607133,-0.0013281134349822,0.0013281044767008,-0.0014904468551518,0.001490439692773,-0.001490442875632,0.00149044374328,-6.1965836967671e-09,7.309294513717e-09,-0.00084747081708755,0.00084747191134114,-4.7621035604757e-09,6.0868258596858e-09,-0.0009690643009987,0.00096905722044891,-0.00096906071199548,0.00096906081735851,-0.00096905979625443,0.00096906171598683,-0.00096905620329702,0.00096906532318723,-0.00095811459689092,0.00095813255356673,-0.00095812782233364,0.00095811932916279,0.6691969863149,125803,2834,0.0062099913435836,0.0062099913486584,0.0035285861583848,25.548802737617,-3.5609578099062e-05,-3.5609578099062e-05,-3.5609578099062e-05,3624692.67577,0.016077178973024
16019200,0.97650390877799,0.016023892622471,0.0060286658872759,0.006028665890334,0.0039665608448612,-0.0014958890407411,0.0014958885921274,6.5584044290701e-09,-7.0094396107843e-09,1.7369526171722e-09,-2.2230065953215e-09,-0.0015836432087503,0.0015836486019643,-0.0015836477470432,0.0015836440998093,-0.0015836445117293,0.0015836472785332,-0.0015836490277323,0.0015836427564642,-0.0013286732177408,0.0013286847259638,-0.0013286864788342,0.0013286714060643,-1.7881547153362e-09,2.2659205731435e-09,5.6228973693335e-09,-5.19217525486e-09,-0.0014958886008074,0.0014958890353867,-0.0015836445754823,0.001583647248766,-0.0015836480973759,0.0015836436406246,-0.0015836432798452,0.0015836485878808,-0.0015836468004714,0.0015836449808481,-0.0013286728208458,0.0013286852349504,-0.0013286833146589,0.0013286744695742,-0.0014910457878233,0.0014910386806771,-0.0014910418192534,0.0014910427107905,-6.2936395071434e-09,7.400023332308e-09,-0.00084735417142813,0.00084735525968855,-4.6954118250646e-09,6.0137703519502e-09,-0.00096924393480581,0.00096923683159886,-0.00096924039173287,0.00096924038244678,-0.0009692393668272,0.00096924139046532,-0.00096923582082316,0.00096924495076076,-0.00095808118018954,0.00095809926583056,-0.0009580945854509,0.00095808585677569,0.66742791426526,125803,2834,0.006212269037174,0.0062122690440584,0.0035281178476712,25.148957349888,-3.8808341200899e-05,-3.8808341200899e-05,-3.8808341200899e-05,3598869.727828,0.016081334346118
16219200,0.97731199751803,0.016036141327541,0.0060333226106755,0.0060333226137406,0.0039694961031252,-0.0014963610003614,0.00149636055224,6.6584812423804e-09,-7.1091056292912e-09,1.7348551051909e-09,-2.2203057807119e-09,-0.0015841054437803,0.0015841109024301,-0.0015841100484918,0.0015841063336572,-0.0015841067452429,0.0015841095804478,-0.0015841113275879,0.0015841049920395,-0.0013291578168069,0.0013291695223261,-0.0013291712733183,0.0013291560072445,-1.7876837724879e-09,2.2652117351903e-09,5.5601011418508e-09,-5.1296103741962e-09,-0.0014963605607859,0.0014963609951392,-0.0015841068637046,0.0015841094956236,-0.0015841103443965,0.0015841059293596,-0.0015841055685377,0.0015841108342419,-0.0015841090477814,0.0015841072692606,-0.001329157579832,0.0013291698701373,-0.0013291679511881,0.0013291592288206,-0.0014915545594679,0.0014915474947964,-0.001491550591664,0.0014915515240054,-6.3989754232541e-09,7.5003393545753e-09,-0.0008471841884663,0.00084718527162608,-4.6368542352511e-09,5.9493733842233e-09,-0.00096936337217038,0.00096935623636687,-0.00096935987010291,0.00096935974621281,-0.00096935873566029,0.00096936086378232,-0.00096935523047215,0.00096936438326367,-0.00095799455492312,0.00095801279612419,-0.00095800816160071,0.00095799918533904,0.66425603878978,125803,2834,0.0062142176417956,0.0062142176486768,0.0035274274436572,24.749788668397,-4.2001690652827e-05,-4.2001690652827e-05,-4.2001690652827e-05,3576077.5776042,0.016084595075977
16419200,0.97807730549199,0.016046543057747,0.0060373187554601,0.0060373187585306,0.0039719055437563,-0.0014968248827841,0.0014968244353087,6.7570342378305e-09,-7.2068120407215e-09,1.7311563564793e-09,-2.2162232573125e-09,-0.0015845793612706,0.0015845848836919,-0.0015845840314499,0.0015845802491398,-0.0015845806603146,0.00158458356403,-0.0015845853079398,0.001584578910339,-0.0013296048271663,0.0013296167283009,-0.001329618475499,0.0013296030211935,-1.7892892550297e-09,2.2669281007786e-09,5.5018025621479e-09,-5.0711624395879e-09,-0.0014968244434226,0.0014968248778853,-0.0015845808327831,0.0015845834252338,-0.0015845842752508,0.00158457989772,-0.0015845795366585,0.0015845847647086,-0.0015845829774438,0.0015845812389275,-0.0013296047448955,0.0013296169216461,-0.0013296150022081,0.0013296063960299,-0.0014920101514401,0.0014920031220267,-0.0014920061806245,0.0014920071555992,-6.5056935066202e-09,7.6026471098201e-09,-0.00084703618390469,0.00084703726250732,-4.5850238579442e-09,5.8922116418944e-09,-0.00096950242450168,0.00096949525110945,-0.00096949895888955,0.00096949872447793,-0.00096949771844142,0.00096949994801871,-0.00096949424944324,0.00096950343139346,-0.00095789803868253,0.00095791644419492,-0.00095791185057652,0.00095790262873171,0.59981696869447,125803,2834,0.0062161329523465,0.0062161329590017,0.0035268273374973,24.412247168293,-4.4702022653658e-05,-4.4702022653658e-05,-4.4702022653658e-05,3558021.0269275,0.016087880281818
16619200,0.97880613583362,0.016058284038878,0.0060417567962983,0.0060417567993783,0.0039747704432018,-0.0014973760166723,0.0014973755689574,6.8624186241157e-09,-7.3123773854197e-09,1.7338217055841e-09,-2.219256330713e-09,-0.0015851662867506,0.001585171880793,-0.0015851710269504,0.0015851671761673,-0.001585167587323,0.0015851705595926,-0.0015851723054603,0.0015851658352971,-0.0013301032002221,0.0013301153067388,-0.0013301170558224,0.0013301013920557,-1.7854436273345e-09,2.2622792073012e-09,5.4551114302058e-09,-5.0252175041815e-09,-0.0014973755775657,0.0014973760112763,-0.001585167808447,0.0015851703719093,-0.0015851712203624,0.0015851668757393,-0.0015851665148298,0.0015851717089944,-0.0015851699253886,0.0015851682138604,-0.0013301032674327,0.0013301153504975,-0.0013301134351096,0.0013301049154211,-0.0014926097740374,0.0014926027837205,-0.0014926058122963,0.0014926068082319,-6.6050294373386e-09,7.6976345732535e-09,-0.00084713747922874,0.00084713855334409,-4.5363290708361e-09,5.8383529893743e-09,-0.0009696986804325,0.00096969147164537,-0.00096969524865209,0.00096969491118127,-0.00096969390924065,0.00096969623368432,-0.00096969047456916,0.00096969968269186,-0.00095811479547658,0.0009581333518659,-0.00095812879699825,0.00095811934731347,0.7023563103801,125803,2834,0.0062184125928857,0.0062184125995347,0.0035272550294638,24.158300247692,-4.6733598018461e-05,-4.6733598018461e-05,-4.6733598018461e-05,3554304.3360039,0.016092947585175
16819200,0.97950062529862,0.016069526215034,0.0060460077580779,0.0060460077611678,0.0039775106957879,-0.0014980451897685,0.001498044742194,6.9635951996525e-09,-7.4135663005796e-09,1.7336620381677e-09,-2.2187808420036e-09,-0.0015857888105956,0.0015857944719442,-0.0015857936180294,0.0015857896998362,-0.0015857901109437,0.0015857931508671,-0.0015857948964395,0.0015857883592177,-0.0013308334825722,0.0013308457874284,-0.0013308475363983,0.0013308316745179,-1.7850947168759e-09,2.2617657258617e-09,5.4155045029728e-09,-4.9857913463681e-09,-0.0014980447508037,0.0014980451843441,-0.0015857903788427,0.0015857929162105,-0.0015857937646484,0.0015857894463977,-0.0015857890854709,0.0015857942529194,-0.0015857924700424,0.001585790784268,-0.0013308336871776,0.0013308456923339,-0.0013308437776976,0.0013308353351057,-0.0014933292122861,0.0014933222490434,-0.0014933252509905,0.0014933262722708,-6.7079958232123e-09,7.7976163577904e-09,-0.00084715957584006,0.00084716064695453,-4.4986575881741e-09,5.7972167741347e-09,-0.00097004442386085,0.00097003717077161,-0.00097004101831221,0.00097004058404226,-0.00097003958498892,0.00097004200048676,-0.00097003617659068,0.00097004542326448,-0.0009582144872307,0.00095823321306767,-0.00095822868704041,0.00095821900944765,0.70571570871545,125803,2834,0.0062211766465601,0.0062211766531544,0.0035273647757176,23.906455398841,-4.8748356809275e-05,-4.8748356809275e-05,-4.8748356809275e-05,3530782.8541706,0.016098678537954
17019200,0.98016268754399,0.016080034482717,0.0060499891786865,0.0060499891817842,0.0039800561222459,-0.0014986529370261,0.0014986524896894,7.0642391884595e-09,-7.5140405791005e-09,1.7333128501293e-09,-2.2180120089027e-09,-0.0015863521052698,0.0015863578334785,-0.001586356979694,0.001586352994307,-0.0015863534052812,0.0015863565127171,-0.0015863582577283,0.0015863516541099,-0.0013314943466312,0.0013315068488332,-0.0013315085975433,0.001331492539139,-1.7854201490518e-09,2.2620086349643e-09,5.3850316581968e-09,-4.9554157092016e-09,-0.0014986524983102,0.001498652931776,-0.0015863537169234,0.0015863562338965,-0.0015863570827784,0.0015863527844216,-0.0015863524234059,0.0015863575707681,-0.001586355787912,0.0015863541224871,-0.0013314946795086,0.0013315066249752,-0.0013315047105919,0.0013314963278565,-0.0014939716787887,0.0014939647350961,-0.0014939677165011,0.0014939687586601,-6.811157667155e-09,7.8986447226785e-09,-0.00084712837429558,0.00084712944326932,-4.4701151442456e-09,5.766223188802e-09,-0.000970341516233,0.00097033421285054,-0.00097033813055444,0.00097033760628291,-0.00097033660932533,0.00097033911064568,-0.0009703332206817,0.00097034251362937,-0.00095825771317353,0.00095827661692198,-0.00095827211281997,0.00095826221326794,0.69245975105281,125803,2834,0.0062236861670891,0.006223686174067,0.0035272534313245,23.654692434584,-5.0762460523324e-05,-5.0762460523324e-05,-5.0762460523324e-05,3509251.7708885,0.016103667571267
17219200,0.98077892669495,0.016089553538554,0.0060536048055203,0.0060536048086216,0.0039823439244121,-0.0014983564263142,0.0014983559823973,7.1460409810592e-09,-7.5943294135082e-09,1.7178746976366e-09,-2.195744664743e-09,-0.0015860295847612,0.0015860353587817,-0.0015860345146055,0.0015860304647739,-0.0015860308739553,0.0015860340489294,-0.0015860357796227,0.001586029137621,-0.001331238657818,0.0013312513271598,-0.0013312530645034,0.0013312368643498,-1.8038900503384e-09,2.2832694465624e-09,5.3830174086435e-09,-4.9512400168875e-09,-0.0014983559891198,0.001498356425179,-0.0015860312229108,0.0015860337290228,-0.0015860345880321,0.0015860302806985,-0.0015860299179538,0.0015860350775151,-0.0015860332793634,0.0015860316323546,-0.001331239067611,0.001331251019017,-0.0013312490875162,0.0013312407308632,-0.0014936890159985,0.0014936820343532,-0.0014936850037448,0.001493686093334,-6.9323354525062e-09,8.0206403183262e-09,-0.00084634020368461,0.0008463412743046,-4.4885809101199e-09,5.7874179955009e-09,-0.00096981007438081,0.00096980268036245,-0.00096980667740911,0.00096980608610214,-0.00096980508869224,0.00096980765831591,-0.00096980168528259,0.00096981107482122,-0.00095750290441028,0.00095752206394981,-0.00095751754252122,0.00095750741371633,0.67475986334873,125803,2834,0.0062224531938454,0.0062224532054186,0.0035239940971696,22.995404836955,-5.6036761304359e-05,-5.6036761304359e-05,-5.6036761304359e-05,3487822.3584898,0.016097851859968
17419200,0.98134133954971,0.016097870388425,0.0060567755710386,0.0060567755740976,0.0039843192432889,-0.0014972551199306,0.0014972546705869,7.2850553529126e-09,-7.7381400556624e-09,1.7518623878066e-09,-2.2367283123678e-09,-0.0015849210390012,0.0015849269242379,-0.0015849260613496,0.0015849219384758,-0.0015849223501701,0.0015849255929163,-0.0015849273523442,0.0015849205841946,-0.0013301627663846,0.0013301756914395,-0.0013301774572413,0.0013301609418883,-1.7707667425856e-09,2.2446569258889e-09,5.4424825462824e-09,-5.0156958499898e-09,-0.0014972546820769,0.0014972551129835,-0.0015849227051558,0.0015849252680108,-0.0015849261094327,0.0015849217811237,-0.0015849214212875,0.0015849265963171,-0.0015849248255502,0.0015849231066306,-0.001330163255872,0.001330175307051,-0.0013301734034994,0.0013301648878644,-0.0014925838317319,0.0014925768809576,-0.001492579898655,0.0014925808621485,-6.9924971311323e-09,8.0823104478755e-09,-0.00084491403822646,0.00084491511011668,-4.5047991803615e-09,5.8048028787236e-09,-0.0009685506755699,0.0009685432278201,-0.00096854726454694,0.00096854664719711,-0.000968545646211,0.00096854824898973,-0.00096854223394766,0.00096855167457399,-0.00095606632481834,0.0009560856083115,-0.00095608107615411,0.00095607084941973,0.64747797215149,125803,2834,0.0062178898828315,0.0062178898922405,0.0035180798533005,21.992718466929,-6.4058252264572e-05,-6.4058252264572e-05,-6.4058252264572e-05,3467498.4287382,0.016082570038278
17619200,0.98185502873835,0.016105174639157,0.0060595687228376,0.006059568725879,0.0039860371904407,-0.0014960035802001,0.0014960031340581,7.3588596303014e-09,-7.8078897170346e-09,1.7289509014426e-09,-2.2117161000031e-09,-0.0015836839772926,0.0015836898999319,-0.0015836890487851,0.0015836848644044,-0.0015836852747642,0.0015836885819242,-0.0015836903227527,0.0015836835280903,-0.0013289080789956,0.0013289211591188,-0.001328922904577,0.0013289062761939,-1.7942121591678e-09,2.2718145061548e-09,5.4724883015041e-09,-5.0420315524007e-09,-0.0014960031419097,0.0014960035763326,-0.0015836856592908,0.0015836882296141,-0.0015836890833278,0.0015836847216846,-0.0015836843606204,0.0015836895719296,-0.0015836877816749,0.0015836860662148,-0.0013289086129528,0.0013289207338214,-0.0013289188116495,0.0013289102676988,-0.001491319109863,0.0014913120888478,-0.0014913151256618,0.0014913161317273,-7.1209318356217e-09,8.2157326010086e-09,-0.00084345655769464,0.00084345763429395,-4.5621806268793e-09,5.8672623491048e-09,-0.00096717359361382,0.00096716602541334,-0.00096717014436329,0.00096716948237954,-0.00096716847866803,0.00096717113128381,-0.00096716502510215,0.00096717459915338,-0.00095458659896051,0.00095460619011615,-0.00095460161384907,0.00095459116968968,0.62390232784618,125803,2834,0.0062127062792208,0.0062127062874692,0.0035120308356779,20.98135484236,-7.214916126112e-05,-7.214916126112e-05,-7.214916126112e-05,3453360.5089274,0.01606589029039
17819200,0.98232541397213,0.016111630199537,0.0060620437852398,0.0060620437882792,0.0039875426260183,-0.0014946843183401,0.0014946838708716,7.4705912193898e-09,-7.9205956281817e-09,1.737044964704e-09,-2.2218861144926e-09,-0.0015823983055486,0.0015824043069916,-0.001582403451105,0.0015823991973607,-0.0015823996079397,0.0015824029840839,-0.0015824047318675,0.0015823978540851,-0.0013275624920066,0.0013275757894111,-0.0013275775405282,0.001327560681751,-1.7867270905962e-09,2.2631091857227e-09,5.5210756280612e-09,-5.0916733228842e-09,-0.0014946838796556,0.0014946843129226,-0.0015824000096905,0.0015824026157593,-0.0015824034651573,0.0015823990757529,-0.0015823987151493,0.0015824039537774,-0.0015824021696824,0.0015824004140978,-0.0013275630886288,0.0013275753029305,-0.0013275733861073,0.001327564735984,-0.0014899790494469,0.0014899720135228,-0.0014899750851841,0.0014899760371689,-7.2098686288231e-09,8.3071791580261e-09,-0.00084202759826281,0.00084202867733992,-4.5986072070226e-09,5.9063467869044e-09,-0.00096575762814403,0.00096574997589387,-0.00096575415268558,0.00096575345903495,-0.00096575245188958,0.00096575514299844,-0.00096574897408038,0.00096575863515072,-0.00095312712843339,0.00095314692029467,-0.00095314231682677,0.00095313172781598,0.60341627591294,125803,2834,0.0062072436793082,0.0062072436862779,0.0035060964243864,19.991624222658,-8.0067006218739e-05,-8.0067006218739e-05,-8.0067006218739e-05,3444470.1010399,0.016048759836796
18019200,0.98275711746247,0.016117548768847,0.0060643109552964,0.0060643109583427,0.0039889268552083,-0.0014933153153993,0.0014933148683571,7.5667403144539e-09,-8.0161329180536e-09,1.7338562397056e-09,-2.2186777412121e-09,-0.001581075867043,0.0015810819313409,-0.0015810810773135,0.0015810767575456,-0.0015810771679501,0.0015810806102752,-0.0015810823552571,0.0015810754168099,-0.0013261519534494,0.0013261654396404,-0.0013261671882393,0.0013261501455262,-1.7904172035717e-09,2.2673316453353e-09,5.5594903905507e-09,-5.1295317592008e-09,-0.0014933148764768,0.0014933153102494,-0.0015810775912372,0.001581080220906,-0.0015810810726327,0.0015810766552624,-0.00158107629481,0.0015810815613792,-0.0015810797737589,0.0015810779965818,-0.0013261526069617,0.0013261648971887,-0.0013261629774002,0.0013261542567133,-0.0014885905621972,0.0014885834916244,-0.0014885865891281,0.0014885875263216,-7.3147641089053e-09,8.4156643190847e-09,-0.00084063333877051,0.0008406344212691,-4.639737060975e-09,5.9513659018872e-09,-0.00096431736485335,0.00096430961638202,-0.00096431386113221,0.00096431312771876,-0.00096431211792525,0.00096431485411577,-0.000964308610947,0.00096431837558442,-0.0009517013132075,0.00095172134724789,-0.00095171671238748,0.00095170594538026,0.60265702597661,125803,2834,0.0062015763127033,0.0062015763188523,0.0035003030139619,19.020208950391,-8.7838328396874e-05,-8.7838328396874e-05,-8.7838328396874e-05,3439522.7232909,0.016031356357206
18219200,0.98315373843827,0.016123091451351,0.0060664283329271,0.006066428335985,0.0039902347824385,-0.0014919042580899,0.0014919038107906,7.6721810336652e-09,-8.1220963914717e-09,1.7372591619839e-09,-2.2218124503901e-09,-0.0015797064490811,0.0015797125850057,-0.0015797117290999,0.0015797073411766,-0.0015797077516097,0.0015797112620948,-0.0015797130096888,0.0015797059980128,-0.0013247079532961,0.0013247216447991,-0.0013247233964616,0.0013247061432332,-1.7879423273539e-09,2.2643458602998e-09,5.5993669757976e-09,-5.1699798945785e-09,-0.0014919038195416,0.0014919042528197,-0.0015797081952029,0.0015797108523408,-0.0015797117022194,0.0015797072600108,-0.0015797068998732,0.0015797121911643,-0.0015797104057419,0.0015797085993726,-0.0013247086703517,0.0013247210383358,-0.0013247191204393,0.0013247103180195,-0.0014871657941409,0.0014871587033708,-0.0014871618269833,0.0014871627303355,-7.4105480425155e-09,8.5135382079282e-09,-0.00083923602158225,0.00083923710640527,-4.6738589603611e-09,5.9883554817569e-09,-0.00096286312388312,0.00096285528895599,-0.00096285959598803,0.00096285882434871,-0.00096285781183494,0.00096286059165625,-0.00096285428156948,0.000962864136474,-0.00095026968451307,0.00095028993326423,-0.00095028527155774,0.00095027434184611,0.61338750424687,125803,2834,0.0061957350256262,0.0061957350328328,0.0034944963425915,18.049255288574,-9.5605957691409e-05,-9.5605957691409e-05,-9.5605957691409e-05,3433986.2378552,0.016013586228786
18419200,0.98352770202121,0.016128354769992,0.0060684361632623,0.0060684361663239,0.0039914824404054,-0.0014912595441062,0.0014912590964074,7.7761563974657e-09,-8.2256023899639e-09,1.7379354682644e-09,-2.2242845103409e-09,-0.0015790886999263,0.0015790949059217,-0.0015790940490545,0.0015790895929597,-0.0015790900035824,0.0015790935818925,-0.0015790953308044,0.0015790882485468,-0.0013240383140399,0.0013240522098057,-0.0013240539598085,0.0013240365039422,-1.7863595936465e-09,2.2624428278887e-09,5.6081958731693e-09,-5.1789165306219e-09,-0.0014912591052062,0.0014912595382153,-0.001579090478383,0.0015790931423094,-0.0015790939912761,0.0015790895441281,-0.0015790891842663,0.0015790944798982,-0.0015790926960702,0.0015790908821505,-0.0013240391269889,0.0013240515116859,-0.0013240495949231,0.0013240407739561,-0.0014865158253316,0.0014865087319149,-0.0014865118644118,0.001486512756997,-7.5093464316487e-09,8.6124393157731e-09,-0.00083852626682279,0.00083852735156661,-4.6798683446389e-09,5.9938878436477e-09,-0.0009621456840066,0.00096213777926463,-0.00096214215221997,0.00096214131863627,-0.00096214030593991,0.00096214314795325,-0.00096213677185725,0.00096214669654114,-0.00094955341275497,0.00094957385901376,-0.00094956919455513,0.00094955807597691,0.61738402318171,125803,2834,0.0061930657706608,0.0061930657766771,0.0034915480703675,17.476219462291,-0.00010019024430167,-0.00010019024430167,-0.00010019024430167,3430390.5452689,0.016005166565585
18619200,0.98388787868773,0.016133375363315,0.0060703522772515,0.0060703522803271,0.0039926708057364,-0.0014912452650136,0.0014912448188152,7.8610872287106e-09,-8.3086091071656e-09,1.7267298809992e-09,-2.2124550466641e-09,-0.0015790984543981,0.0015791047125339,-0.0015791038616274,0.0015790993427667,-0.0015790997518008,0.0015791033949653,-0.00157910513539,0.0015790980057227,-0.0013239962731351,0.0013240103403358,-0.0013240120803002,0.0013239944732929,-1.7961976946875e-09,2.2736250571131e-09,5.5828239577228e-09,-5.152139391373e-09,-0.0014912448259296,0.0014912452602759,-0.0015791002700548,0.0015791029126094,-0.0015791037678384,0.0015790993319737,-0.0015790989707084,0.0015791042563687,-0.0015791024648102,0.0015791006762163,-0.0013239971953682,0.0013240095345316,-0.0013240076104509,0.0013239988520061,-0.0014864969352682,0.0014864898374658,-0.001486492952721,0.0014864938888391,-7.6278413252847e-09,8.7311626163577e-09,-0.00083838241104542,0.00083838349561476,-4.6728438266798e-09,5.9864822522833e-09,-0.00096203040137414,0.00096202242378915,-0.00096202687587321,0.00096202595801944,-0.00096202494615693,0.00096202787074943,-0.00096202141568531,0.00096203141428213,-0.00094942283110699,0.00094944350773162,-0.00094943884937225,0.00094942749096201,0.61178639296125,125803,2834,0.0061930061638861,0.0061930061688042,0.0034909519911866,17.230982679809,-0.00010215213856153,-0.00010215213856153,-0.00010215213856153,3429796.7813623,0.016004440007829
18819200,0.98423506201165,0.01613853370679,0.0060723087206521,0.0060723087237474,0.0039939162623904,-0.0014912385863799,0.0014912381395308,7.9739933889755e-09,-8.4232641625912e-09,1.7351459066013e-09,-2.2195532384662e-09,-0.0015791177793006,0.0015791241155707,-0.0015791232605327,0.0015791186704741,-0.0015791190805904,0.0015791227938425,-0.0015791245395884,0.0015791173289092,-0.0013239615516317,0.0013239758358466,-0.001323977584927,0.0013239597438601,-1.7881412247483e-09,2.2643679452191e-09,5.5703331651847e-09,-5.141078216742e-09,-0.0014912381481246,0.001491238581242,-0.001579119635321,0.0015791222732832,-0.0015791231235627,0.0015791187001268,-0.0015791183401041,0.0015791236119233,-0.0015791218268488,0.001579120039667,-0.0013239625941265,0.0013239749048301,-0.0013239729873919,0.0013239642422969,-0.001486495149002,0.0014864880765379,-0.001486491181569,0.001486492104687,-7.7183230537058e-09,8.8182919540869e-09,-0.00083826516025954,0.00083826624198872,-4.6485493899831e-09,5.9594816516064e-09,-0.00096192604354299,0.00096191801968754,-0.0009619225338829,0.0009619215368769,-0.00096192052749012,0.00096192352641294,-0.00096191701509334,0.00096192705334132,-0.00094932656868287,0.00094934739628289,-0.00094934275595753,0.00094933120535335,0.64922936103381,125803,2834,0.0061929782703705,0.0061929782775245,0.0034904658934194,16.994005971074,-0.00010404795223141,-0.00010404795223141,-0.00010404795223141,3430024.8948017,0.016003889461195
19019200,0.98456982376782,0.016143818204914,0.0060743026537899,0.0060743026568881,0.0039952128942358,-0.0014912897239066,0.0014912892771059,8.0764031861912e-09,-8.5257258420455e-09,1.7355528411697e-09,-2.2197678953204e-09,-0.0015791590316687,0.0015791654362732,-0.001579164581005,0.0015791599230276,-0.0015791603330892,0.0015791641144124,-0.0015791658603178,0.0015791585812293,-0.0013240332381633,0.0013240477228124,-0.0013240494723812,0.0013240314301134,-1.7870684539913e-09,2.2630672481753e-09,5.552269865824e-09,-5.1232359514489e-09,-0.0014912892858151,0.0014912897187154,-0.0015791609274541,0.0015791635539603,-0.001579164403776,0.0015791599929008,-0.001579159632948,0.0015791648918987,-0.001579163107876,0.0015791613316159,-0.001324034398554,0.0013240466731552,-0.0013240447569049,0.0013240360458342,-0.0014865626409508,0.0014865555827484,-0.0014865586757712,0.0014865596081693,-7.8193824145121e-09,8.91762191736e-09,-0.00083812984783053,0.00083813092784365,-4.6302793478042e-09,5.9393049199026e-09,-0.00096188700633464,0.00096187892667921,-0.0009618835093923,0.00096188243112604,-0.00096188142337779,0.00096188450031715,-0.00096187792383527,0.00096188801440912,-0.00094920894518031,0.000949229954212,-0.00094922532823881,0.00094921356712928,0.68719100223889,125803,2834,0.0061931881440116,0.0061931881512946,0.0034899090505162,16.757350068593,-0.00010594119945126,-0.00010594119945126,-0.00010594119945126,3422313.7098176,0.01600375084582
19219200,0.98490307020844,0.0161492392518,0.0060763436486992,0.0060763436517992,0.0039965519513013,-0.0014923802407436,0.0014923797940646,8.1753853911764e-09,-8.623602554685e-09,1.7326146679877e-09,-2.2181910693737e-09,-0.0015802063158056,0.0015802127852721,-0.0015802119309575,0.0015802072060034,-0.0015802076159697,0.0015802114646273,-0.001580213208705,0.0015802058658304,-0.0013251724777843,0.0013251871584647,-0.0013251889036562,0.0013251706728586,-1.788377896577e-09,2.2645693924598e-09,5.506220218858e-09,-5.0767965675188e-09,-0.0014923798022754,0.0014923802353928,-0.0015802082601378,0.0015802108555209,-0.0015802117063709,0.0015802073252121,-0.0015802069649879,0.0015802121941803,-0.0015802104093883,0.0015802086649268,-0.00132517378306,0.0013251859678613,-0.0013251840515049,0.0013251754330685,-0.0014876809854679,0.0014876739550954,-0.0014876770204926,0.0014876779872467,-7.9251222784757e-09,9.0203375536737e-09,-0.0008388475680799,0.00083884864464901,-4.5891218499224e-09,5.8937288317015e-09,-0.0009628185811274,0.00096281045772816,-0.00096281511323776,0.00096281393314842,-0.00096281292876706,0.00096281610061434,-0.00096280945798076,0.00096281958600795,-0.00094998147384745,0.00095000265579128,-0.00094999806315595,0.00094998606624151,0.70677987082999,125803,2834,0.0061976991907406,0.0061976991966563,0.0034929014116459,17.022152137979,-0.00010382278289617,-0.00010382278289617,-0.00010382278289617,3413919.2044067,0.016015959231908
19419200,0.98523994247046,0.016154603567372,0.0060783680211929,0.0060783680243049,0.0039978675218746,-0.0014939879568093,0.001493987507995,8.2882484249352e-09,-8.7383815163253e-09,1.7449301523463e-09,-2.2332280751211e-09,-0.0015817648232286,0.0015817713749152,-0.0015817705134474,0.0015817657204968,-0.0015817661316384,0.0015817700459786,-0.0015817718009868,0.0015817643702893,-0.0013268314882256,0.0013268463836303,-0.0013268481391863,0.0013268296717609,-1.7750920679793e-09,2.2490489289758e-09,5.4597314723046e-09,-5.0323322262416e-09,-0.0014939875180326,0.0014939879490339,-0.0015817668206167,0.0015817693924901,-0.0015817702362826,0.0015817658934735,-0.0015817655342429,0.0015817707224424,-0.0015817689494578,0.0015817672225734,-0.0013268329498355,0.001326845036325,-0.001326843131833,0.0013268345882263,-0.001489310833642,0.0014893038621119,-0.0014893068998075,0.0014893078635173,-8.0162438899618e-09,9.1069733800969e-09,-0.00083997591949243,0.00083997699143198,-4.5326826836866e-09,5.8317657774419e-09,-0.00096422541718618,0.00096421726863061,-0.00096422198789897,0.00096422070548787,-0.00096421970470169,0.00096422297166206,-0.00096421627411486,0.00096422641672802,-0.00095117945798473,0.00095120076741216,-0.00095119621930388,0.00095118400722987,0.69264757210216,125803,2834,0.0062043503520424,0.0062043503567217,0.0034976025175019,17.538405803692,-9.9692753570464e-05,-9.9692753570464e-05,-9.9692753570464e-05,3406824.3222544,0.016034253344005
19619200,0.98558031872938,0.01615988918709,0.0060803678957816,0.0060803678989099,0.0039991533923989,-0.0014955807571285,0.0014955803090151,8.388745863631e-09,-8.8390361228079e-09,1.743089206233e-09,-2.2291934120244e-09,-0.0015833282531039,0.0015833348698877,-0.0015833340096921,0.0015833291485966,-0.0015833295595033,0.0015833335427198,-0.0015833352954451,0.0015833278005665,-0.0013284471941641,0.0013284622872405,-0.0013284640422387,0.0013284453793297,-1.777419338824e-09,2.2517013814041e-09,5.4146081796844e-09,-4.9871191350606e-09,-0.0014955803189918,0.0014955807502645,-0.0015833302979009,0.001583332838345,-0.0015833336833043,0.0015833293693115,-0.0015833290097014,0.0015833341696543,-0.0015833323950709,0.0015833307003702,-0.001328448795938,0.0013284607955118,-0.0013284588889957,0.0013284504362684,-0.0014909167018188,0.001490909755698,-0.0014909127599885,0.0014909137592302,-8.1202747094175e-09,9.2074162381365e-09,-0.00084110616985512,0.00084110723848867,-4.4912377643188e-09,5.7868808853936e-09,-0.00096560398439369,0.00096559579317879,-0.00096560058382181,0.00096559920116664,-0.00096559820367533,0.00096560156440903,-0.0009655948018427,0.00096560498085051,-0.00095238643705197,0.00095240791436382,-0.00095240339705144,0.00095239095158238,0.67638953028468,125803,2834,0.0062109401216701,0.0062109401281133,0.0035023103308503,18.061063454054,-9.551149236757e-05,-9.551149236757e-05,-9.551149236757e-05,3404039.2990015,0.016052429555051
19819200,0.98592392842327,0.016165069597603,0.0060823337006471,0.0060823337037799,0.0040004021931764,-0.0014971429694432,0.0014971425224501,8.4834577352483e-09,-8.9327837997631e-09,1.7363630588887e-09,-2.2210130245767e-09,-0.0015848795421423,0.0015848862184679,-0.0015848853620467,0.0015848804337963,-0.0015848808441183,0.0015848848957921,-0.0015848866424935,0.0015848790911857,-0.0013300052416542,0.0013300205237744,-0.0013300222734905,0.0013300034326799,-1.7840036306784e-09,2.259307153215e-09,5.373271464284e-09,-4.9448555548347e-09,-0.0014971425314387,0.0014971429636784,-0.001584881631873,0.0015848841414292,-0.0015848849903844,0.0015848806998865,-0.0015848803395486,0.0015848854770615,-0.0015848836969901,0.0015848820360525,-0.0013300069761609,0.0013300188980581,-0.0013300169864527,0.0013300086225286,-0.0014924852449577,0.0014924783124501,-0.001492481287657,0.0014924823311214,-8.2299040747638e-09,9.3148252159542e-09,-0.00084223333640499,0.00084223440271439,-4.4579629218443e-09,5.7510061732955e-09,-0.00096694185625774,0.0009669336139971,-0.00096693847924526,0.0009669369984446,-0.00096693600375046,0.00096693945703584,-0.00096693262455915,0.00096694285088408,-0.00095359515780312,0.00095361682338619,-0.00095361233103888,0.00095359964663807,0.65786894047675,125803,2834,0.0062174038253327,0.0062174038320065,0.0035070036387885,18.583970326503,-9.1328237387973e-05,-9.1328237387973e-05,-9.1328237387973e-05,3405123.7742561,0.016070334815671
20019200,0.98626126153681,0.016170342451025,0.0060843284232355,0.006084328426371,0.0040016856014181,-0.0014978237543288,0.0014978233065562,8.5953588087473e-09,-9.0468775241017e-09,1.747192985336e-09,-2.2302845969247e-09,-0.0015855660945627,0.0015855728507108,-0.0015855719895972,0.0015855669916305,-0.0015855674024723,0.0015855715224917,-0.0015855732766529,0.0015855656418788,-0.0013306726993496,0.0013306881940178,-0.0013306899559601,0.0013306708803359,-1.7750910021295e-09,2.248808027622e-09,5.3809100705203e-09,-4.9543237367095e-09,-0.0014978233174769,0.001497823748195,-0.0015855682178577,0.0015855707372491,-0.0015855715818238,0.0015855672908979,-0.0015855669314255,0.0015855720677366,-0.0015855702947371,0.0015855686200528,-0.0013306745329127,0.0013306864645315,-0.0013306845605842,0.0013306761690269,-0.0014931726214429,0.0014931657024167,-0.0014931686798216,0.0014931696953192,-8.3197517409864e-09,9.4042334252713e-09,-0.00084261074083639,0.00084261180716855,-4.4526662160741e-09,5.7464394205447e-09,-0.00096744822818657,0.0009674399288903,-0.00096744485391987,0.00096744331044785,-0.00096744231552496,0.00096744583227892,-0.00096743894013848,0.00096744922225533,-0.00095402868367667,0.00095405051840553,-0.00095404602837584,0.00095403316606074,0.68048383183388,125803,2834,0.0062202196023069,0.0062202196122197,0.0035085788582361,18.671503962653,-9.0627968298775e-05,-9.0627968298775e-05,-9.0627968298775e-05,3404645.2596517,0.016077658189029
20219200,0.98658991534461,0.016175628981334,0.0060863236947093,0.0060863236978298,0.0040029815887952,-0.001498289649315,0.0014982892022788,8.6867306345184e-09,-9.1364763115085e-09,1.7386045898232e-09,-2.2227139836724e-09,-0.0015860174353406,0.0015860242483721,-0.0015860233909276,0.0015860183282648,-0.0015860187386473,0.0015860229244308,-0.0015860246726841,0.0015860169842432,-0.001331154429798,0.0013311701085409,-0.0013311718609516,0.0013311526191126,-1.7826799839384e-09,2.2576059793003e-09,5.3966507377933e-09,-4.9686700723267e-09,-0.0014982892116949,0.0014982896435774,-0.0015860195849607,0.0015860221107976,-0.0015860229590051,0.0015860186536303,-0.0015860182936851,0.0015860234454959,-0.001586021666622,0.0015860199886917,-0.001331156339811,0.0013311683064744,-0.0013311663961419,0.0013311579843455,-0.0014936530210238,0.0014936460756372,-0.0014936490656472,0.0014936500900878,-8.4307903491532e-09,9.517630648211e-09,-0.00084276444412513,0.00084276551254639,-4.4784665172493e-09,5.7740537781904e-09,-0.00096775733574667,0.00096774894656631,-0.00096775394421603,0.00096775234548859,-0.00096775134872504,0.00096775492417061,-0.0009677479550653,0.00096775833245829,-0.00095422751340741,0.00095424959030216,-0.00095424508113198,0.00095423201791525,0.69908659049951,125803,2834,0.0062221451232947,0.0062221451309101,0.0035092263928525,18.638411172871,-9.0892710617031e-05,-9.0892710617031e-05,-9.0892710617031e-05,3398454.5988411,0.016082230051627
20419200,0.98691006277403,0.016180786018413,0.006088270232433,0.0060882702355526,0.0040042455504272,-0.0014987581793547,0.0014987577331252,8.7812224665049e-09,-9.2299704786199e-09,1.7336889222876e-09,-2.2171627926104e-09,-0.0015864587719317,0.0015864656454564,-0.0015864647905859,0.0015864596620334,-0.00158646007211,0.0015864643246891,-0.0015864660685347,0.0015864583220556,-0.0013316543083284,0.0013316701750549,-0.0013316719229227,0.0013316525021397,-1.7875678029718e-09,2.2633297860803e-09,5.4202957608751e-09,-4.9914896142201e-09,-0.0014987577417122,0.001498758174381,-0.0015864609454443,0.0015864634843621,-0.0015864643350083,0.001586460010923,-0.0015864596508781,0.0015864648221775,-0.001586463038906,0.0015864613502217,-0.0013316562883748,0.0013316683039382,-0.0013316663893036,0.0013316579370717,-0.001494136855737,0.0014941298840536,-0.0014941328895373,0.0014941339106018,-8.5381144597704e-09,9.6274943833611e-09,-0.00084289265232044,0.0008428937232721,-4.5073175888155e-09,5.8057293828046e-09,-0.00096807319530829,0.00096806471629733,-0.00096806978391831,0.00096806813493718,-0.00096806713609964,0.00096807076591429,-0.00096806372205192,0.00096807419492271,-0.00095439760118138,0.00095441991419296,-0.00095441538235443,0.00095440212873118,0.69998400276559,125803,2834,0.0062240809012674,0.0062240809087462,0.0035097697212537,18.602178991319,-9.1182568069446e-05,-9.1182568069446e-05,-9.1182568069446e-05,3389479.4775469,0.016086717181705
20619200,0.9872219349263,0.016185283393301,0.0060899851702497,0.0060899851733701,0.0040053130496807,-0.0014991860992903,0.0014991856525884,8.887041623567e-09,-9.336224741331e-09,1.7365291010515e-09,-2.2205751216014e-09,-0.0015868692027918,0.0015868761486108,-0.0015868752922717,0.0015868700947085,-0.0015868705048209,0.0015868748260261,-0.0015868765724897,0.00158686875223,-0.0013320991620594,0.0013321152347657,-0.001332116984937,0.0013320973532097,-1.7847629933627e-09,2.2599927470767e-09,5.4517105009925e-09,-5.0233977340794e-09,-0.001499185661643,0.0014991860938134,-0.0015868714013984,0.0015868739627037,-0.0015868748118365,0.001586870468502,-0.0015868701086846,0.0015868752987845,-0.001586873517877,0.0015868718052541,-0.0013321012152707,0.001332113291088,-0.0013321113785106,0.0013321028609218,-0.0014945611217936,0.00149455413523,-0.0014945571621461,0.0014945581548028,-8.6335316088843e-09,9.7251472401627e-09,-0.00084298659934673,0.00084298767257495,-4.5329649150555e-09,5.8339480853069e-09,-0.00096835718392349,0.00096834862461825,-0.00096835375439739,0.00096835206156551,-0.00096835106020105,0.00096835473892508,-0.00096834762832846,0.00096835818546365,-0.00095452111748567,0.00095454363884158,-0.00095453908695039,0.00095452566537849,0.63099124196503,125803,2834,0.006225848574528,0.0062258485819335,0.0035101704730228,18.565824147352,-9.1473406821186e-05,-9.1473406821186e-05,-9.1473406821186e-05,3381638.0803849,0.016090718042231
20819200,0.98751123645526,0.016189778894908,0.0060916867836634,0.006091686786785,0.0040064053244599,-0.0014979577968608,0.0014979573503657,8.9865538674186e-09,-9.4361578037975e-09,1.7365729115955e-09,-2.2194795821282e-09,-0.0015856756038002,0.0015856826157892,-0.0015856817598537,0.0015856764956175,-0.0015856769055951,0.0015856812935474,-0.0015856830396094,0.0015856751535209,-0.0013308426265345,0.001330858893559,-0.0013308606451522,0.0013308408173941,-1.7861301793608e-09,2.261546579474e-09,5.5270259795916e-09,-5.0986609363053e-09,-0.0014979573593564,0.0014979577916699,-0.0015856778108322,0.0015856804212644,-0.0015856812707773,0.0015856768767052,-0.001585676517183,0.0015856817582249,-0.0015856799757849,0.0015856782145072,-0.0013308447014393,0.0013308569256135,-0.0013308550109647,0.0013308463469702,-0.0014933264148234,0.0014933193752729,-0.0014933224501004,0.0014933233960846,-8.7337246260177e-09,9.8309396464244e-09,-0.00084174877784605,0.00084174985700926,-4.6060604035734e-09,5.91416473385e-09,-0.00096708479205312,0.00096707611884507,-0.00096708131152856,0.00096707960676083,-0.0009670785997844,0.00096708230177521,-0.00096707511678313,0.00096708579946225,-0.0009532696478534,0.00095329242756276,-0.0009532878179135,0.000953274250828,0.67642717477117,125803,2834,0.0062207632820022,0.0062207632898721,0.0035050284275891,17.743259893111,-9.805392085511e-05,-9.805392085511e-05,-9.805392085511e-05,3377162.659117,0.016075158401436
21019200,0.9877783448837,0.016193795861594,0.0060932113146817,0.0060932113178003,0.0040073732291121,-0.0014965775199874,0.001496577074039,9.084179107211e-09,-9.5330942802782e-09,1.7334581272206e-09,-2.2159486048794e-09,-0.0015842912474222,0.0015842983230153,-0.0015842974689797,0.0015842921380959,-0.0015842925474613,0.0015842970027256,-0.0015842987464436,0.0015842907978984,-0.0013294881369186,0.001329504597234,-0.0013295063452157,0.0013294863310189,-1.7896240256262e-09,2.2654898569505e-09,5.5997208534855e-09,-5.1709086335922e-09,-0.001496577082686,0.0014965775154664,-0.0015842934631536,0.0015842961200371,-0.0015842969713513,0.0015842925272802,-0.0015842921675624,0.0015842974592927,-0.0015842956737196,0.0015842938671632,-0.0013294902373003,0.0013295026061661,-0.0013295006875331,0.0013294918852384,-0.0014919433051846,0.0014919362099833,-0.0014919393325936,0.0014919402384299,-8.8362099533172e-09,9.9391977122442e-09,-0.0008403213087488,0.00084032239379589,-4.6787163666637e-09,5.993590698093e-09,-0.00096569640982518,0.00096568762189195,-0.00096569287908951,0.00096569116051286,-0.00096569014787824,0.00096569387500947,-0.0009656866138136,0.00096569742308805,-0.0009518012370482,0.00095182427998101,-0.00095181961447855,0.00095180589687342,0.65601664888545,125803,2834,0.00621504746817,0.0062150474767133,0.0034991019396606,16.832746001861,-0.00010533803198511,-0.00010533803198511,-0.00010533803198511,3362854.3769878,0.016057521481097
21219200,0.98802513078203,0.016197530726704,0.0060946270775508,0.0060946270806661,0.0040082765684871,-0.0014951312673687,0.0014951308209562,9.1883822317594e-09,-9.6374086698394e-09,1.7357818339976e-09,-2.2193202571131e-09,-0.0015828543313859,0.0015828614776623,-0.0015828606221291,0.0015828552232508,-0.0015828556330273,0.0015828601557926,-0.0015828619014079,0.001582853881431,-0.001328047734125,0.0013280643974924,-0.0013280661471998,0.0013280459262381,-1.7870985423074e-09,2.2626207570408e-09,5.6660512918826e-09,-5.237491155847e-09,-0.001495130829794,0.0014951312622367,-0.0015828565604713,0.0015828592625095,-0.0015828601119199,0.0015828556250805,-0.0015828552662028,0.0015828606001136,-0.0015828588162112,0.0015828569636572,-0.0013280498727177,0.0013280623701349,-0.0013280604534168,0.0013280515180597,-0.0014904936582689,0.0014904865241395,-0.0014904896928885,0.0014904905484732,-8.9322566550277e-09,1.0039863848992e-08,-0.00083889679821095,0.00083889788785301,-4.7393214439868e-09,6.059376928775e-09,-0.00096425417471906,0.00096424528308911,-0.00096425060146635,0.00096424886374501,-0.00096424784658807,0.0009642516018139,-0.00096424427076574,0.00096425519233381,-0.00095033786227485,0.00095036114401178,-0.00095035643205228,0.00095034256965359,0.65967101896981,125803,2834,0.0062090596034636,0.0062090596111348,0.0034931847264927,15.919781220222,-0.00011264175023822,-0.00011264175023822,-0.00011264175023822,3352618.7294984,0.016039340901274
21419200,0.98825660872004,0.016201057742005,0.0060959625261101,0.0060959625292259,0.0040091326866689,-0.0014941065598123,0.0014941061126332,9.2954880296331e-09,-9.7447530983055e-09,1.7394821343678e-09,-2.2246827152348e-09,-0.0015818336463524,0.0015818408661585,-0.0015818400083821,0.0015818345406554,-0.0015818349507191,0.0015818395416625,-0.001581841290799,0.001581833195485,-0.001327030322981,0.0013270471948485,-0.0013270489466477,0.0013270285120093,-1.7825715497804e-09,2.2573374092176e-09,5.7046568168281e-09,-5.2766829387928e-09,-0.0014941061219769,0.0014941065537269,-0.0015818358987783,0.0015818386287867,-0.0015818394756474,0.0015818349657848,-0.0015818346074776,0.0015818399635248,-0.0015818381833139,0.0015818363007654,-0.0013270325304204,0.001327045101309,-0.0013270431881882,0.0013270341718358,-0.0014894693169363,0.0014894621667899,-0.0014894653638704,0.0014894661819727,-9.0265493167207e-09,1.0136520230118e-08,-0.00083786200774382,0.00083786309960793,-4.7706953247219e-09,6.0931181914337e-09,-0.00096321885360095,0.00096320987837464,-0.00096321525829615,0.00096321348104529,-0.00096321246139121,0.00096321626107027,-0.00096320886416244,0.00096321987302632,-0.00094927829510155,0.00094930178690811,-0.00094929705173948,0.00094928302786756,0.66373453938335,125803,2834,0.0062048167709474,0.0062048167776899,0.0034888870359702,15.231076144795,-0.00011815139084164,-0.00011815139084164,-0.00011815139084164,3344382.8435015,0.016026352269342
21619200,0.98847420335786,0.016204402982327,0.0060972276865736,0.006097227689694,0.0040099476060594,-0.001493117736519,0.0014931172910396,9.382399176969e-09,-9.8300167591474e-09,1.7283412107742e-09,-2.211574365333e-09,-0.0015808466753421,0.0015808539470999,-0.0015808530954986,0.0015808475629111,-0.0015808479724344,0.0015808526301325,-0.0015808543690689,0.001580846227083,-0.0013260538012827,0.0013260708509858,-0.0013260725942012,0.0013260519984062,-1.7933541529087e-09,2.270087022813e-09,5.7207968731998e-09,-5.2910273631246e-09,-0.0014931172984369,0.0014931177319522,-0.0015808489514956,0.001580851686383,-0.0015808525389083,0.0015808480116085,-0.0015808476529822,0.0015808530282384,-0.001580851238269,0.0015808493559998,-0.0013260560782115,0.0013260686869886,-0.0013260667647544,0.0013260577273431,-0.0014884803485812,0.0014884731652581,-0.0014884763720937,0.0014884772062434,-9.1422859627008e-09,1.0253973039927e-08,-0.00083686510103404,0.00083686619467493,-4.8002538725337e-09,6.124776342446e-09,-0.00096222924659861,0.00096222017586432,-0.00096222563166869,0.00096222379769429,-0.00096222277732044,0.00096222663518046,-0.00096221915953238,0.00096223026868762,-0.00094825380831833,0.00094827755000523,-0.00094827279295681,0.00094825856300501,0.66920855335032,125803,2834,0.0062007224084415,0.0062007224142986,0.003484746912612,14.566709368601,-0.00012346632505119,-0.00012346632505119,-0.00012346632505119,3335868.8429101,0.016013825714959
21819200,0.98867887465636,0.016207503405718,0.006098401443286,0.0060984014464119,0.0040107005160199,-0.0014921163084861,0.0014921158625469,9.4882629324922e-09,-9.9366705984752e-09,1.7326456819814e-09,-2.2159254832917e-09,-0.0015798437168849,0.0015798510615256,-0.0015798502077586,0.0015798446071991,-0.001579845016609,0.0015798497416955,-0.0015798514846186,0.0015798432677812,-0.0013250700333812,0.0013250872862737,-0.0013250890329713,0.0013250682282478,-1.7891016695839e-09,2.2649368929899e-09,5.7361517751311e-09,-5.3072696080051e-09,-0.0014921158708972,0.0014921163036236,-0.0015798460229037,0.0015798487703725,-0.0015798496205919,0.001579845085915,-0.0015798447273495,0.0015798501091992,-0.0015798483232523,0.0015798464262327,-0.0013250723981221,0.0013250850339386,-0.001325083114903,0.0013250740445349,-0.0014874768937677,0.0014874697086007,-0.0014874729242319,0.0014874737383351,-9.2384363984682e-09,1.0350746521534e-08,-0.00083585891275007,0.00083586000714631,-4.810270128816e-09,6.1358918989478e-09,-0.00096123839545031,0.00096122925377017,-0.00096123477327172,0.00096123288329994,-0.00096123186177063,0.00096123577797255,-0.00096122823669181,0.00096123941787054,-0.00094721512992256,0.00094723906967594,-0.00094723430408718,0.00094721989150482,0.65988854844031,125803,2834,0.0061965757276427,0.0061965757348625,0.0034805684806449,13.90302309942,-0.00012877581520464,-0.00012877581520464,-0.00012877581520464,3326561.4847739,0.016001154209033
22019200,0.98888321034653,0.016210549140515,0.0060995556420345,0.0060995556451618,0.0040114378533183,-0.0014928832162932,0.001492882769982,9.5879365247088e-09,-1.0033730538419e-08,1.7265350784209e-09,-2.2151542083242e-09,-0.0015806114738077,0.0015806188829288,-0.0015806180304433,0.0015806123623601,-0.0015806127715323,0.0015806175649459,-0.0015806193051176,0.0015806110252532,-0.0013258208871707,0.0013258383409063,-0.001325840076782,0.0013258190885991,-1.7914540218976e-09,2.2678219460309e-09,5.6827887294048e-09,-5.2527375505378e-09,-0.0014928827768379,0.0014928832101243,-0.0015806138329174,0.00158061654364,-0.0015806173955003,0.0015806128951084,-0.0015806125359298,0.001580617883837,-0.0015806160964219,0.0015806142371407,-0.0013258234095092,0.001325835942483,-0.0013258340228496,0.00132582506203,-0.0014882511382794,0.0014882439841971,-0.0014882471738963,0.0014882480297774,-9.3445237923048e-09,1.0453612484755e-08,-0.00083645786982835,0.00083645895984695,-4.7633144483166e-09,6.0824617160681e-09,-0.00096189621872122,0.00096188703647727,-0.00096189262992253,0.00096189063268072,-0.0009618896150506,0.00096189363018864,-0.00096188602334334,0.00096189723696234,-0.00094785908860416,0.00094788319738046,-0.00094787847268188,0.0009478638204011,0.64982378755221,125803,2834,0.0061997497833544,0.0061997497847658,0.0034830597611363,14.153209488056,-0.00012677432409555,-0.00012677432409555,-0.00012677432409555,3329980.0343243,0.016010135269749
22219200,0.98908840621648,0.016213583205277,0.0061007062842493,0.0061007062874001,0.0040121706336278,-0.0014938327373228,0.001493832290903,9.6963471901315e-09,-1.0144759206452e-08,1.7351917283779e-09,-2.2196633803368e-09,-0.0015815775825503,0.0015815850672396,-0.0015815842116199,0.0015815784742977,-0.0015815788839427,0.0015815837455742,-0.0015815854907976,0.0015815771326655,-0.0013267382492412,0.0013267559091776,-0.0013267576569429,0.0013267364421484,-1.7851860724379e-09,2.2603459897112e-09,5.6243267478921e-09,-5.1959736531488e-09,-0.0014938322996856,0.0014938327317914,-0.0015815799946472,0.0015815826699736,-0.0015815835187065,0.0015815790603688,-0.0015815787015739,0.0015815840063181,-0.001581582224309,0.0015815803976368,-0.001326740928511,0.0013267533431292,-0.0013267514287255,0.0013267425730578,-0.001489201400618,0.0014891942981602,-0.0014891974415414,0.001489198319936,-9.4407581004206e-09,1.0543730673677e-08,-0.00083723020375767,0.0008372312884665,-4.6993918908752e-09,6.0137138217001e-09,-0.00096272436839956,0.0009627151626875,-0.00096272082347797,0.00096271871488611,-0.00096271770246948,0.00096272181901241,-0.00096271415528072,0.0009627253811078,-0.00094868073453502,0.00094870497338051,-0.00094870029544621,0.00094868541023519,0.64497435216715,125803,2834,0.0062036800422839,0.0062036800490115,0.0034862708111958,14.499489413513,-0.0001240040846919,-0.0001240040846919,-0.0001240040846919,3336687.7287859,0.016021384475513
22419200,0.98929440245399,0.01621676219596,0.0061019073444326,0.0061019073475859,0.0040129475039417,-0.0014947903749113,0.0014947899289021,9.7941817574703e-09,-1.0242402041766e-08,1.7329395973554e-09,-2.2167148545887e-09,-0.0015825548868922,0.0015825624354461,-0.0015825615808833,0.0015825557770643,-0.0015825561866908,0.0015825611152407,-0.0015825628583075,0.0015825544375029,-0.0013276600091954,0.0013276778617758,-0.0013276796080798,0.0013276582039013,-1.7874387470321e-09,2.2629965101669e-09,5.5620419495343e-09,-5.1333601720175e-09,-0.0014947899372674,0.001494790369722,-0.001582557351956,0.0015825599847377,-0.0015825608347881,0.0015825564164444,-0.0015825560573325,0.0015825613223881,-0.001582559538797,0.0015825577557462,-0.0013276628442987,0.0013276751378235,-0.0013276732222069,0.0013276644913891,-0.0014901641422271,0.0014901570763971,-0.001490160177523,0.0014901611033854,-9.5483761795358e-09,1.0646463593139e-08,-0.00083801430174349,0.0008380153815557,-4.6431454573527e-09,5.9518900505706e-09,-0.00096355495551855,0.00096354571432401,-0.00096355145006579,0.00096354922699108,-0.0009635482195353,0.00096355244065059,-0.0009635447115511,0.00096355596370626,-0.00094952040442838,0.00094954480547535,-0.00094954017117029,0.00094952503529489,0.67139353904211,125803,2834,0.0062076440023947,0.0062076440089679,0.003489530517451,14.84846612259,-0.00012121227101928,-0.00012121227101928,-0.00012121227101928,3343770.0196777,0.016032751620337
22619200,0.98950095788453,0.016219986628476,0.0061031247067651,0.0061031247099204,0.0040137372117901,-0.0014957697469614,0.0014957693008272,9.897358645899e-09,-1.0345818022126e-08,1.7343572347535e-09,-2.2180483797916e-09,-0.0015835338036776,0.0015835414217541,-0.0015835405665034,0.0015835346945954,-0.001583535104232,0.001583540100728,-0.001583541844932,0.0015835333539744,-0.0013286309297209,0.0013286489836753,-0.0013286507313511,0.0013286291232785,-1.7861851348585e-09,2.261454396941e-09,5.5084210523084e-09,-5.0800398310166e-09,-0.0014957693095286,0.0014957697417264,-0.0015835363205427,0.0015835389184646,-0.0015835397682986,0.0015835353861953,-0.001583535026809,0.0015835402554016,-0.0015835384731901,0.0015835367242881,-0.001328633918105,0.0013286461058378,-0.0013286441918942,0.0013286355644497,-0.0014911518101424,0.0014911447827163,-0.0014911478479263,0.0014911488060971,-9.6500217859811e-09,1.0743969428903e-08,-0.0008387619439043,0.00083876301951568,-4.5902915345515e-09,5.8942685793431e-09,-0.00096440917939209,0.00096439990449247,-0.00096440571067647,0.00096440338049036,-0.0009644023770099,0.00096440669730748,-0.00096439890586114,0.0009644101833497,-0.00095031915681868,0.00095034371143148,-0.00095033911811161,0.0009503237465565,0.67880267658089,125803,2834,0.0062116967451286,0.006211696752303,0.0034926419346212,15.186652380628,-0.00011850678095497,-0.00011850678095497,-0.00011850678095497,3345371.5459384,0.016044149234153
22819200,0.98970507415077,0.016223163406593,0.006104324716058,0.0061043247192138,0.0040145139713208,-0.0014963219981777,0.0014963215523297,9.9973158157466e-09,-1.0446017108936e-08,1.7340061278325e-09,-2.2165476428734e-09,-0.0015840824366007,0.0015840901208945,-0.0015840892660958,0.0015840833270062,-0.0015840837365719,0.0015840888004189,-0.0015840905438798,0.0015840819870959,-0.0013291845479454,0.0013292027975156,-0.0013292045458729,0.0013291827416526,-1.7873564368407e-09,2.2627827142625e-09,5.4758850616003e-09,-5.0474818241634e-09,-0.0014963215610432,0.0014963219933731,-0.001584084997127,0.0015840875728382,-0.0015840884234874,0.0015840840622668,-0.0015840837026235,0.0015840889105644,-0.0015840871274902,0.0015840854012515,-0.0013291876644593,0.0013291997889346,-0.0013291978742128,0.0013291893116051,-0.0014917091291247,0.0014917021208346,-0.0014917051624098,0.0014917061452028,-9.7540188329117e-09,1.0845534937617e-08,-0.00083910893734562,0.00083911001065897,-4.5602700071242e-09,5.8618303408155e-09,-0.00096486274032199,0.00096485341556132,-0.00096485929251542,0.00096485687067101,-0.00096485586954831,0.00096486027687247,-0.00096485241912132,0.00096486374213492,-0.00095069970345738,0.00095072443606004,-0.00095071986519912,0.00095070426869771,0.67691802819806,125803,2834,0.006213981007987,0.0062139810160794,0.0034940892686465,15.303382489502,-0.00011757294008398,-0.00011757294008398,-0.00011757294008398,3343160.5640666,0.01605026246396
23019200,0.98990667718252,0.016226082329186,0.0061054346526332,0.006105434655786,0.0040152130207666,-0.0014968433447214,0.0014968428987506,1.0098954967858e-08,-1.0547395249256e-08,1.7341033035697e-09,-2.2173569555024e-09,-0.0015846039816898,0.001584611733973,-0.0015846108788265,0.001584604872297,-0.0015846052819444,0.0015846104131726,-0.0015846121569532,0.001584603532081,-0.0013296990381722,0.0013297174871972,-0.0013297192348915,0.0013296972320039,-1.7871392834746e-09,2.2625171434988e-09,5.451999488951e-09,-5.0235457931831e-09,-0.0014968429074249,0.0014968433397296,-0.0015846065842265,0.0015846091442318,-0.0015846099948918,0.0015846056496138,-0.0015846052898776,0.0015846104817941,-0.0015846086990795,0.0015846069884254,-0.0013297022785757,0.0013297143562136,-0.0013297124420372,0.0013297039261219,-0.0014922294060916,0.0014922224142292,-0.0014922254412697,0.0014922264392437,-9.8561613271235e-09,1.0946032719038e-08,-0.00083943124622625,0.00083943231773773,-4.5370681720236e-09,5.8363612784201e-09,-0.00096528499353237,0.00096527561566712,-0.00096528156189753,0.00096527905458647,-0.00096527805512517,0.0009652825445236,-0.00096527462095044,0.00096528599358213,-0.00095105320112988,0.00095107811409013,-0.00095107356168415,0.00095105774939788,0.63260002901078,125803,2834,0.0062161374247625,0.0062161374323844,0.0034954337232984,15.41462141331,-0.00011668302869352,-0.00011668302869352,-0.00011668302869352,3341581.6079298,0.016056011371252
23219200,0.99010576473252,0.016229094262136,0.0061065750255767,0.0061065750287292,0.00401594420783,-0.0014973014040605,0.001497300957955,1.0200723649071e-08,-1.0649184984062e-08,1.7344507001335e-09,-2.2180339997603e-09,-0.0015850941864472,0.0015851020068349,-0.0015851011513791,0.0015850950772923,-0.0015850954870076,0.001585100685686,-0.0015851024298892,0.0015850937367009,-0.0013301056354407,0.0013301242836648,-0.0013301260314344,0.0013301038289124,-1.7868546694046e-09,2.2621623280734e-09,5.4343891448577e-09,-5.0059861860914e-09,-0.001497300966646,0.0014973013988828,-0.0015850968288684,0.0015850993773387,-0.0015851002279821,0.0015850958945321,-0.0015850955347159,0.0015851007147052,-0.0015850989323917,0.0015850972330643,-0.0013301089928578,0.0013301210358044,-0.0013301191221552,0.0013301106404739,-0.0014926888528988,0.0014926818733715,-0.0014926848890896,0.0014926858980122,-9.9578962206233e-09,1.1046421402173e-08,-0.00083978364868603,0.00083978471875845,-4.5199623134617e-09,5.8175015996715e-09,-0.00096563361784109,0.00096562418313403,-0.00096563019815571,0.00096562761011722,-0.00096562661199919,0.00096563117941527,-0.00096562318981552,0.00096563461646963,-0.00095145128830561,0.00095147638575095,-0.00095147184675855,0.00095145582349104,0.65900009900253,125803,2834,0.0062180337496901,0.0062180337569614,0.0034968981786907,15.525647699804,-0.00011579481840156,-0.00011579481840156,-0.00011579481840156,3348113.1552009,0.016061352635651
23419200,0.99030318388407,0.016232049198349,0.0061076949709143,0.0061076949740676,0.0040166592533675,-0.0014979288477573,0.0014979284011899,1.0305633896959e-08,-1.0754323653559e-08,1.737224914736e-09,-2.2217116992915e-09,-0.0015857335084892,0.0015857414004689,-0.0015857405434302,0.0015857344011127,-0.001585734810999,0.0015857400774883,-0.0015857418240586,0.0015857330582128,-0.0013307092324461,0.0013307280847217,-0.0013307298346989,0.001330707423655,-1.7839593279142e-09,2.2587898575569e-09,5.4247995830405e-09,-4.996788338616e-09,-0.0014979284102175,0.0014979288420109,-0.0015857361892765,0.0015857387329217,-0.00158573958229,0.0015857352567452,-0.0015857348971017,0.0015857400686102,-0.0015857382886753,0.0015857365929555,-0.0013307127026261,0.0013307247250076,-0.0013307228143772,0.0013307143480614,-0.0014933204878117,0.0014933135208489,-0.0014933165317179,0.0014933175401715,-1.0056054744606e-08,1.1143929814153e-08,-0.00084023865114393,0.00084023972040491,-4.5069958303233e-09,5.803481159467e-09,-0.00096614954580488,0.00096614005381268,-0.0009661461349039,0.00096614347199014,-0.00096614247453037,0.00096614711548712,-0.00096613906148344,0.00096615054341082,-0.00095194798556772,0.00095197326443336,-0.00095196873561023,0.00095195251199135,0.65256368330293,125803,2834,0.0062206301860691,0.0062206301928593,0.0034987919278535,15.704245402311,-0.00011436603678151,-0.00011436603678151,-0.00011436603678151,3349954.0089375,0.016068553541899
23619200,0.99050310552545,0.016235110879101,0.0061088529632669,0.006108852966423,0.0040174049494107,-0.001499210941998,0.0014992104953035,1.0407483549345e-08,-1.0855783845549e-08,1.736526272432e-09,-2.2219650669042e-09,-0.0015870297639871,0.0015870377236095,-0.0015870368664438,0.0015870306564166,-0.0015870310663976,0.0015870364005674,-0.0015870381471622,0.0015870293135664,-0.0013319521511587,0.001331971204245,-0.0013319729519648,0.0013319503431903,-1.7838379959737e-09,2.2586256530527e-09,5.4051283366766e-09,-4.9770248812548e-09,-0.0014992105042163,0.0014992109359875,-0.0015870324854197,0.0015870350161147,-0.0015870358653048,0.001587031553027,-0.0015870311933283,0.0015870363514487,-0.0015870345720585,0.0015870328890898,-0.0013319557417771,0.0013319677260271,-0.0013319658152709,0.001331957387839,-0.0014946125198378,0.00149460556626,-0.0014946085655205,0.0014946095856913,-1.0158134723747e-08,1.1244435302044e-08,-0.0008412877887112,0.0008412888562722,-4.4881648169784e-09,5.7823757430759e-09,-0.00096727066127116,0.00096726111343777,-0.00096726726363372,0.00096726451839471,-0.00096726352236119,0.00096726824271987,-0.00096726012264859,0.00096727165730253,-0.00095307198809991,0.00095309745031474,-0.00095309293691782,0.00095307650052028,0.66669033964991,125803,2834,0.0062259367827921,0.0062259367887956,0.0035031542998838,16.218485716791,-0.00011025211426567,-0.00011025211426567,-0.00011025211426567,3356816.7990929,0.016083770313132
23819200,0.99070550256244,0.016238379091331,0.0061100838437121,0.0061100838468742,0.0040182114007447,-0.0015005454882961,0.0015005450421303,1.0505903129165e-08,-1.095432026033e-08,1.7349492443739e-09,-2.2187704679088e-09,-0.0015883685099566,0.0015883765340558,-0.0015883756781466,0.0015883694011436,-0.0015883698108759,0.001588375212506,-0.0015883769571596,0.0015883680600838,-0.0013332633153474,0.0013332825614551,-0.0013332843093358,0.0013332615085623,-1.7859054575201e-09,2.2609978051187e-09,5.3945785721254e-09,-4.9663532581663e-09,-0.0015005450509155,0.0015005454829446,-0.0015883712671379,0.001588373789708,-0.0015883746401107,0.0015883703335734,-0.0015883699736746,0.0015883751264288,-0.0015883733452529,0.0015883716712955,-0.0013332670109714,0.0013332789753227,-0.0013332770631007,0.0013332686583469,-0.001495961265057,0.0014959543140842,-0.0014959573038867,0.0014959583368308,-1.0262841810184e-08,1.1348709394983e-08,-0.00084234854884398,0.00084234961615222,-4.4807947792548e-09,5.7749959045433e-09,-0.00096844031201681,0.00096843069932387,-0.0009684369194597,0.00096843409918766,-0.00096843310365481,0.00096843789814007,-0.00096842970871464,0.00096844130794272,-0.00095420947768087,0.0009542351393234,-0.00095423063034429,0.00095421398328359,0.70079154435567,125803,2834,0.0062314597503394,0.0062314597574454,0.0035075669791982,16.741066314046,-0.00010607146948763,-0.00010607146948763,-0.00010607146948763,3360933.1462157,0.016099478488831
24019200,0.99091023514157,0.016241723875049,0.0061113430213203,0.0061113430244837,0.0040190378292455,-0.0015019339315511,0.0015019334854674,1.06065335098e-08,-1.1054936991616e-08,1.7345568312442e-09,-2.2182008712507e-09,-0.0015897364083944,0.0015897444993995,-0.0015897436437409,0.0015897372993273,-0.0015897377090171,0.0015897431781399,-0.001589744922415,0.001589735958625,-0.0013346609889296,0.0013346804323943,-0.0013346821800867,0.0013346591824307,-1.7862283247155e-09,2.2613653707333e-09,5.3934570116202e-09,-4.9652004767929e-09,-0.0015019334942068,0.0015019339262791,-0.0015897391994238,0.0015897417211108,-0.0015897425716984,0.0015897382656705,-0.0015897379057505,0.0015897430580325,-0.0015897412765835,0.0015897396036559,-0.0013346647841125,0.0013346767464036,-0.0013346748338893,0.0013346664316732,-0.0014973666815042,0.0014973597305241,-0.0014973627193028,0.0014973637538143,-1.0364992544923e-08,1.145117514043e-08,-0.00084338337397381,0.00084338444162047,-4.4800842440347e-09,5.7746565609514e-09,-0.00096966194268117,0.00096965226251653,-0.00096965855051104,0.00096965566199227,-0.00096965466614511,0.00096965952951051,-0.00096965127152886,0.000969662938984,-0.00095531827500965,0.0009553441368916,-0.00095533962784388,0.00095532278042582,0.70866200144826,125803,2834,0.0062372042420625,0.0062372042492386,0.0035118760627471,17.263970007932,-0.00010188823993654,-0.00010188823993654,-0.00010188823993654,3358940.1300622,0.016115532541194
24219200,0.99111592561611,0.016244940375585,0.0061125590001692,0.0061125590033337,0.0040198223720826,-0.0015031381690671,0.0015031377228258,1.0708726897509e-08,-1.1157555703273e-08,1.7363653715827e-09,-2.2197490384259e-09,-0.001590919373599,0.0015909275336393,-0.0015909266771661,0.0015909202654438,-0.0015909206752678,0.001590926211387,-0.0015909279569932,0.0015909189235173,-0.0013358764654405,0.0013358961080257,-0.0013358978577405,0.0013358746571863,-1.784575489385e-09,2.2594145575433e-09,5.4081689705851e-09,-4.9802513521442e-09,-0.0015031377319039,0.0015031381636903,-0.0015909221935995,0.0015909247259953,-0.001590925575606,0.0015909212607041,-0.0015909209010524,0.0015909260618423,-0.0015909242817304,0.0015909225973895,-0.0013358803458124,0.0013358923359778,-0.0013358904246078,0.0013358819913234,-0.0014985812600416,0.001498574302607,-0.0014985773005772,0.001498578320934,-1.0464858476141e-08,1.155232764432e-08,-0.00084422949631002,0.00084423056536696,-4.4928983667834e-09,5.7891756563129e-09,-0.0009707068119916,0.00097069705706351,-0.00097070341066623,0.0009707004656859,-0.00097069946840106,0.0009707043911562,-0.00097069606477283,0.00097070780961132,-0.00095623082893456,0.00095625689754049,-0.00095625237773976,0.00095623534413697,0.68010062894134,125803,2834,0.0062421857450195,0.0062421857526807,0.0035154020545761,17.691921129993,-9.8464630960059e-05,-9.8464630960059e-05,-9.8464630960059e-05,3355309.372404,0.016129240637283
24419200,0.99131942565112,0.016248119363481,0.0061137610409228,0.0061137610440866,0.0040205972784713,-0.0015038340468338,0.001503833601156,1.0807548005298e-08,-1.1256117534865e-08,1.7336225310805e-09,-2.2159334825767e-09,-0.0015916178714545,0.0015916260957019,-0.0015916252409829,0.0015916187616767,-0.0015916191711064,0.0015916247755071,-0.0015916265184875,0.0015916174221049,-0.0013365567774981,0.0013365766149277,-0.0013365783630247,0.0013365549717182,-1.7877160380904e-09,2.2630633017832e-09,5.4418407411336e-09,-5.0135220028332e-09,-0.0015038336098316,0.0015038340420852,-0.001591620713183,0.0015916232661141,-0.0015916241173006,0.0015916197783224,-0.0015916194185149,0.0015916246040668,-0.0015916228210399,0.0015916211174521,-0.0013365607209728,0.0013365727788201,-0.0013365708645234,0.0013365623687891,-0.0014992827773131,0.0014992757909937,-0.0014992788098405,0.0014992798160727,-1.0567618766442e-08,1.1658040353634e-08,-0.00084467437655213,0.000844675448699,-4.5272716254907e-09,5.8272410342744e-09,-0.00097126479487298,0.00097125494943943,-0.00097126136959492,0.00097125838205495,-0.00097125738197171,0.00097126235290901,-0.00097125395402315,0.00097126579564381,-0.00095673194898993,0.00095675824912656,-0.00095675370179821,0.0009567364905774,0.67934589195243,125803,2834,0.0062450641392988,0.0062450641474287,0.0035172571960608,17.884615597108,-9.6923075223137e-05,-9.6923075223137e-05,-9.6923075223137e-05,3354682.6853538,0.016136976128229
24619200,0.99152062338189,0.016251410782721,0.0061150007436481,0.0061150007468097,0.0040214092922634,-0.0015045169492427,0.0015045165031744,1.0910764888152e-08,-1.135928578144e-08,1.7350729434773e-09,-2.2185022591612e-09,-0.0015923011616914,0.0015923094557693,-0.0015923086000287,0.0015923020530014,-0.0015923024626064,0.0015923081343427,-0.0015923098789258,0.001592300711963,-0.0013372265244546,0.0013372465637141,-0.0013372483121744,0.0013372247175547,-1.785852349966e-09,2.2608867897898e-09,5.480382621924e-09,-5.0522471903972e-09,-0.0015045165120089,0.0015045169439872,-0.0015923040255029,0.0015923066050295,-0.0015923074549933,0.0015923030914829,-0.0015923027320673,0.0015923079417141,-0.0015923061601674,0.0015923044291828,-0.001337230532653,0.0013372426651409,-0.0013372407521173,0.0013372321787994,-0.0014999778505481,0.0014999708424546,-0.0014999738887529,0.0014999748643619,-1.0665808246401e-08,1.1759219917874e-08,-0.00084511601894204,0.00084511709399981,-4.5623137135066e-09,5.8654164415364e-09,-0.00097180604530527,0.00097179611173761,-0.00097180259548962,0.00097179956883671,-0.00097179856574636,0.00097180358174388,-0.00097179511354584,0.00097180704880453,-0.00095723234661513,0.000957258868928,-0.00095725429485954,0.00095723691658254,0.70944457855468,125803,2834,0.0062478890361316,0.0062478890435393,0.0035190983060975,18.071447808561,-9.5428417531509e-05,-9.5428417531509e-05,-9.5428417531509e-05,3354175.1355378,0.016144588494026
24819200,0.99171948258084,0.016254428146864,0.0061161450896193,0.0061161450927816,0.0040221379644628,-0.0015052251800201,0.0015052247340242,1.1011501073671e-08,-1.1459910513777e-08,1.7344975651723e-09,-2.2178793294854e-09,-0.0015929924434963,0.0015930008043715,-0.0015929999489868,0.0015929933345432,-0.0015929937440872,0.0015929994833199,-0.0015930012274427,0.0015929919939107,-0.0013379459474052,0.0013379661843668,-0.0013379679322529,0.0013379441410591,-1.7863803417774e-09,2.2615006985027e-09,5.5173521389893e-09,-5.0891262191653e-09,-0.0015052247427694,0.0015052251748306,-0.0015929953287485,0.0015929979324773,-0.0015929987825342,0.0015929943942397,-0.0015929940349622,0.0015929992694845,-0.0015929974873082,0.0015929957323484,-0.0013379500182952,0.0013379622235842,-0.0013379603097045,0.0013379516646071,-0.0015006916898661,0.0015006846560716,-0.0015006877269411,0.0015006886793061,-1.0766552949481e-08,1.1862946725474e-08,-0.00084552477046625,0.00084552584855393,-4.597971309004e-09,5.9045451420014e-09,-0.00097237954923482,0.00097236952554903,-0.00097237607453953,0.00097237300754113,-0.00097237200152336,0.00097237706370341,-0.00097236852437636,0.00097238055571379,-0.00095768606345111,0.00095771281384408,-0.00095770821191056,0.00095769066135063,0.66112226929927,125803,2834,0.0062508175895758,0.0062508175969352,0.0035208058150116,18.258052804377,-9.3935577564988e-05,-9.3935577564988e-05,-9.3935577564988e-05,3348838.0910715,0.016152276556871
25019200,0.99191823563848,0.016257408171601,0.0061172762642065,0.0061172762673697,0.0040228556400249,-0.0015062220750417,0.0015062216292267,1.1110311300557e-08,-1.1558020534936e-08,1.7314465148504e-09,-2.2154981954627e-09,-0.0015940082691392,0.00159401669439,-0.0015940158399912,0.0015940091584702,-0.0015940095680494,0.0015940153746692,-0.0015940171168947,0.0015940078199057,-0.0013388963935849,0.0013389168267307,-0.0013389185704526,0.0013388945902058,-1.7885927778948e-09,2.2641290832321e-09,5.539382297126e-09,-5.1106560563406e-09,-0.0015062216374231,0.0015062220698553,-0.0015940111804982,0.0015940137976497,-0.0015940146481868,0.0015940102441376,-0.0015940098849794,0.0015940151355436,-0.0015940133518237,0.0015940115843488,-0.0013389005409991,0.0013389127912538,-0.0013389108749997,0.0013389021899077,-0.0015016921974201,0.0015016851445638,-0.0015016882313667,0.001501689173899,-1.0870301567414e-08,1.196811174099e-08,-0.00084628249228478,0.00084628357180664,-4.6221818588883e-09,5.9300818226573e-09,-0.00097320791699576,0.00097319780865264,-0.00097320442576137,0.00097320130705657,-0.00097320029952906,0.00097320541630993,-0.00097319680581576,0.00097320892517125,-0.00095851765375571,0.00095854462719735,-0.00095854000736389,0.00095852227049717,0.65362536842945,125803,2834,0.0062549430379141,0.0062549430441422,0.0035239581659377,18.629364197616,-9.0965086419069e-05,-9.0965086419069e-05,-9.0965086419069e-05,3354772.5684151,0.016163864342924
25219200,0.99212008351841,0.016260537804149,0.0061184605775719,0.0061184605807397,0.0040236166458369,-0.0015077463878327,0.0015077459411196,1.1219498858482e-08,-1.1667993796446e-08,1.7378397785406e-09,-2.2229595751109e-09,-0.0015955561982819,0.0015955646997857,-0.0015955638421831,0.0015955570913405,-0.0015955575014335,0.0015955633762291,-0.0015955651234683,0.0015955557478919,-0.0013403624907509,0.0013403831343625,-0.0013403848835391,0.0013403606814513,-1.7820171719516e-09,2.2564591707396e-09,5.5474778477464e-09,-5.119742297321e-09,-0.0015077459502617,0.0015077463816787,-0.0015955591433148,0.0015955617693505,-0.0015955626167942,0.0015955582107734,-0.0015955578523173,0.0015955631034337,-0.0015955613248459,0.0015955595458789,-0.0013403667378938,0.0013403790000903,-0.0013403770894038,0.0013403683802459,-0.0015032261322505,0.0015032190873277,-0.0015032221811839,0.001503223101659,-1.0963552791459e-08,1.2061600168983e-08,-0.00084752763245186,0.00084752871209836,-4.6217239324494e-09,5.9297770557701e-09,-0.00097452470170288,0.00097451453095134,-0.00097452121030348,0.00097451802933647,-0.00097451702154413,0.00097452220117478,-0.00097451352844117,0.00097452570958762,-0.00095985995411687,0.00095988710879773,-0.00095988248959879,0.00095986457134953,0.67454672948372,125803,2834,0.0062612520238362,0.0062612520300174,0.003529135144273,19.269976227721,-8.5840190178233e-05,-8.5840190178233e-05,-8.5840190178233e-05,3364966.5323924,0.016181947382714
25419200,0.99232491086763,0.016263980405596,0.0061197549072793,0.006119754910452,0.0040244705878648,-0.001509334883764,0.0015093344382211,1.1311646839601e-08,-1.1759334634164e-08,1.7310713696638e-09,-2.2144201738661e-09,-0.0015971513307204,0.0015971598897743,-0.0015971590359668,0.0015971522198359,-0.0015971526291837,0.0015971585708403,-0.0015971603120248,0.0015971508818685,-0.0013419180972079,0.0013419389248096,-0.0013419406692585,0.0013419162938588,-1.7890746525857e-09,2.264695428572e-09,5.5452935564618e-09,-5.1165430975654e-09,-0.0015093344462665,0.0015093348787685,-0.0015971543071067,0.001597156927745,-0.0015971577789057,0.0015971533705036,-0.0015971530113542,0.0015971582663737,-0.0015971564817814,0.0015971547111307,-0.0013419224355181,0.0013419346972667,-0.0013419327810029,0.0013419240842914,-0.0015048329080281,0.0015048258502293,-0.0015048289404515,0.0015048298811019,-1.1074550432037e-08,1.2173194801284e-08,-0.00084878572047615,0.00084878680076373,-4.6282634546218e-09,5.9372214223976e-09,-0.00097590327185768,0.00097589302321949,-0.00097589977627098,0.00097589652595856,-0.00097589551800303,0.00097590076733428,-0.00097589201984574,0.00097590428070057,-0.00096121704286948,0.00096124442169033,-0.00096123979663751,0.00096122166455283,0.72789189266672,125803,2834,0.0062678256924414,0.0062678256987532,0.0035343685884179,19.917325100615,-8.0661399195079e-05,-8.0661399195079e-05,-8.0661399195079e-05,3370895.2578442,0.016200626519065
25619200,0.99253250245707,0.016267491418913,0.0061210752543534,0.0061210752575292,0.0040253409070308,-0.001511002926921,0.0015110024811446,1.1415222026685e-08,-1.1863324501109e-08,1.7332592286497e-09,-2.216540875433e-09,-0.0015987876900972,0.0015987963194993,-0.0015987954647574,0.0015987885805179,-0.0015987889898877,0.0015987949992758,-0.0015987967422963,0.0015987872408451,-0.0013436045464079,0.0013436255754153,-0.0013436273219931,0.0013436027412234,-1.7871498727393e-09,2.2623703044584e-09,5.5470637757257e-09,-5.1187252232632e-09,-0.0015110024896803,0.0015110029218255,-0.0015987907001911,0.0015987933231793,-0.0015987941735099,0.0015987897649593,-0.001598789405856,0.0015987946606484,-0.0015987928777181,0.0015987911037725,-0.0013436089842017,0.0013436212482132,-0.0013436193334448,0.0013436106308938,-0.0015065220552668,0.0015065150000613,-0.001506518090828,0.0015065190251526,-1.1173680509596e-08,1.2272363715007e-08,-0.0008500036480969,0.00085000472852197,-4.6277657887608e-09,5.9369925442968e-09,-0.00097736248089055,0.00097735216649927,-0.00097735898550028,0.00097735566918102,-0.000977354660938,0.00097735997688751,-0.00097735116300092,0.00097736348972883,-0.00096252729959895,0.00096255487204447,-0.00096255024707476,0.00096253192066892,0.73243473057772,125803,2834,0.0062747262085308,0.0062747262156507,0.0035394415454498,20.564925591973,-7.5480595264215e-05,-7.5480595264215e-05,-7.5480595264215e-05,3367413.5834876,0.016219808339264
25819200,0.99273748006438,0.01627086489147,0.0061223474502897,0.0061223474534665,0.0040261699877135,-0.0015118657718309,0.0015118653253705,1.1515827135151e-08,-1.1965376561195e-08,1.7392062518546e-09,-2.2220419156153e-09,-0.0015996221695592,0.0015996308691472,-0.0015996300115738,0.0015996230629797,-0.0015996234729763,0.0015996295452901,-0.0015996312929935,0.0015996217193274,-0.0013444915150579,0.0013445127367303,-0.0013445144901655,0.0013444897042416,-1.782189089582e-09,2.2565046909375e-09,5.5685574314152e-09,-5.1412460166471e-09,-0.0015118653349748,0.0015118657662517,-0.0015996252056606,0.0015996278458041,-0.0015996286932356,0.0015996242730709,-0.001599623914731,0.0015996291798252,-0.00159962740113,0.0015996256081167,-0.0013444960284323,0.0013445083311397,-0.0013445064204421,0.0013444976695983,-0.0015073959106142,0.0015073888508376,-0.0015073919544306,0.0015073928624108,-1.1274542154784e-08,1.2374739732696e-08,-0.00085048452684716,0.00085048560909244,-4.6488576508932e-09,5.9605531738961e-09,-0.00097806561250649,0.00097805521712546,-0.00097806210212833,0.0009780587347896,-0.00097805772472886,0.00097806309545143,-0.00097805421200196,0.00097806662295414,-0.00096307084730647,0.00096309863445182,-0.00096309399209882,0.00096307548305975,0.71386317331706,125803,2834,0.0062782934279456,0.0062782934362794,0.0035414522417101,20.804642960181,-7.3562856318551e-05,-7.3562856318551e-05,-7.3562856318551e-05,3359404.8274647,0.016229103522312
26019200,0.99293530325982,0.016273990406495,0.006123530461785,0.0061235304649586,0.0040269294797511,-0.0015119568425572,0.0015119563975343,1.1618536075228e-08,-1.2066946726178e-08,1.7307325938367e-09,-2.2115508988734e-09,-0.0015997015784839,0.0015997103412281,-0.0015997094882589,0.0015997024666451,-0.0015997028757826,0.0015997090232856,-0.0015997107634957,0.0015997011297484,-0.0013445923359868,0.0013446137650211,-0.0013446155106287,0.0013445905327541,-1.7912859973835e-09,2.267200558739e-09,5.6085298981484e-09,-5.1797938661544e-09,-0.0015119564058029,0.0015119568385477,-0.0015997046355586,0.001599707296823,-0.0015997081484703,0.0015997036970534,-0.0015997033379677,0.0015997086367613,-0.0015997068501766,0.0015997050393948,-0.0013445969099328,0.0013446092976655,-0.0013446073776815,0.0013445985587992,-0.0015074894924562,0.0015074823880464,-0.0015074855152348,0.0015074864178266,-1.13742562275e-08,1.2476550455477e-08,-0.00085031753499082,0.00085031861966837,-4.6853813134126e-09,5.9999813396868e-09,-0.00097804180456907,0.00097803131927665,-0.00097803826901557,0.00097803486195579,-0.00097803384962381,0.00097803926460753,-0.00097803031153921,0.00097804281780839,-0.00096293918272227,0.00096296719493329,-0.00096296252414279,0.00096294384460216,0.68688289914793,125803,2834,0.0062786670128229,0.0062786670216421,0.0035407678557398,20.675906458754,-7.459274832997e-05,-7.459274832997e-05,-7.459274832997e-05,3351202.3963949,0.0162291682213
26219200,0.99312615228983,0.01627718572121,0.0061247335581934,0.0061247335613624,0.0040277186016538,-0.0015119829400573,0.0015119824940032,1.1720308170631e-08,-1.2169025319983e-08,1.7361359691202e-09,-2.2191675933063e-09,-0.0015997316302931,0.001599740464505,-0.0015997396085241,0.0015997325223014,-0.0015997329318393,0.0015997391426149,-0.0015997408878781,0.0015997311806861,-0.0013446048076563,0.001344626432286,-0.0013446281822083,0.0013446030000544,-1.7854222001656e-09,2.2602806640611e-09,5.6411893872656e-09,-5.2132626517133e-09,-0.0015119825030468,0.0015119829348602,-0.0015997347111215,0.00159973739744,-0.0015997382463116,0.0015997337763075,-0.0015997334179049,0.0015997387337255,-0.0015997369518426,0.0015997351138065,-0.0013446094514734,0.0013446218988561,-0.0013446199848044,0.0013446110953993,-0.0015075248458362,0.0015075177315149,-0.0015075208842609,0.0015075217517529,-1.1473582300209e-08,1.2579169454273e-08,-0.00085016121560366,0.0008501623032228,-4.7165184446322e-09,6.0342808262636e-09,-0.00097794985996103,0.00097793928817915,-0.00097794630253952,0.00097794285293412,-0.00097794183767545,0.00097794730096465,-0.00097793827777875,0.00097795087564509,-0.00096282540092835,0.00096285363562182,-0.00096284894146384,0.00096283009011868,0.72524659418039,125803,2834,0.006278773122505,0.0062787731304666,0.0035401238693045,20.537891488464,-7.5696868092284e-05,-7.5696868092284e-05,-7.5696868092284e-05,3347992.2365594,0.016228729464901
26419200,0.99331030881405,0.016280357816787,0.0061259253662871,0.0061259253694556,0.0040285070810444,-0.0015120515934283,0.0015120511477481,1.1821680593714e-08,-1.2269886896848e-08,1.7336497438374e-09,-2.2164959724519e-09,-0.0015997771399056,0.0015997860402503,-0.0015997851856248,0.0015997780306555,-0.0015997784398637,0.0015997847200369,-0.0015997864632174,0.0015997766907726,-0.0013446998795588,0.0013447217047684,-0.0013447234519832,0.001344698074356,-1.7878231904052e-09,2.2631214928879e-09,5.6696711695186e-09,-5.2413061232104e-09,-0.0015120511563615,0.0015120515885811,-0.0015997802452469,0.0015997829490301,-0.0015997837990879,0.0015997793089519,-0.0015997789503995,0.001599784287003,-0.0015997825028824,0.0015997806482676,-0.0013447045953807,0.0013447171003741,-0.0013447151837589,0.0013447062413501,-0.0015076073625444,0.0015076002244832,-0.001507603396037,0.0015076042502154,-1.1574456476538e-08,1.2681874943337e-08,-0.00084998630813511,0.0008499873976447,-4.7435979475539e-09,6.0634713444765e-09,-0.00097791039539868,0.00097789973891636,-0.00097790681929452,0.00097790332237056,-0.00097790230527344,0.00097790781957076,-0.00097789872660657,0.00097791141306613,-0.00096268084782603,0.0009627093024322,-0.00096270458783685,0.00096268555787351,0.7450275381501,125803,2834,0.0062790540606246,0.0062790540684191,0.0035394061851998,20.399515992704,-7.6803872058368e-05,-7.6803872058368e-05,-7.6803872058368e-05,3338518.3401527,0.016228571898387
26619200,0.99349208723888,0.016283460211055,0.0061270920773562,0.006127092080525,0.0040292760531734,-0.0015128560432891,0.0015128555968839,1.1920844919665e-08,-1.2368628268838e-08,1.7347288646357e-09,-2.2202276425107e-09,-0.001600544778524,0.0016005537463188,-0.001600552890363,0.0016005456705739,-0.0016005460801604,0.0016005524244192,-0.0016005541695556,0.0016005443290002,-0.0013455363304943,0.0013455583496355,-0.0013455600959205,0.0013455345244643,-1.7854501577233e-09,2.2604051351221e-09,5.6654226402176e-09,-5.2370848426309e-09,-0.0015128556053728,0.001512856037299,-0.0016005479193063,0.0016005506217135,-0.0016005514705822,0.0016005469845366,-0.0016005466262379,0.0016005519579436,-0.0016005501759845,0.0016005483220081,-0.0013455411501812,0.0013455536452667,-0.0013455517310796,0.0013455427952966,-0.001508428793717,0.0015084216632224,-0.0015084248361958,0.0015084256877331,-1.167835247362e-08,1.2786042787993e-08,-0.00085043658732917,0.00085043767663348,-4.742492378639e-09,6.0615740553179e-09,-0.00097856071535571,0.00097854999015906,-0.00097855714013566,0.00097855357268679,-0.00097855255565763,0.00097855814015542,-0.0009785489780086,0.00097856173275677,-0.00096318949899739,0.00096321815674864,-0.00096321344443055,0.0009631942110393,0.73848438372453,125803,2834,0.0062823799019401,0.0062823799071081,0.0035412886511727,20.629564159194,-7.4963486726449e-05,-7.4963486726449e-05,-7.4963486726449e-05,3331024.5486527,0.01623724586871
26819200,0.99367368303842,0.016286483049534,0.0061282314818869,0.0061282314850631,0.0040300200825836,-0.0015140452361903,0.0015140447899196,1.2021067937979e-08,-1.2469304511542e-08,1.7357411361233e-09,-2.2200743080773e-09,-0.0016017073510998,0.0016017163860382,-0.0016017155298821,0.0016017082433299,-0.0016017086530031,0.0016017150638422,-0.001601716809354,0.0016017069015057,-0.0013467391280353,0.0013467613425952,-0.0013467630906118,0.0013467373209716,-1.7849035926557e-09,2.2597124891376e-09,5.6427635037761e-09,-5.2147215153519e-09,-0.001514044798765,0.0015140452305408,-0.0016017105320885,0.0016017132198968,-0.0016017140685564,0.001601709597727,-0.0016017092394375,0.0016017145557232,-0.0016017127743539,0.001601710934805,-0.0013467440667765,0.0013467565169364,-0.0013467546032135,0.0013467457109006,-0.0015096302778428,0.0015096231632642,-0.001509626319165,0.0015096271844319,-1.1781901141744e-08,1.2887648084345e-08,-0.00085123946244526,0.00085124054999029,-4.721939074214e-09,6.0393107063947e-09,-0.00097956678590156,0.00097955600497086,-0.00097956322504291,0.00097955957319099,-0.00097955855796378,0.00097956422337493,-0.00097955499452958,0.00097956780162779,-0.00096406931706754,0.00096409815924056,-0.00096409346232197,0.00096407401155163,0.72121903512244,125803,2834,0.0062872984912547,0.0062872984978673,0.0035446357940242,21.063936403886,-7.1488508768909e-05,-7.1488508768909e-05,-7.1488508768909e-05,3328230.1218321,0.016250645635731
27019200,0.99385499902689,0.016289417173244,0.006129340332881,0.0061293403360602,0.0040307365043032,-0.0015152151730864,0.0015152147271372,1.2125665182958e-08,-1.2573910050444e-08,1.7343833713668e-09,-2.2179120295452e-09,-0.0016028684922707,0.0016028775959918,-0.001602876740713,0.0016028693835366,-0.001602869792908,0.0016028762750282,-0.0016028780190932,0.0016028680428848,-0.0013478997139178,0.0013479221344827,-0.0013479238818398,0.0013478979078396,-1.7863901367134e-09,2.2614468854808e-09,5.6196640906302e-09,-5.1914702157147e-09,-0.0015152147357827,0.0015152151677756,-0.0016028717155173,0.0016028743870678,-0.001602875236669,0.0016028707803878,-0.001602870421707,0.0016028757240328,-0.0016028739414554,0.0016028721185178,-0.001347904776852,0.0013479171829476,-0.0013479152680135,0.0013479064221956,-0.0015108066241772,0.0015107995222386,-0.0015108026614913,0.0015108035454888,-1.1881418731948e-08,1.2984951540585e-08,-0.00085205692729017,0.00085205801268167,-4.696268788918e-09,6.011305200417e-09,-0.00098055015973621,0.00098053932896918,-0.00098054661674694,0.00098054287935338,-0.00098054186619853,0.00098054761304551,-0.00098053832068866,0.00098055117332939,-0.00096496665123124,0.00096499566559862,-0.00096499098830267,0.00096497132482526,0.7022850412455,125803,2834,0.0062921380648951,0.0062921380717967,0.0035480415773316,21.503501891278,-6.7971984869775e-05,-6.7971984869775e-05,-6.7971984869775e-05,3329141.0517018,0.016263944228546
27219200,0.99403587839181,0.016292253807564,0.0061304154102663,0.006130415413447,0.0040314229838506,-0.0015163531429649,0.0015163526968408,1.2225876313224e-08,-1.2674350049482e-08,1.7348149948869e-09,-2.2184244491853e-09,-0.0016040145835165,0.0016040237541936,-0.0016040228986789,0.001604015474863,-0.0016040158844626,0.0016040224328872,-0.0016040241773661,0.0016040141339441,-0.0013490054123849,0.001349028028673,-0.0013490297767717,0.0013490036055763,-1.7858200643052e-09,2.260752497174e-09,5.5936133868614e-09,-5.1655580745113e-09,-0.0015163527056102,0.0015163531374856,-0.0016040178486114,0.001604020503211,-0.0016040213526619,0.0016040169139283,-0.0016040165552265,0.0016040218397465,-0.0016040200577926,0.001604018251619,-0.001349010598541,0.001349022953013,-0.0013490210389166,0.0013490122435539,-0.0015119471966682,0.0015119401131429,-0.0015119432350121,0.0015119441351517,-1.1985007654579e-08,1.3086842151103e-08,-0.00085288494607387,0.00085288602967099,-4.6725190231979e-09,5.9855268547118e-09,-0.0009814995112862,0.00098148862674537,-0.00098149598482913,0.00098149216062778,-0.00098149114924467,0.00098149697930323,-0.00098148762020357,0.00098150052308648,-0.00096587636791584,0.00096590556517779,-0.00096590090597662,0.00096588102305766,0.68191770948458,125803,2834,0.0062968461601088,0.0062968461669188,0.0035514888576885,21.943269579111,-6.4453843367112e-05,-6.4453843367112e-05,-6.4453843367112e-05,3333512.0316443,0.016277017547864
27419200,0.99421474384419,0.016295147287779,0.0061315089498794,0.0061315089530616,0.0040321293848377,-0.0015172075268092,0.0015172070810865,1.2327506366731e-08,-1.2775898065613e-08,1.7342173225571e-09,-2.2169214334543e-09,-0.0016048924148577,0.0016049016528472,-0.0016049007978686,0.0016048933059191,-0.0016048937150809,0.0016049003322913,-0.0016049020758689,0.0016048919656095,-0.0013498112871179,0.0013498341028224,-0.0013498358509613,0.0013498094812319,-1.7868320903885e-09,2.2618801351608e-09,5.5770902406228e-09,-5.1489887623579e-09,-0.0015172070898106,0.0015172075217995,-0.0016048957190173,0.0016048983620475,-0.001604899212267,0.0016048947839982,-0.0016048944249797,0.0016048996994172,-0.0016048979166617,0.0016048961222689,-0.0013498165884395,0.0013498289110587,-0.0013498269964831,0.0013498182343341,-0.0015128054023062,0.0015127983278517,-0.0015128014375012,0.0015128023512971,-1.2087119989327e-08,1.318759574809e-08,-0.00085350366946368,0.00085350475180341,-4.6563687926719e-09,5.96809281609e-09,-0.0009821795276523,0.00098216858545014,-0.0009821760124267,0.00098217210823589,-0.00098217109810818,0.0009821770057471,-0.0009821675801632,0.00098218053821441,-0.00096657116421629,0.00096660054741082,-0.0009665959005621,0.00096657580629806,0.70214876766012,125803,2834,0.0063003813958274,0.0063003814035163,0.0035540637771311,22.251717654505,-6.1986258763961e-05,-6.1986258763961e-05,-6.1986258763961e-05,3339572.557621,0.016286819996424
27619200,0.99439106957986,0.016298043837313,0.0061326023214275,0.006132602324609,0.004032839191277,-0.001518006350801,0.0015180059048764,1.242932976239e-08,-1.2877794109583e-08,1.7352343744869e-09,-2.2183649551793e-09,-0.0016056991814885,0.0016057084880164,-0.0016057076323302,0.0016057000731173,-0.0016057004825551,0.0016057071666125,-0.0016057089111384,0.0016056987320285,-0.0013505842114481,0.0013506072262085,-0.001350608974747,0.0013505824046165,-1.7857137123189e-09,2.260579955342e-09,5.5646640182804e-09,-5.1367042306639e-09,-0.0015180059137289,0.0015180063455442,-0.0016057025237401,0.0016057051592279,-0.0016057060088437,0.001605701589338,-0.0016057012305178,0.0016057064957524,-0.0016057047140613,0.0016057029268753,-0.0013505896250167,0.0013506019226011,-0.0013506000089247,0.0013505912700031,-0.0015136119436885,0.0015136048795981,-0.0015136079816072,0.0015136089005359,-1.218877916009e-08,1.3288210819928e-08,-0.00085404319877888,0.00085404428005466,-4.6441841037036e-09,5.9545850142845e-09,-0.00098281511770075,0.000982804115631,-0.00098281161101251,0.0009828076297994,-0.00098280662066203,0.00098281260333563,-0.00098280311133452,0.00098281612730705,-0.00096717890816794,0.00096720847964188,-0.00096720384247112,0.00096718354087879,0.71252805497527,125803,2834,0.0063036859157413,0.0063036859231836,0.0035563116080424,22.518784873609,-5.9849721011132e-05,-5.9849721011132e-05,-5.9849721011132e-05,3341178.3312894,0.016295821586673
27819200,0.99456478609679,0.016300945336146,0.0061336961538892,0.0061336961570708,0.0040335530251855,-0.0015188141249331,0.0015188136790738,1.2530756445169e-08,-1.2979047192135e-08,1.7345469396052e-09,-2.217771767889e-09,-0.0016065071878445,0.0016065165615626,-0.0016065157061414,0.001606508079059,-0.0016065084884395,0.0016065152405632,-0.0016065169845604,0.0016065067384637,-0.0013513753799538,0.0013513985940221,-0.0013514003417857,0.0013513735737972,-1.786282491296e-09,2.2612470054574e-09,5.5544473131196e-09,-5.1263725503595e-09,-0.0015188136877998,0.0015188141197079,-0.0016065105673419,0.0016065131956618,-0.0016065140455971,0.0016065096325792,-0.0016065092736408,0.0016065145325571,-0.0016065127504524,0.0016065109706105,-0.0013513809030931,0.0013513931810908,-0.0013513912671154,0.0013513825488752,-0.0015144301009268,0.0015144230425963,-0.0015144261381036,0.0015144270652594,-1.2290755021475e-08,1.3389552357984e-08,-0.00085457594845541,0.00085457702903641,-4.6343146238418e-09,5.9438463653061e-09,-0.00098346326412098,0.00098345220039258,-0.00098345976424594,0.00098345570769516,-0.00098345469921182,0.00098346075588577,-0.00098345119677016,0.00098346427305527,-0.00096778033690276,0.00096781009981367,-0.00096780547026149,0.00096778496232891,0.72383354805793,125803,2834,0.0063070270591789,0.0063070270664242,0.0035585324332864,22.784778904931,-5.7721768760548e-05,-5.7721768760548e-05,-5.7721768760548e-05,3340898.078783,0.016304870446637
28019200,0.99473583780371,0.016303853620622,0.0061347911212051,0.0061347911243875,0.0040342713750292,-0.0015196333394162,0.0015196328935632,1.263216377795e-08,-1.3080442586164e-08,1.7345257902513e-09,-2.2177380589776e-09,-0.0016073191262589,0.0016073285675518,-0.0016073277121279,0.001607320017442,-0.0016073204268293,0.0016073272465669,-0.0016073289905363,0.0016073186768722,-0.0013521877101295,0.001352211122918,-0.0013522128706594,0.0013521859039802,-1.7862757602076e-09,2.2612338679555e-09,5.5457008416685e-09,-5.1176315739345e-09,-0.0015196329022924,0.0015196333341947,-0.001607322542408,0.0016073251649277,-0.0016073260149111,0.0016073216076918,-0.0016073212487125,0.0016073265018213,-0.0016073247197675,0.0016073229457137,-0.0013521933411633,0.0013522056020004,-0.0013522036881387,0.0013521949870168,-0.0015152616917772,0.0015152546392842,-0.0015152577289658,0.0015152586619231,-1.2392607878807e-08,1.3490894648341e-08,-0.00085510145537076,0.00085510253542425,-4.6258201981054e-09,5.9347214915519e-09,-0.00098412544724898,0.00098411432112911,-0.00098412195324036,0.00098411782256768,-0.00098411681458587,0.00098412294437672,-0.00098411331801127,0.000984126455677,-0.00096837508007403,0.00096840503541717,-0.00096840041224767,0.00096837969912377,0.73612508098004,125803,2834,0.0063104150893715,0.0063104150966309,0.0035607244210169,23.050730949257,-5.5594152405944e-05,-5.5594152405944e-05,-5.5594152405944e-05,3338844.6827177,0.016313985573961
28219200,0.99490351155343,0.016306759183105,0.0061358836383301,0.0061358836415133,0.0040349919032618,-0.0015203342437383,0.0015203337978356,1.2731749816724e-08,-1.3180280798822e-08,1.7354449179961e-09,-2.2183938142976e-09,-0.0016080051911335,0.0016080146993497,-0.0016080138435512,0.0016080060827866,-0.0016080064922991,0.0016080133778134,-0.001608015122418,0.0016080047416953,-0.0013528940376928,0.0013529176447333,-0.0013529193936504,0.0013528922306707,-1.7855974109895e-09,2.2604254956999e-09,5.5425110812127e-09,-5.114615683362e-09,-0.0015203338067417,0.0015203342385153,-0.0016080086413709,0.0016080112622651,-0.0016080121119281,0.0016080077071141,-0.0016080073482664,0.0016080125986606,-0.0016080108171918,0.0016080090446207,-0.0013528997689466,0.0013529120228522,-0.0013529101095873,0.0013529014139691,-0.0015159757192854,0.0015159686700916,-0.0015159717570903,0.0015159726906715,-1.2495884721487e-08,1.3594191705834e-08,-0.00085550176386295,0.0008555028440139,-4.6244122086019e-09,5.9334914899143e-09,-0.00098467960533574,0.00098466841141535,-0.0009846761122982,0.00098467191193083,-0.00098467090391293,0.00098467710350966,-0.00098466740814609,0.00098468061392125,-0.00096883920584836,0.00096886936258604,-0.0009688647400072,0.00096884382366905,0.74948915570288,125803,2834,0.0063133129364121,0.0063133129440354,0.0035623973853228,23.250643549965,-5.3994851600284e-05,-5.3994851600284e-05,-5.3994851600284e-05,3334329.1405005,0.016321577065808
28419200,0.99506771490653,0.016309662985172,0.006136974025699,0.006136974028882,0.0040357149305906,-0.0015210270540135,0.0015210266082404,1.2835317398158e-08,-1.3283662455524e-08,1.7343112702753e-09,-2.2172240270926e-09,-0.0016086745366874,0.0016086841133737,-0.0016086832580964,0.0016086754278205,-0.0016086758371169,0.0016086827925038,-0.0016086845364041,0.0016086740872921,-0.0013536035029952,0.0013536273138749,-0.0013536290613906,0.0013536016971185,-1.7866382700743e-09,2.2616286792744e-09,5.5437538432608e-09,-5.1156941867747e-09,-0.0015210266170068,0.0015210270489369,-0.001608678021084,0.0016086806422422,-0.0016086814923741,0.0016086770863562,-0.0016086767272447,0.0016086819792692,-0.001608680197069,0.0016086784243803,-0.0013536093346292,0.001353621591915,-0.0013536196775575,0.0013536109808277,-0.0015166834143335,0.0015166763625137,-0.0015166794501814,0.0015166803853077,-1.2595532070635e-08,1.3693522967744e-08,-0.00085587385974279,0.00085587493962966,-4.6236813984736e-09,5.9324066009899e-09,-0.00098522687188093,0.00098521561203813,-0.00098522337950445,0.00098521911211097,-0.00098521810419628,0.00098522437058461,-0.00098521460897672,0.00098522788017225,-0.00096927503274855,0.00096930538343148,-0.00096930076180291,0.0009692796498399,0.76402415114901,125803,2834,0.0063161767833587,0.0063161767909956,0.0035639544125088,23.441280636162,-5.2469754910702e-05,-5.2469754910702e-05,-5.2469754910702e-05,3328080.1001946,0.016328981818225
28619200,0.99522845279978,0.016312524924561,0.0061380484686594,0.0061380484718423,0.0040364279840589,-0.00152172801759,0.0015217275718038,1.2936858141746e-08,-1.338512159337e-08,1.7343201872382e-09,-2.2173772354122e-09,-0.0016093443077086,0.0016093539519653,-0.0016093530967057,0.001609345198794,-0.0016093456080922,0.0016093526311846,-0.0016093543749466,0.0016093438583722,-0.0013543316642303,0.0013543556742126,-0.0013543574218674,0.0013543298583032,-1.7864833631007e-09,2.2614662097028e-09,5.5451861012607e-09,-5.1171077067214e-09,-0.0015217275805243,0.0015217280124529,-0.0016093478255142,0.0016093504475663,-0.0016093512976992,0.001609346890737,-0.0016093465316822,0.0016093517846372,-0.0016093500024006,0.001609348228842,-0.0013543375942359,0.0013543498542311,-0.0013543479402007,0.0013543392402519,-0.0015173990998872,0.0015173920473912,-0.0015173951364916,0.0015173960702578,-1.2696797890725e-08,1.3795219074438e-08,-0.00085622935381549,0.00085623043404552,-4.6246315066011e-09,5.9337243259061e-09,-0.000985781759642,0.00098577043154408,-0.00098577826637205,0.00098577393229115,-0.00098577292411135,0.00098577925771188,-0.00098576942825188,0.00098578276823149,-0.00096969336875979,0.00096972391890334,-0.00096971929627427,0.00096969798712816,0.76896077984756,125803,2834,0.0063190738430059,0.0063190738504219,0.0035654438160956,23.63166418724,-5.094668650208e-05,-5.094668650208e-05,-5.094668650208e-05,3320331.7405959,0.016336385584305
28819200,0.99538575537938,0.016315251983241,0.0061390747681861,0.0061390747713696,0.0040371024436855,-0.001522424437675,0.0015224239918154,1.3037666748171e-08,-1.3485932882655e-08,1.7341247592672e-09,-2.2173808256555e-09,-0.001610010235011,0.0016100199459749,-0.0016100190905235,0.0016100111255224,-0.001610011535259,0.0016100186251496,-0.0016100203687024,0.0016100097856237,-0.0013550544143994,0.001355078621965,-0.0013550803687232,0.0013550526082561,-1.7864208488928e-09,2.2614765945686e-09,5.5469928013973e-09,-5.1188319182133e-09,-0.0015224240004148,0.0015224244323722,-0.0016100137858323,0.0016100164089069,-0.0016100172585402,0.0016100128503788,-0.0016100124917375,0.0016100177456472,-0.0016100159634959,0.0016100141891645,-0.0013550604412501,0.0013550727047353,-0.0013550707899391,0.0013550620869492,-0.0015181064299322,0.0015180993757541,-0.0015181024658087,0.0015181033974216,-1.2799061283019e-08,1.3897336351443e-08,-0.00085657458471342,0.00085657566489784,-4.6270691749868e-09,5.9359859102832e-09,-0.00098633068286874,0.00098631928464519,-0.00098632718767924,0.00098632278673351,-0.00098632177859746,0.00098632817894369,-0.00098631828132164,0.00098633169166783,-0.00097010035733322,0.00097013110916388,-0.00097012648457567,0.00097010497663093,0.7497843339121,125803,2834,0.0063219519714643,0.0063219519782869,0.0035668908006139,23.824257235225,-4.9405942118201e-05,-4.9405942118201e-05,-4.9405942118201e-05,3312907.2060697,0.016343707818066
29019200,0.99554075617029,0.016317793324363,0.0061400358288441,0.0061400358320289,0.0040377216634898,-0.0015233211886795,0.0015233207427878,1.313174482168e-08,-1.3579593006932e-08,1.7332696593311e-09,-2.2172972324445e-09,-0.0016108937861118,0.0016109035602064,-0.0016109027051151,0.0016108946768502,-0.0016108950864974,0.0016109022394038,-0.0016109039827335,0.0016108933371264,-0.0013559494981466,0.0013559738900377,-0.0013559756358541,0.0013559476932706,-1.7863861833048e-09,2.2614246829783e-09,5.5390456031204e-09,-5.1107894492398e-09,-0.0015233207512085,0.001523321183178,-0.0016108973711872,0.0016108999895184,-0.0016109008395424,0.0016108964364567,-0.0016108960777391,0.0016109013261196,-0.0016108995440361,0.0016108977748446,-0.001355955626257,0.0013559678733394,-0.0013559659595094,0.0013559572729442,-0.00151900870004,0.0015190016512148,-0.0015190047378528,0.001519005676518,-1.290789107706e-08,1.4006785800456e-08,-0.00085713879606486,0.00085713987663438,-4.6270793642251e-09,5.9362103528402e-09,-0.00098706191701997,0.00098705044684864,-0.00098705842234069,0.00098705394897691,-0.00098705294068553,0.00098705941369297,-0.00098704944286905,0.00098706292629542,-0.00097073788617579,0.00097076885335639,-0.00097076422900412,0.00097074250805028,0.71130252273446,125803,2834,0.0063256601670925,0.0063256601731331,0.0035692453355066,24.139925119731,-4.6880599042153e-05,-4.6880599042153e-05,-4.6880599042153e-05,3311024.3863806,0.016353639403212
29219200,0.99569340944047,0.016320235975399,0.0061409614732681,0.0061409614764562,0.0040383130256742,-0.0015241660186488,0.0015241655728535,1.3241297839499e-08,-1.3689441400903e-08,1.7340030339858e-09,-2.2172789988839e-09,-0.0016117559156873,0.0016117657629486,-0.0016117649077183,0.0016117568066068,-0.001611757215899,0.0016117644423059,-0.0016117661858745,0.0016117554663417,-0.0013567517928439,0.0013567763999285,-0.0013567781469192,0.0013567499870447,-1.7857443455007e-09,2.2606054731755e-09,5.5406580356057e-09,-5.1126622128443e-09,-0.0015241655815261,0.0015241660133317,-0.001611759536368,0.0016117621559375,-0.0016117630056376,0.0016117586019386,-0.0016117582429978,0.0016117634924512,-0.0016117617109293,0.0016117599395465,-0.0013567580260971,0.0013567702768703,-0.0013567683634039,0.0013567596714671,-0.0015198540097979,0.001519846961686,-0.0015198500483025,0.0015198509830118,-1.3001392993505e-08,1.4099671176577e-08,-0.0008577335659667,0.00085773464600917,-4.6198199511625e-09,5.9285715478016e-09,-0.00098773776693104,0.00098772623885904,-0.00098773427692538,0.00098772973628587,-0.00098772872825862,0.00098773526809813,-0.00098772523577492,0.00098773877533111,-0.00097141049754131,0.00097144164002611,-0.00097143702087817,0.0009714151127545,0.69516966038516,125803,2834,0.0063291551863764,0.0063291551933207,0.0035717221231543,24.458654934293,-4.4330760525657e-05,-4.4330760525657e-05,-4.4330760525657e-05,3315920.168501,0.016363261203597
29419200,0.99584364372222,0.01632247658518,0.0061418160677124,0.0061418160709017,0.0040388444465662,-0.001524979316524,0.0015249788708205,1.3339539158471e-08,-1.3787661770927e-08,1.7338206066177e-09,-2.2168978436456e-09,-0.0016126011139853,0.0016126110265258,-0.0016126101714372,0.0016126020047954,-0.0016126024141321,0.0016126097059578,-0.0016126114492778,0.0016126006648418,-0.0013575041731867,0.0013575289724235,-0.0013575307194155,0.0013575023676823,-1.7857698069582e-09,2.2606069183011e-09,5.5373294082731e-09,-5.1093699592219e-09,-0.0015249788795017,0.0015249793112856,-0.0016126047683276,0.0016126073856907,-0.001612608235455,0.001612603833905,-0.0016126034750853,0.0016126087221115,-0.0016126069406015,0.0016126051716399,-0.0013575105058623,0.0013575227496863,-0.0013575208363532,0.0013575121513143,-0.0015206624375591,0.0015206553913354,-0.0015206584755549,0.0015206594129889,-1.3106253891598e-08,1.4204492596296e-08,-0.00085833811781899,0.00085833919785181,-4.6196899206587e-09,5.9284623303752e-09,-0.00098838498577109,0.00098837338792776,-0.0009883814959451,0.00098837688517924,-0.00098837587728354,0.00098838248700351,-0.00098837238473537,0.00098838599428604,-0.0009720883894832,0.00097211973743299,-0.00097211511834449,0.00097209300441193,0.6508985667677,125803,2834,0.00633252053039,0.0063325205375151,0.0035742372529334,24.777503799357,-4.1779969605148e-05,-4.1779969605148e-05,-4.1779969605148e-05,3323314.8553706,0.016372658253149
29619200,0.99599130963325,0.016324646212477,0.0061426444534647,0.0061426444566546,0.0040393573023579,-0.0015257116852513,0.0015257112395888,1.3442182172503e-08,-1.3890321454391e-08,1.7339072906754e-09,-2.2168438359425e-09,-0.0016133973560795,0.0016134073371275,-0.0016134064820542,0.0016133982470324,-0.0016133986562246,0.0016134060166086,-0.0016134077599727,0.0016133969069031,-0.0013581319906559,0.0013581569911421,-0.0013581587382188,0.001358130185114,-1.7857270999099e-09,2.260499254197e-09,5.538220709696e-09,-5.1103368285156e-09,-0.001525711248328,0.0015257116800566,-0.0016134010442914,0.0016134036622764,-0.0016134045121115,0.0016134001100232,-0.0016133997511213,0.0016134049987428,-0.0016134032173305,0.0016134014474945,-0.0013581384229648,0.0013581506686618,-0.0013581487553583,0.0013581400682292,-0.0015213880982263,0.0015213810516162,-0.0015213841361843,0.0015213850725422,-1.3206644802053e-08,1.4304779147816e-08,-0.00085895965449782,0.00085896073443682,-4.619288818118e-09,5.927997138786e-09,-0.00098894956039155,0.00098893789585335,-0.00098894607087192,0.00098894139293082,-0.00098894038506697,0.00098894706191698,-0.00098893689280907,0.00098895056873706,-0.00097278888538658,0.00097282042907826,-0.00097281581040638,0.00097279349981393,0.64191385388455,125803,2834,0.0063355529328975,0.0063355529402334,0.0035768175408556,25.08713717906,-3.930290256752e-05,-3.930290256752e-05,-3.930290256752e-05,3337585.0618499,0.016381443924943
29819200,0.99613586182147,0.016326898536129,0.0061434994065182,0.0061434994097084,0.0040398997199025,-0.0015263258108815,0.0015263253652698,1.3544050211563e-08,-1.3992410327058e-08,1.7345521586222e-09,-2.2168930186165e-09,-0.0016140788817047,0.0016140889305519,-0.00161408807514,0.0016140797722954,-0.0016140801818809,0.0016140876098199,-0.0016140893532058,0.0016140784324713,-0.0013586393974596,0.0013586645971494,-0.0013586663454235,0.0013586375911983,-1.7856311968985e-09,2.2604022066699e-09,5.5433780238578e-09,-5.1155837758977e-09,-0.0015263253741326,0.0015263258058207,-0.0016140826019554,0.0016140852232363,-0.0016140860726249,0.0016140816669156,-0.0016140813084693,0.0016140865594667,-0.0016140847780765,0.0016140830051022,-0.0013586459237768,0.0013586581794723,-0.0013586562663446,0.001358647568527,-0.0015220018875006,0.0015219948374313,-0.0015219979249384,0.001521998857679,-1.3307772899764e-08,1.4405702915311e-08,-0.00085950084860085,0.00085950192851255,-4.6237560594704e-09,5.9325775246956e-09,-0.00098940842042532,0.00098939668528234,-0.00098940492762589,0.00098940018502916,-0.00098939917733115,0.00098940591852374,-0.00098939568230789,0.0009894094288753,-0.0009734066682156,0.00097343841222016,-0.00097343378990438,0.00097341128458123,0.67837702865111,125803,2834,0.0063380963919598,0.0063380963998281,0.0035790628272345,25.339460570025,-3.7284315439798e-05,-3.7284315439798e-05,-3.7284315439798e-05,3351382.3119726,0.016388895131078
30019200,0.99627727099697,0.01632913682743,0.0061443478439373,0.0061443478471265,0.004040441136366,-0.001526991439727,0.0015269909940403,1.3645235994348e-08,-1.4093386452777e-08,1.7342501884354e-09,-2.2172405217652e-09,-0.0016147811545791,0.001614791271134,-0.0016147904158182,0.0016147820456559,-0.0016147824549142,0.0016147899503931,-0.0016147916939506,0.0016147807053981,-0.0013592402017702,0.0013592655999831,-0.001359267347358,0.0013592383960106,-1.7859776554321e-09,2.2607617053711e-09,5.5488760501888e-09,-5.1209884048194e-09,-0.0015269910027648,0.0015269914344918,-0.0016147849072058,0.0016147875320167,-0.00161478838191,0.0016147839725343,-0.001614783613767,0.0016147888686302,-0.001614787086991,0.001614785310353,-0.0013592468224248,0.0013592590891953,-0.0013592571757507,0.0013592484678335,-0.001522672928601,0.0015226658743947,-0.0015226689662901,0.0015226698960792,-1.3409300093192e-08,1.4508003440542e-08,-0.00086002247974938,0.00086002356027373,-4.6291788764229e-09,5.9385703284781e-09,-0.00098993490270373,0.00098992309650654,-0.00098993140628325,0.00098992660034677,-0.00098992559193991,0.00098993239786329,-0.00098992209292583,0.00098993591162247,-0.00097399702149041,0.00097402896963715,-0.00097402434350924,0.000974001643306,0.68873089502668,125803,2834,0.0063408512903622,0.0063408512975835,0.0035812315936792,25.59035350763,-3.5277171938957e-05,-3.5277171938957e-05,-3.5277171938957e-05,3357122.885738,0.016396699421697
30219200,0.99641552329335,0.016331227911361,0.0061451437969566,0.0061451438001464,0.0040409403142583,-0.001527665573523,0.0015276651278112,1.374661303929e-08,-1.4194777688403e-08,1.7344502285596e-09,-2.2174748122549e-09,-0.0016154841278469,0.0016154943121105,-0.0016154934566882,0.0016154850190598,-0.0016154854283331,0.0016154929912322,-0.0016154947349607,0.0016154836786434,-0.0013598586786945,0.0013598842754289,-0.001359886022955,0.0013598568727821,-1.7861682381982e-09,2.2609709271882e-09,5.5545222061658e-09,-5.1266158619339e-09,-0.001527665136546,0.0015276655682913,-0.0016154879125322,0.0016154905409669,-0.0016154913909567,0.0016154869777328,-0.0016154866189681,0.0016154918777216,-0.0016154900959009,0.0016154883156702,-0.0013598653930519,0.0013598776710288,-0.0013598757573932,0.0013598670385695,-0.0015233500335308,0.0015233429751933,-0.0015233460708302,0.0015233469972938,-1.3510706369817e-08,1.460981710491e-08,-0.00086053333656143,0.00086053441749578,-4.6345054305018e-09,5.9443738840575e-09,-0.0009904779694047,0.00099046609213793,-0.00099047446927061,0.00099046959968788,-0.00099046859088307,0.00099047546124586,-0.00099046508816299,0.00099047897871485,-0.00097457314316786,0.00097460529424945,-0.00097460066401646,0.00097457776911872,0.66008312110624,125803,2834,0.0063436408558736,0.0063436408631234,0.0035833570375646,25.841190743989,-3.3270474048084e-05,-3.3270474048084e-05,-3.3270474048084e-05,3360465.9119899,0.016404530580581
30419200,0.99655089930302,0.01633316023014,0.0061458832295693,0.0061458832327597,0.0040413937678108,-0.0015283646650655,0.0015283642192829,1.3848248691626e-08,-1.4296365486789e-08,1.7346725478856e-09,-2.21798238669e-09,-0.0016162333114281,0.0016162435636909,-0.0016162427080786,0.0016162342029152,-0.0016162346122111,0.0016162422425776,-0.0016162439865864,0.0016162328621834,-0.0013604708864916,0.0013604966824241,-0.0013604984297855,0.0013604690804034,-1.786139496135e-09,2.2609294689847e-09,5.557745533793e-09,-5.1298263319334e-09,-0.0015283642279975,0.0015283646597294,-0.001616237129137,0.0016162397597479,-0.0016162406097661,0.0016162361944135,-0.0016162358356707,0.0016162410965051,-0.0016162393147157,0.0016162375322431,-0.0013604776974933,0.0013604899818737,-0.0013604880681604,0.0013604793429814,-0.0015240473098048,0.0015240402493895,-0.0015240433475644,0.0015240442715213,-1.3612039445358e-08,1.4711264167537e-08,-0.00086112260388577,0.0008611236849127,-4.6373690305115e-09,5.9472823298894e-09,-0.00099103974054872,0.00099102779387617,-0.00099103623851712,0.00099103130337595,-0.00099103029444998,0.00099103723061027,-0.00099102678981039,0.00099104074995993,-0.00097523342516999,0.00097526577664326,-0.00097526114455472,0.00097523805345888,0.62526526913876,125803,2834,0.0063465349927485,0.0063465349997401,0.0035858048855508,26.129093273136,-3.0967253814913e-05,-3.0967253814913e-05,-3.0967253814913e-05,3369265.3673133,0.016412901514734
30619200,0.99668418253581,0.016335186326846,0.0061466536153666,0.0061466536185583,0.0040418790929206,-0.0015292285673783,0.0015292281215811,1.3950751077072e-08,-1.4398604258053e-08,1.7349297549692e-09,-2.2186924575272e-09,-0.0016171695081024,0.0016171798288002,-0.0016171789732422,0.0016171704000961,-0.0016171708091974,0.0016171785077742,-0.0016171802516956,0.0016171690589973,-0.0013612143988546,0.0013612403953775,-0.0013612421427307,0.001361212592379,-1.7857019432079e-09,2.2604376429929e-09,5.5546483519771e-09,-5.1267281468823e-09,-0.001529228130228,0.001529228561914,-0.0016171733612039,0.0016171759897694,-0.0016171768402079,0.0016171724270338,-0.0016171720682192,0.0016171773268108,-0.0016171755449468,0.0016171737643673,-0.0013612213142845,0.0013612335919701,-0.0013612316788665,0.0013612229590507,-0.0015249145181853,0.0015249074602772,-0.0015249105574396,0.0015249114830482,-1.3712635011106e-08,1.4811975396848e-08,-0.00086192981556189,0.00086193089646004,-4.6332550559167e-09,5.9429628955115e-09,-0.00099174787077083,0.00099173585929519,-0.00099174437139564,0.00099173936605528,-0.00099173835738031,0.00099174536323102,-0.00099173485553678,0.00099174887988251,-0.00097612900256753,0.00097616154774409,-0.00097615691941608,0.00097613362896693,0.66318229775191,125803,2834,0.0063501128659994,0.0063501128725836,0.0035891542248065,26.52319160483,-2.7814467161359e-05,-2.7814467161359e-05,-2.7814467161359e-05,3384925.4031471,0.016423578021043
30819200,0.99681529515798,0.016337272228071,0.0061474435939642,0.0061474435971582,0.0040423850369482,-0.0015301632627201,0.0015301628170173,1.4050754620091e-08,-1.4498795575336e-08,1.7345114851589e-09,-2.2177757740607e-09,-0.0016181432785882,0.0016181536657294,-0.0016181528101528,0.0016181441699709,-0.0016181445791856,0.0016181523447664,-0.0016181540885117,0.0016181428294507,-0.0013620760931231,0.0013621022859516,-0.0013621040331772,0.0013620742872245,-1.7864294880407e-09,2.2612498426005e-09,5.5504211118194e-09,-5.1224786802521e-09,-0.0015301628256525,0.0015301632574021,-0.0016181471663383,0.001618149791828,-0.0016181506420742,0.0016181462313709,-0.0016181458726037,0.0016181511288121,-0.0016181493468201,0.0016181475695169,-0.0013620831096161,0.0013620953797307,-0.0013620934660411,0.0013620847554561,-0.0015258592281845,0.0015258521720189,-0.0015258552654031,0.0015258561951171,-1.3815955226381e-08,1.4914476537391e-08,-0.00086272344419254,0.00086272452446166,-4.6306638014399e-09,5.9397281706518e-09,-0.00099254112359992,0.00099252904507804,-0.00099253762624516,0.0009925325498145,-0.00099253154168384,0.00099253861755789,-0.00099252804180803,0.00099254213225321,-0.00097700280651609,0.00097703555084198,-0.00097703092421792,0.00097700742936373,0.69236327711504,125803,2834,0.006353981777326,0.0063539817841905,0.0035924524719039,26.919950272254,-2.4640397821964e-05,-2.4640397821964e-05,-2.4640397821964e-05,3391943.189158,0.016434795430561
31019200,0.99694414184676,0.016339384120934,0.0061482415537387,0.006148241556934,0.0040429010102614,-0.0015311437431804,0.0015311432975007,1.4152093845306e-08,-1.4600199146644e-08,1.7346843522897e-09,-2.2177540788411e-09,-0.0016191375916677,0.0016191480464382,-0.0016191471908569,0.0016191384831345,-0.0016191388923174,0.0016191467254277,-0.0016191484692719,0.0016191371425227,-0.001363016980605,0.0013630433718433,-0.0013630451194171,0.0013630151746245,-1.786479204169e-09,2.261280636839e-09,5.547274583571e-09,-5.1193677406531e-09,-0.0015311433062118,0.0015311437379487,-0.0016191415141461,0.0016191441375398,-0.0016191449878795,0.0016191405792362,-0.001619140220409,0.0016191454745751,-0.0016191436925683,0.001619141917333,-0.0013630240992583,0.0013630363632279,-0.0013630344495385,0.0013630257450853,-0.0015268529547196,0.00152684590056,-0.0015268489914974,0.0015268499233795,-1.3917727196462e-08,1.5015992418827e-08,-0.00086349756985692,0.00086349864991084,-4.627619449781e-09,5.9364992118595e-09,-0.00099338692332148,0.00099337477895787,-0.00099338342808683,0.00099337828161846,-0.0009933772736861,0.00099338441920734,-0.0009933737758805,0.00099338793175067,-0.00097785360411511,0.00097788654498219,-0.00097788192064256,0.00097785822441284,0.71215831648072,125803,2834,0.0063580387054779,0.0063580387126784,0.003595673649966,27.316812708285,-2.1465498333719e-05,-2.1465498333719e-05,-2.1465498333719e-05,3392919.3500734,0.016446317571702
31219200,0.99707173738158,0.016341579388215,0.0061490679711277,0.0061490679743235,0.0040434434427634,-0.0015324533723597,0.0015324529267871,1.4253819585714e-08,-1.4701390935128e-08,1.7326992515214e-09,-2.2163017625025e-09,-0.0016204428448101,0.0016204533663273,-0.0016204525115114,0.0016204437352025,-0.0016204441442784,0.0016204520463484,-0.0016204537888355,0.0016204423958867,-0.0013643060407401,0.0013643326327169,-0.001364334377895,0.0013643042366954,-1.7876776333813e-09,2.2627117753144e-09,5.5363857285358e-09,-5.1081674592552e-09,-0.0015324529351591,0.0015324533671235,-0.001620446804979,0.0016204494203875,-0.0016204502713197,0.001620445869292,-0.0016204455102733,0.0016204507581407,-0.0016204489752115,0.0016204472084499,-0.0013643132707031,0.0013643255141321,-0.0013643235997196,0.0013643149183523,-0.0015281808509206,0.0015281738016649,-0.0015281768865892,0.0015281778289057,-1.4019643444059e-08,1.5117274677547e-08,-0.00086452321917229,0.00086452429841421,-4.6172786274379e-09,5.9250164485499e-09,-0.00099454113165409,0.00099452892591267,-0.00099453764360305,0.00099453242127742,-0.00099453141410048,0.00099453863386285,-0.00099452792356848,0.000994542139313,-0.00097896895325628,0.00097900208529578,-0.00097899746930297,0.00097897356652955,0.74546029131519,125803,2834,0.0063634569513124,0.0063634569578002,0.0035999427190382,27.866115137816,-1.7071078897469e-05,-1.7071078897469e-05,-1.7071078897469e-05,3392334.8367206,0.0164616728832
31419200,0.99719803767853,0.016343650203543,0.0061498511109729,0.0061498511141709,0.0040439479783989,-0.0015338374465871,0.0015338370008729,1.4353299194739e-08,-1.4801190474673e-08,1.7335289421749e-09,-2.2172187397836e-09,-0.0016218016140998,0.0016218122034396,-0.0016218113489488,0.0016218025069477,-0.0016218029150565,0.0016218108829305,-0.0016218126269458,0.0016218011651332,-0.0013656998366167,0.0013657266218898,-0.0013657283674316,0.0013656980317708,-1.7866532270291e-09,2.2613646124964e-09,5.5248337369207e-09,-5.0969357432735e-09,-0.0015338370095253,0.0015338374412359,-0.0016218056110884,0.0016218082201211,-0.0016218090720409,0.0016218046788743,-0.0016218043187715,0.0016218095578363,-0.0016218077758784,0.0016218060143982,-0.0013657071753005,0.0013657193948916,-0.0013657174807248,0.0013657088217238,-0.0015295789567705,0.0015295719170597,-0.0015295749924406,0.0015295759401611,-1.4123023085799e-08,1.5220899339444e-08,-0.00086554229278329,0.0008655433722024,-4.6079345358659e-09,5.9158619312711e-09,-0.00099576872968801,0.00099575646202591,-0.00099576524881409,0.0009957599522934,-0.00099575894463084,0.00099576623967766,-0.00099575545933201,0.00099576973723432,-0.00098007136808548,0.00098010469737599,-0.00098010008846755,0.00098007597603127,0.71242629649513,125803,2834,0.0063691816641725,0.0063691816710065,0.0036041886999134,28.434175174301,-1.2526598605592e-05,-1.2526598605592e-05,-1.2526598605592e-05,3386946.1696037,0.016477628768636
31619200,0.99732285858278,0.016345599981555,0.0061505917655668,0.0061505917687665,0.0040444164472214,-0.0015351651266403,0.0015351646810358,1.4455865687285e-08,-1.4903871070557e-08,1.7340766943238e-09,-2.2172404052394e-09,-0.0016231314862645,0.0016231421433849,-0.0016231412880613,0.0016231323775916,-0.0016231327866078,0.0016231408227001,-0.0016231425661689,0.0016231310372096,-0.0013669990346348,0.001367026021519,-0.0013670277683397,0.0013669972292721,-1.7861143670204e-09,2.2608517533307e-09,5.5170292717244e-09,-5.0891714348134e-09,-0.0015351646897108,0.0015351651213992,-0.0016231355197201,0.0016231381233916,-0.0016231389737813,0.0016231345854369,-0.0016231342263877,0.0016231394602109,-0.0016231376787018,0.0016231359230352,-0.0013670064809561,0.0013670186853209,-0.0013670167722054,0.00136700812695,-0.0015309138930406,0.0015309068596702,-0.0015309099306459,0.0015309108819904,-1.4224124189945e-08,1.5320538066608e-08,-0.00086656958446695,0.00086657066257494,-4.5991175267213e-09,5.9056700209532e-09,-0.00099693081551407,0.00099691848541642,-0.00099692734010032,0.00099692196838899,-0.00099692096228239,0.00099692832939696,-0.00099691748417978,0.00099693182208411,-0.00098119064382449,0.00098122416099636,-0.00098121955836692,0.00098119524273408,0.68057766501595,125803,2834,0.0063746743404844,0.0063746743475905,0.0036084648870665,29.002757099235,-7.9779432061232e-06,-7.9779432061232e-06,-7.9779432061232e-06,3388621.2657927,0.016493143028882
31819200,0.997443910298,0.016347424325039,0.0061512870800629,0.0061512870832634,0.0040448501617129,-0.0015358416636837,0.0015358412182262,1.4556677072037e-08,-1.5004874814609e-08,1.7337349628811e-09,-2.216126983136e-09,-0.0016238366668796,0.0016238473907893,-0.0016238465359605,0.0016238375578787,-0.0016238379667885,0.0016238460706526,-0.0016238478135526,0.0016238362179191,-0.0013676220422867,0.0013676492268198,-0.0013676509741716,0.0013676202369078,-1.7877381005341e-09,2.262731954202e-09,5.5299073185036e-09,-5.1018900358865e-09,-0.0015358412268112,0.0015358416587248,-0.0016238407297281,0.0016238433409418,-0.0016238441922395,0.001623839794524,-0.0016238394352947,0.0016238446789906,-0.0016238428959335,0.0016238411331927,-0.0013676295734556,0.0013676418042391,-0.0013676398894435,0.0013676312201766,-0.0015315895076682,0.0015315824626185,-0.0015315855405513,0.0015315864869981,-1.4325814502035e-08,1.5423155665505e-08,-0.0008670768402339,0.00086707791943611,-4.6117589953364e-09,5.9197528144845e-09,-0.00099747626266813,0.00099746385665302,-0.00099747277843405,0.00099746734855826,-0.00099746634143272,0.00099747376880756,-0.00099746285440435,0.00099747727029608,-0.00098176634598401,0.00098180007266139,-0.0009817954597798,0.0009817709538372,0.65805652799762,125803,2834,0.0063774735413327,0.0063774735488385,0.0036105758312291,29.265421492871,-5.8766280570314e-06,-5.8766280570314e-06,-5.8766280570314e-06,3392702.3554091,0.016500979775541
32019200,0.99755959831323,0.016349336538306,0.006152009699667,0.006152009702867,0.0040453171357715,-0.0015360020509065,0.0015360016052241,1.4660108621627e-08,-1.5109187823154e-08,1.7375371379625e-09,-2.2189355956878e-09,-0.0016240381835014,0.0016240489778801,-0.0016240481213909,0.0016240390757739,-0.0016240394853523,0.0016240476557078,-0.001624049400985,0.0016240377340601,-0.0013677177718344,0.0013677451561845,-0.0013677469082002,0.0013677159629442,-1.786050101866e-09,2.2607290557926e-09,5.5594909223247e-09,-5.1319534034418e-09,-0.0015360016144781,0.0015360020460676,-0.0016240422707813,0.0016240449024242,-0.0016240457523965,0.0016240413356807,-0.0016240409771983,0.0016240462392646,-0.0016240444573676,0.0016240426737895,-0.001367725373602,0.0013677376610345,-0.0013677357475105,0.0013677270176232,-0.0015317534764402,0.0015317464147413,-0.0015317495106868,0.0015317504333466,-1.4424176804584e-08,1.5523092032076e-08,-0.00086717715096609,0.00086717823207998,-4.6372835515935e-09,5.9478611055777e-09,-0.00099753362717372,0.00099752113884889,-0.00099753012484302,0.00099752464830073,-0.00099752363951411,0.00099753111697442,-0.00099752013482023,0.00099753463670458,-0.00098191897497857,0.000981952914823,-0.00098194828134717,0.00098192360059213,0.71766338559532,125803,2834,0.006378137768932,0.0063781377780706,0.0036109922291656,29.280953407299,-5.752372741609e-06,-5.752372741609e-06,-5.752372741609e-06,3397490.8841783,0.016502752827521
32219200,0.9976701156464,0.016351205327885,0.0061527147188755,0.0061527147220724,0.0040457758869374,-0.0015362277950152,0.0015362273491386,1.4761401588079e-08,-1.5209924317664e-08,1.7367383717761e-09,-2.2196565103702e-09,-0.0016242569116,0.0016242677735878,-0.0016242669169974,0.0016242578040882,-0.0016242582135827,0.001624266451318,-0.0016242681966869,0.0016242564621755,-0.001367944859485,0.0013679724433059,-0.0013679741930204,0.0013679430516699,-1.7869888710107e-09,2.2618668595796e-09,5.5861387427372e-09,-5.1582192507588e-09,-0.0015362273580092,0.0015362277898141,-0.0016242610248564,0.0016242636736807,-0.0016242645240006,0.0016242600893159,-0.001624259730724,0.0016242650110809,-0.0016242632283974,0.0016242614278944,-0.001367952535854,0.0013679648764675,-0.0013679629618373,0.001367954181414,-0.001531990591078,0.0015319835100302,-0.0015319866260692,0.0015319875331021,-1.4525041234035e-08,1.5626174800027e-08,-0.0008672303049005,0.00086723138802008,-4.6629565789729e-09,5.9754691559041e-09,-0.00099767461802641,0.00099766204593853,-0.00099767109804812,0.00099766557334824,-0.00099766456243446,0.00099767209218448,-0.00099766103988369,0.00099767562949859,-0.00098200956258621,0.00098204372216017,-0.00098203906989049,0.0009820142099922,0.7334085177214,125803,2834,0.0063790698597456,0.0063790698673391,0.0036112197994683,29.290197391027,-5.6784208717804e-06,-5.6784208717804e-06,-5.6784208717804e-06,3390751.1209688,0.016504879897311
32419200,0.99777568863693,0.016353036330304,0.0061534041739801,0.0061534041771769,0.0040462279791468,-0.0015364653810666,0.0015364649352155,1.4861591451347e-08,-1.5309943947839e-08,1.736283854073e-09,-2.2193932037081e-09,-0.0016244757602567,0.0016244866888533,-0.0016244858325723,0.0016244766527579,-0.0016244770620527,0.0016244853668225,-0.001624487112015,0.0016244753109545,-0.0013681987958351,0.0013682265762091,-0.001368228325299,0.0013681969886727,-1.7880003366406e-09,2.2630370865725e-09,5.6097949144898e-09,-5.181693087458e-09,-0.0015364649439827,0.0015364653759468,-0.0016244798994625,0.0016244825633491,-0.0016244834142571,0.0016244789634557,-0.0016244786047014,0.0016244839015187,-0.0016244821178564,0.0016244803025664,-0.0013682065475028,0.001368218935172,-0.0013682170195568,0.001368208194025,-0.0015322402458163,0.001532233147132,-0.0015322362790237,0.0015322371728906,-1.4626928146872e-08,1.5730102895154e-08,-0.00086726708599359,0.00086726817114057,-4.6869059050304e-09,6.0016847065986e-09,-0.00099783122857036,0.00099781857314328,-0.00099782769190075,0.0009978221173255,-0.00099782110440862,0.00099782868802637,-0.00099781756508433,0.00099783224198655,-0.0009820835200824,0.00098211789998004,-0.00098211322926133,0.00098208818666552,0.7510942543868,125803,2834,0.0063800502699597,0.006380050277507,0.0036113811598438,29.299194831089,-5.606441351284e-06,-5.606441351284e-06,-5.606441351284e-06,3381980.6858672,0.016507038139204
32619200,0.99787627854089,0.016354646914209,0.0061540149282288,0.0061540149314259,0.0040466170545539,-0.0015366185940453,0.0015366181482233,1.496417052698e-08,-1.541265551313e-08,1.7361612884056e-09,-2.2189912988684e-09,-0.0016246014103758,0.0016246124071925,-0.0016246115510708,0.0016246023026779,-0.001624602711913,0.0016246110853618,-0.0016246128303899,0.0016246009610619,-0.0013683826676452,0.0013684106490377,-0.0013684123984607,0.0013683808604715,-1.7885008811728e-09,2.263618490828e-09,5.6317288686201e-09,-5.203591559938e-09,-0.0015366181569749,0.0015366185890115,-0.0016246055765909,0.0016246082546771,-0.0016246091056894,0.0016246046401045,-0.0016246042813373,0.0016246095931854,-0.0016246078089934,0.0016246059796021,-0.0013683904978291,0.0013684029289069,-0.0013684010126855,0.0013683921445301,-0.0015323997868677,0.0015323926727107,-0.0015323958186386,0.0015323966992305,-1.4726474861723e-08,1.5831201277433e-08,-0.00086719665863709,0.00086719774537773,-4.7064135661951e-09,6.0231396581508e-09,-0.00099791488363425,0.00099790214916179,-0.00099791133326809,0.00099790570698991,-0.00099790469252752,0.0009979123309211,-0.00099790113960652,0.00099791589850993,-0.00098204099697982,0.00098207558830234,-0.00098207090207708,0.00098204567831232,0.69653886291757,125803,2834,0.0063806806883188,0.0063806806960126,0.0036110989886182,29.262951252369,-5.8963899810472e-06,-5.8963899810472e-06,-5.8963899810472e-06,3370713.9441192,0.016508034313551
32819200,0.99797200924989,0.016356058337513,0.0061545541133929,0.0061545541165899,0.0040469501075304,-0.0015366370139682,0.0015366365680807,1.5064593106315e-08,-1.5513027056025e-08,1.7362114821663e-09,-2.2193174691394e-09,-0.0016246339386933,0.0016246450025712,-0.0016246441464045,0.0016246348312002,-0.0016246352404563,0.0016246436806185,-0.0016246454257893,0.0016246334894061,-0.001368375378643,0.0013684035567914,-0.0013684053060351,0.0013683735713931,-1.7881060775279e-09,2.2631648517917e-09,5.6462543508002e-09,-5.2181440336603e-09,-0.0015366365768147,0.0015366370087948,-0.0016246381336525,0.0016246408216306,-0.0016246416724246,0.001624637197415,-0.0016246368387988,0.0016246421598803,-0.0016246403759325,0.0016246385365623,-0.001368383293403,0.0013683957526391,-0.0013683938365785,0.0013683849396278,-0.0015324157342003,0.001532408611096,-0.0015324117670958,0.0015324126370009,-1.482852939385e-08,1.59343562995e-08,-0.00086711394445822,0.0008671150322896,-4.721268285684e-09,6.0392066062568e-09,-0.000997860027815,0.00099784721570939,-0.00099785646719062,0.00099785078384054,-0.0009978497683308,0.00099785746588631,-0.00099784620508294,0.00099786104377321,-0.00098199203792996,0.00098202684145816,-0.00098202214404949,0.00098199673095569,0.64446135332384,125803,2834,0.0063807557660127,0.006380755773381,0.0036107587843793,29.204512000983,-6.363903992132e-06,-6.363903992132e-06,-6.363903992132e-06,3369707.4212158,0.016507841137045
33019200,0.99806312606435,0.016357515222649,0.0061551061658564,0.0061551061690538,0.0040473028877384,-0.0015365813219958,0.0015365808761361,1.5165910886127e-08,-1.5614299559455e-08,1.7360917264718e-09,-2.2191426848907e-09,-0.0016246281688152,0.0016246393001624,-0.0016246384440896,0.001624629061263,-0.0016246294704988,0.0016246379783099,-0.0016246397233673,0.001624627719554,-0.0013682454669182,0.0013682738437082,-0.001368275592845,0.0013682436598621,-1.7878286819433e-09,2.2628059022505e-09,5.6567202264569e-09,-5.2286906388842e-09,-0.0015365808849252,0.0015365813168316,-0.0016246323939699,0.0016246350890581,-0.0016246359396511,0.0016246314578184,-0.0016246310993266,0.0016246364270905,-0.0016246346433627,0.0016246327967407,-0.0013682534709488,0.001368265950497,-0.0013682640346475,0.0013682551168149,-0.0015323586844845,0.0015323515549269,-0.0015323547179708,0.0015323555801872,-1.4929878050016e-08,1.6036391057261e-08,-0.00086707731731036,0.00086707840584476,-4.7313469121566e-09,6.0501360418572e-09,-0.00099772328319122,0.00099771039696871,-0.0009977197155748,0.00099771397209097,-0.00099771295591119,0.00099772071493538,-0.00099770938567251,0.00099772429981351,-0.00098199493197359,0.00098202994215428,-0.00098202523711839,0.00098199963268443,0.69524135138916,125803,2834,0.0063805267861182,0.0063805267936195,0.0036106028685547,29.145501749982,-6.8359860001419e-06,-6.8359860001419e-06,-6.8359860001419e-06,3377949.3080932,0.016507215850796
33219200,0.99814986422731,0.016358973725306,0.0061556564551639,0.0061556564583616,0.0040476608117806,-0.00153659735872,0.0015365969129115,1.5267231526086e-08,-1.5715562267066e-08,1.7357868797847e-09,-2.2188366174174e-09,-0.0016246539874777,0.0016246651862059,-0.0016246643302958,0.0016246548797941,-0.0016246552889552,0.0016246638645664,-0.0016246656093635,0.0016246535382963,-0.00136824503887,0.001368273614445,-0.0013682753632628,0.0013682432320642,-1.7875358487715e-09,2.2624746948192e-09,5.662397106039e-09,-5.2343975110358e-09,-0.0015365969216687,0.0015365973535373,-0.0016246582444136,0.0016246609434375,-0.0016246617938344,0.0016246573083879,-0.0016246569499726,0.0016246622812636,-0.0016246604977538,0.0016246586471243,-0.001368253136875,0.0013682656273575,-0.0013682637116923,0.0013682547824452,-0.0015323811944137,0.0015323740616479,-0.0015323772286153,0.0015323780863605,-1.5031430269296e-08,1.6138220345711e-08,-0.00086701664610322,0.00086701773491624,-4.7368873241103e-09,6.0560095945032e-09,-0.00099767794359793,0.00099766498602333,-0.00099767437217304,0.00099766856494459,-0.00099766754850246,0.00099767537179904,-0.00099766397446131,0.00099767896048995,-0.00098196032474292,0.00098199553798525,-0.00098199082886144,0.00098196502957517,0.72922790473082,125803,2834,0.0063805923884452,0.0063805923958421,0.0036103532745499,29.086469066516,-7.3082474678748e-06,-7.3082474678748e-06,-7.3082474678748e-06,3375991.54624,0.016507095540301
33419200,0.99823378139519,0.016360412575533,0.0061561985392266,0.0061561985424246,0.0040480154938815,-0.0015372117184586,0.0015372112726883,1.5368397507888e-08,-1.5816449129924e-08,1.7351130221353e-09,-2.2184664472552e-09,-0.0016252508575374,0.0016252621233787,-0.0016252612676827,0.0016252517495459,-0.0016252521586743,0.0016252608020438,-0.0016252625464289,0.0016252504084093,-0.0013688702598337,0.0013688990342274,-0.0013689007819253,0.0013688684537284,-1.7865606400929e-09,2.2613422333064e-09,5.6434865477213e-09,-5.2155798747473e-09,-0.0015372112814475,0.0015372117131804,-0.0016252551540699,0.0016252578411645,-0.001625258691106,0.0016252542187123,-0.0016252538603407,0.0016252591782659,-0.001625257395725,0.0016252555567492,-0.001368878476545,0.0013688909292653,-0.0013688890147201,0.0013688801217215,-0.0015330075452753,0.0015330004269765,-0.0015330035823154,0.0015330044503807,-1.5134199999939e-08,1.6239533456959e-08,-0.00086742903604011,0.0008674301232777,-4.7193073097523e-09,6.0365107159986e-09,-0.00099820189171503,0.00099818887690747,-0.00099819833263526,0.00099819244348165,-0.00099819142854518,0.00099819933071994,-0.00099818786684899,0.00099820290707388,-0.0009824175441712,0.00098245294336287,-0.00098244824840997,0.00098242223579257,0.74278652280081,125803,2834,0.0063831327783845,0.0063831327855864,0.0036120737581751,29.311570790254,-5.5074336779647e-06,-5.5074336779647e-06,-5.5074336779647e-06,3371501.1647455,0.016514010047001
33619200,0.99831526813253,0.016361810314091,0.0061567252685491,0.006156725271748,0.0040483597737942,-0.0015379887228265,0.0015379882772489,1.5472000395655e-08,-1.5919844156336e-08,1.7335843133069e-09,-2.2167720963694e-09,-0.0016260039381692,0.00162601527209,-0.0016260144171515,0.0016260048292145,-0.0016260052381328,0.0016260139518403,-0.0016260156949244,0.0016260034891843,-0.0013696664964297,0.0013696954750341,-0.001369697221401,0.0013696646915938,-1.7866892578108e-09,2.2615201094268e-09,5.6182726227981e-09,-5.1903088872366e-09,-0.0015379882858343,0.001537988717609,-0.0016260082771656,0.00162601094739,-0.0016260117974599,0.0016260073417729,-0.0016260069832062,0.0016260122845915,-0.0016260105020638,0.0016260086799463,-0.0013696748396245,0.0013696872431583,-0.0013696853286941,0.0013696764852739,-0.001533794355909,0.0015337872542535,-0.0015337903928244,0.001533791277921,-1.5234846449115e-08,1.6338048197431e-08,-0.00086795802820199,0.00086795911325785,-4.6932116467528e-09,6.0078895571798e-09,-0.00099887944178649,0.00099886637658603,-0.00099887590083865,0.0009988699249715,-0.0009988689120996,0.00099887689684813,-0.00099886536869646,0.00099888045498896,-0.00098299664847133,0.00098303222205184,-0.00098302754737409,0.00098300131962232,0.74303041878856,125803,2834,0.0063863456190118,0.00638634562598,0.0036142805866046,29.61321239424,-3.094300846076e-06,-3.094300846076e-06,-3.094300846076e-06,3366484.7541719,0.016522786431929
33819200,0.99839433528778,0.016363170816682,0.0061572379582266,0.0061572379614263,0.0040486948970286,-0.0015387621077513,0.0015387616621323,1.5570323829236e-08,-1.6018375548975e-08,1.7341985115435e-09,-2.2171656847573e-09,-0.0016267558246505,0.0016267672244289,-0.0016267663692098,0.0016267567159171,-0.001626757125016,0.0016267659037766,-0.0016267676472501,0.0016267553756278,-0.0013704560767443,0.001370485247357,-0.0013704869946722,0.00137045427122,-1.7851876996235e-09,2.2597671853353e-09,5.5900997368553e-09,-5.1624114102721e-09,-0.0015387616709062,0.0015387621024385,-0.0016267602051955,0.0016267628577257,-0.0016267637071041,0.0016267592708062,-0.0016267589124062,0.0016267641938048,-0.0016267624126912,0.0016267606079483,-0.0013704645437152,0.0013704768906974,-0.0013704749778883,0.0013704661881162,-0.001534576202023,0.0015345691219031,-0.0015345722415086,0.0015345731420531,-1.5340511532911e-08,1.6441797350936e-08,-0.00086848059304233,0.00086848167619701,-4.6691446960478e-09,5.9816968177563e-09,-0.0009995518372674,0.0009995387172285,-0.00099954831315447,0.00099954224878613,-0.00099954123785799,0.00099954930725265,-0.00099953771113111,0.00099955284869747,-0.0009835735052582,0.00098360926520749,-0.00098360460894404,0.00098357815744935,0.74517768545281,125803,2834,0.0063895433501606,0.0063895433573223,0.0036164609741705,29.91686810152,-6.6505518784339e-07,-6.6505518784339e-07,-6.6505518784339e-07,3362255.8387862,0.016531505218359
34019200,0.99847098722342,0.016364450606562,0.0061577215678436,0.0061577215710438,0.0040490074676747,-0.0015395285932397,0.0015395281477681,1.5673218726868e-08,-1.6121163732632e-08,1.7333559080492e-09,-2.2161143184052e-09,-0.0016275017445303,0.0016275132124277,-0.0016275123576851,0.0016275026352936,-0.0016275030442239,0.0016275118924307,-0.0016275136351519,0.0016275012955973,-0.0013712379395089,0.0013712673124664,-0.0013712690590476,0.0013712361347258,-1.7852695091243e-09,2.2598630139719e-09,5.5652236163913e-09,-5.1375244959694e-09,-0.001539528156481,0.0015395285880311,-0.0016275061672784,0.0016275088032793,-0.0016275096528644,0.0016275052330238,-0.0016275048744143,0.0016275101394776,-0.0016275083584008,0.0016275065701504,-0.0013712465317777,0.0013712588301638,-0.0013712569174344,0.0013712481764727,-0.001535348821178,0.0015353417574996,-0.0015353448603531,0.0015353457775016,-1.5441981899214e-08,1.6540763476736e-08,-0.00086899270507637,0.00086899378573325,-4.6444208173233e-09,5.9541514085538e-09,-0.0010002160180509,0.00100020284616,-0.0010002125113419,0.0010002063603478,-0.0010002053518223,0.001000213503041,-0.0010002018425278,0.0010002170270059,-0.00098414086588647,0.00098417680193198,-0.00098417216556372,0.00098414549808182,0.72426544589927,125803,2834,0.006392712428754,0.0063927124360053,0.003618598083983,30.220603282545,1.7648262603637e-06,1.7648262603637e-06,1.7648262603637e-06,3358412.4534876,0.016540121801211
34219200,0.9985465118448,0.016365677866068,0.0061581864334971,0.0061581864366976,0.004049304995873,-0.0015408616898669,0.0015408612439711,1.577026554433e-08,-1.6217277303252e-08,1.7330039532718e-09,-2.2184184443099e-09,-0.0016288290923533,0.0016288406254538,-0.0016288397702921,0.0016288299834567,-0.0016288303927233,0.0016288393049332,-0.0016288410477047,0.0016288286437722,-0.0013725552833859,0.0013725848463488,-0.0013725865914201,0.0013725534791461,-1.7829145445963e-09,2.2572753273555e-09,5.5224051198706e-09,-5.0945938060681e-09,-0.0015408612522825,0.0015408616836282,-0.0016288335622819,0.0016288361711785,-0.0016288370202202,0.0016288326294366,-0.0016288322712093,0.0016288375060064,-0.0016288357266105,0.0016288339655186,-0.0013725640160459,0.0013725762278779,-0.0013725743187958,0.0013725656603775,-0.001536688802931,0.0015366817719167,-0.0015366848520376,0.0015366857942068,-1.5549552372952e-08,1.6646379300451e-08,-0.00087005117670525,0.00087005225465022,-4.6081576391771e-09,5.9141664512185e-09,-0.0010014011037901,0.001001387883202,-0.001001397622231,0.0010013913715562,-0.0010013903660558,0.0010013986107075,-0.0010013868821887,0.0010014021101578,-0.00098528594247674,0.00098532206027208,-0.00098531745337428,0.00098529055081938,0.705943481475,125803,2834,0.0063982274795875,0.0063982274838719,0.0036230031137183,30.831737561608,6.6539004928629e-06,6.6539004928629e-06,6.6539004928629e-06,3362363.4493766,0.016555813156924
34419200,0.99862091566856,0.016366891823935,0.0061586461395982,0.0061586461428024,0.004049599541534,-0.0015422351289921,0.0015422346830261,1.5870212533254e-08,-1.6318104587635e-08,1.7340657635989e-09,-2.2185832161586e-09,-0.0016302130782013,0.0016302246795585,-0.0016302238245398,0.0016302139715435,-0.001630214379966,0.0016302233581658,-0.0016302251029734,0.0016302126293853,-0.0013738931067598,0.0013739228628181,-0.0013739246083363,0.0013738913023765,-1.7816458981761e-09,2.255523803239e-09,5.4846939751456e-09,-5.0574931987051e-09,-0.001542234691986,0.0015422351229212,-0.0016302175930652,0.0016302201787272,-0.001630221028173,0.0016302166639493,-0.0016302163045515,0.001630221512653,-0.0016302197352778,0.0016302179960577,-0.0013739019725012,0.0013739141088182,-0.0013739121998198,0.0013739036164382,-0.0015380661363747,0.0015380591321345,-0.0015380621823786,0.0015380631457371,-1.5653781689113e-08,1.674790220526e-08,-0.00087117855726156,0.00087117963275005,-4.573169671756e-09,5.8765751518431e-09,-0.0010026190562849,0.0010026057900491,-0.0010026156002295,0.0010026092554739,-0.0010026082518545,0.0010026165870124,-0.0010026047909603,0.0010026200602225,-0.00098650401985967,0.00098654031470175,-0.00098653573390022,0.00098650860001655,0.70867957956136,125803,2834,0.0064039102667409,0.0064039102727219,0.0036276922846076,31.47550392289,1.180403138312e-05,1.180403138312e-05,1.180403138312e-05,3370030.1064689,0.016572134312276
34619200,0.99869406450893,0.016368134230721,0.0061591150743413,0.0061591150775473,0.0040499040788328,-0.0015436154944669,0.0015436150490676,1.5978467060741e-08,-1.6426120720581e-08,1.7310768198502e-09,-2.2142004549313e-09,-0.0016316021770239,0.0016316138475266,-0.0016316129936619,0.0016316030665319,-0.001631603475252,0.0016316125288756,-0.0016316142699919,0.0016316017280627,-0.0013752411121757,0.0013752710854159,-0.00137527282951,0.0013752393088318,-1.7845400766433e-09,2.2590043981483e-09,5.4558209841944e-09,-5.0282110452511e-09,-0.0015436150575398,0.001543615488964,-0.0016316067370087,0.0016316093010748,-0.0016316101509125,0.0016316058039471,-0.0016316054446613,0.0016316106367769,-0.001631608856994,0.0016316071401607,-0.0013752501112952,0.0013752621950742,-0.0013752602840588,0.0013752517567428,-0.0015394525300901,0.0015394455411265,-0.0015394485722916,0.0015394495603721,-1.5750476328729e-08,1.6841080181708e-08,-0.00087230781280838,0.0008723088848638,-4.5394418281884e-09,5.8391333917266e-09,-0.001003843525162,0.0010038302153373,-0.0010038400917824,0.0010038336563952,-0.0010038326560758,0.0010038410751512,-0.0010038292201373,0.0010038445255659,-0.00098772438726087,0.00098776083717607,-0.00098775628244724,0.00098772893860154,0.73613738140427,125803,2834,0.006409621567726,0.0064096215738717,0.0036323895881718,32.120195992844,1.6961567942754e-05,1.6961567942754e-05,1.6961567942754e-05,3376931.0895484,0.016588522055969
34819200,0.99876694826778,0.016369382947135,0.0061595862258634,0.0061595862290703,0.0040502104922009,-0.0015455908758341,0.0015455904306228,1.6089772707547e-08,-1.6536408824532e-08,1.7288160896199e-09,-2.2130539840728e-09,-0.001633565439644,0.0016335771819852,-0.0016335763288892,0.0016335663279598,-0.0016335667363513,0.0016335758649163,-0.0016335776041609,0.0016335649907293,-0.0013772031509856,0.0013772333453197,-0.0013772350841413,0.0013772013492693,-1.7851444497683e-09,2.259778814392e-09,5.4224388758599e-09,-4.9944311222781e-09,-0.0015455904386115,0.0015455908702104,-0.0016335700476919,0.0016335725883059,-0.0016335734386842,0.0016335691139929,-0.0016335687544854,0.0016335739249174,-0.0016335721446027,0.0016335704510037,-0.0013772122942274,0.0013772243141478,-0.0013772224008836,0.0013772139396847,-0.0015414399662858,0.0015414329972203,-0.0015414360071967,0.0015414370148216,-1.5844659861435e-08,1.6931929282301e-08,-0.00087391499503091,0.00087391606359166,-4.4984347801755e-09,5.7935985826431e-09,-0.0010056291324399,0.0010056157851042,-0.0010056257268602,0.0010056191976008,-0.0010056182002725,0.0010056267073077,-0.001005614793601,0.0010056301294739,-0.00098944510595166,0.00098948170309834,-0.00098947718187454,0.000989449625201,0.74236046707576,125803,2834,0.0064177940283948,0.0064177940332856,0.0036390766648304,33.050508808648,2.4404070469185e-05,2.4404070469185e-05,2.4404070469185e-05,3382256.2681758,0.016611937775206
35019200,0.99883971948625,0.016370592131474,0.0061600438796538,0.006160043882863,0.0040505043689574,-0.0015477721443183,0.0015477716990371,1.6182394803594e-08,-1.6629229523453e-08,1.7305438252505e-09,-2.2146026921726e-09,-0.001635733623322,0.0016357454294142,-0.0016357445755115,0.001635734512473,-0.001635734920933,0.0016357441110879,-0.0016357458515656,0.0016357331746453,-0.0013793705200749,0.0013794008958862,-0.0013794026397455,0.0013793687174921,-1.7830866697497e-09,2.2574097709499e-09,5.3856993965422e-09,-4.9580059057347e-09,-0.0015477717072203,0.0015477721385414,-0.0016357382744068,0.0016357407924349,-0.0016357416420565,0.0016357373419931,-0.0016357369825431,0.0016357421274674,-0.0016357403490152,0.0016357386779026,-0.0013793797900528,0.0013793917364804,-0.0013793898292146,0.0013793814355232,-0.0015436311390279,0.00154362420143,-0.0015436271905858,0.0015436282229795,-1.5955998578853e-08,1.7041773388609e-08,-0.00087568399771491,0.0008756850644449,-4.4706645595165e-09,5.7639789972337e-09,-0.0010076066661933,0.0010075932636913,-0.0010076032805111,0.0010075966564218,-0.0010075956615306,0.0010076042585168,-0.0010075922741029,0.0010076076611805,-0.00099133951787408,0.00099137630989071,-0.00099137180986234,0.00099134401843207,0.72136487568041,125803,2834,0.0064268179410679,0.0064268179460451,0.0036464376545354,34.082407822645,3.2659262581162e-05,3.2659262581162e-05,3.2659262581162e-05,3387976.5121821,0.016637770661769
35219200,0.99891210061086,0.016371760652732,0.006160487420654,0.0061604874238654,0.0040507858082121,-0.0015499284413596,0.0015499279960857,1.6283729721999e-08,-1.6731049849676e-08,1.7306194339995e-09,-2.2140104727351e-09,-0.0016378941848198,0.00163790605827,-0.0016379052043109,0.0016378950740102,-0.0016378954827511,0.0016379047397503,-0.0016379064803552,0.0016378937360451,-0.0013814890103664,0.0013815195821347,-0.0013815213252681,0.00138148720745,-1.7833186636625e-09,2.2576152410956e-09,5.3605923900321e-09,-4.9330681252726e-09,-0.001549928004411,0.0015499284356683,-0.0016378988775121,0.0016379013789126,-0.0016379022285876,0.0016378979454589,-0.0016378975860142,0.0016379027137406,-0.0016379009354449,0.0016378992810807,-0.0013814984023762,0.0013815102983557,-0.0013815083894946,0.0013815000478045,-0.001545793623528,0.0015457867001864,-0.0015457896689256,0.0015457907177233,-1.6058947416303e-08,1.7142509837268e-08,-0.00087746234307311,0.00087746340786029,-4.448130704232e-09,5.7392474794567e-09,-0.0010095520275221,0.0010095385706743,-0.0010095486576846,0.0010095419479756,-0.0010095409548541,0.0010095496339107,-0.0010095375825658,0.0010095530209354,-0.00099325139383117,0.00099328836990423,-0.00099328388627903,0.00099325587488531,0.70214228602023,125803,2834,0.0064357392036819,0.0064357392091331,0.003653835303443,35.116957716621,4.0935661732966e-05,4.0935661732966e-05,4.0935661732966e-05,3397492.0285444,0.016663432278463
35419200,0.99898295912093,0.016372868790443,0.0061609093750139,0.0061609093782265,0.0040510500372024,-0.001551621464016,0.0015516210185972,1.6382072317171e-08,-1.6830584149678e-08,1.7347581353886e-09,-2.2164601120768e-09,-0.0016396079337976,0.0016396198747489,-0.0016396190193047,0.0016396088247501,-0.0016396092341068,0.0016396185539617,-0.0016396202972416,0.0016396074847605,-0.0013831293657461,0.0013831601251582,-0.001383161874171,0.0013831275600404,-1.7820043615194e-09,2.2559534086497e-09,5.3628963171762e-09,-4.9359526027788e-09,-0.0015516210278565,0.0015516214587825,-0.00163961265783,0.0016396151617798,-0.0016396160107673,0.0016396117265502,-0.0016396113676052,0.0016396164956082,-0.0016396147183365,0.0016396130613409,-0.0013831388491006,0.0013831507472393,-0.001383148839873,0.0013831404930614,-0.0015474878674784,0.0015474809441161,-0.0015474839107849,0.0015474849557781,-1.6163405495646e-08,1.7246818212042e-08,-0.00087886115999474,0.00087886222516324,-4.4519250755886e-09,5.744012963822e-09,-0.0010110580171488,0.0010110444884773,-0.001011054644751,0.0010110478684095,-0.0010110468752074,0.0010110556212308,-0.0010110434997589,0.0010110590112154,-0.00099476766658807,0.00099480485153049,-0.00099480036329056,0.00099477214810822,0.68162296874554,125803,2834,0.0064427440056815,0.0064427440140135,0.0036596533648738,35.929322796589,4.7434582372712e-05,4.7434582372712e-05,4.7434582372712e-05,3407538.370852,0.016683591177344
35619200,0.99905149283829,0.016373899599463,0.0061613033536006,0.0061613033568114,0.0040512928890505,-0.0015529532714123,0.0015529528265526,1.6484091671256e-08,-1.6932164114127e-08,1.7335197717491e-09,-2.2142993848502e-09,-0.0016409749908221,0.0016409869983951,-0.0016409861445095,0.0016409758814708,-0.0016409762897299,0.0016409856796563,-0.0016409874210636,0.0016409745421655,-0.0013843921644104,0.0013844231262296,-0.0013844248739982,0.0013843903583546,-1.7861311916829e-09,2.2607588041052e-09,5.387443071722e-09,-4.9598830650395e-09,-0.0015529528354375,0.0015529532670411,-0.0016409797412739,0.0016409822583769,-0.0016409831105951,0.0016409788081662,-0.0016409784481151,0.0016409835963803,-0.0016409818147572,0.001640980145277,-0.0013844017237872,0.0013844136739538,-0.0013844117614876,0.0013844033681622,-0.0015488185553231,0.0015488116070662,-0.0015488145879515,0.0015488156244191,-1.6263413607333e-08,1.7349542122074e-08,-0.00087998001194298,0.00087998107970847,-4.4748500652055e-09,5.7701343667759e-09,-0.0010122206832875,0.0010122070725552,-0.0010122172941839,0.0010122104692541,-0.0010122094734729,0.0010122182733714,-0.0010122060818456,0.0010122216794124,-0.00099599147332948,0.00099602887156158,-0.00099602436645297,0.00099599597277396,0.65729898643409,125803,2834,0.0064482549543854,0.0064482549637243,0.0036643051230012,36.573856323331,5.2590850586651e-05,5.2590850586651e-05,5.2590850586651e-05,3418715.6949744,0.016699526512881
35819200,0.99911758856154,0.016374956467449,0.0061617049185905,0.0061617049217994,0.0040515466270589,-0.0015542444961305,0.0015542440504943,1.6586414488011e-08,-1.7034608684927e-08,1.7354804267348e-09,-2.2182814680238e-09,-0.0016423158295714,0.0016423279075511,-0.0016423270514948,0.0016423167214319,-0.0016423171306069,0.0016423265860658,-0.0016423283303791,0.001642315380369,-0.0013855927240257,0.0013856238848383,-0.0013856256332125,0.0013855909175043,-1.7856859154034e-09,2.2602141808698e-09,5.4180019343648e-09,-4.9903818220881e-09,-0.0015542440594084,0.0015542444909111,-0.0016423206055769,0.0016423231437424,-0.0016423239946661,0.0016423196720524,-0.0016423193126056,0.0016423244803456,-0.0016423226997386,0.0016423210092725,-0.0013856023537235,0.0013856143635071,-0.0013856124520936,0.0013856040000346,-0.0015501116933253,0.0015501047265646,-0.0015501077310736,0.0015501087468008,-1.6363472213412e-08,1.7451093602658e-08,-0.00088111528356078,0.00088111635282945,-4.5035644059947e-09,5.8001585507682e-09,-0.0010133388317986,0.0010133251363368,-0.0010133354233293,0.0010133285523425,-0.001013327554914,0.0010133364039556,-0.0010133241437386,0.0010133398296929,-0.00099723523128304,0.00099727285025957,-0.00099726832335832,0.00099723975385086,0.69619234622707,125803,2834,0.0064535992184074,0.0064535992260514,0.003669021685576,37.214085972146,5.7712687777165e-05,5.7712687777165e-05,5.7712687777165e-05,3433437.2534869,0.016715188456229
36019200,0.99918116115055,0.01637603420462,0.0061621124247823,0.006162112427991,0.0040518093518464,-0.0015555933226658,0.0015555928769119,1.6687521270856e-08,-1.713569318363e-08,1.7355300529247e-09,-2.2187022102881e-09,-0.0016436829096638,0.0016436950550887,-0.0016436941989248,0.0016436838016239,-0.0016436842108241,0.0016436937335171,-0.0016436954779792,0.0016436824603836,-0.0013868947234182,0.0013869260825963,-0.0013869278308572,0.0013868929166538,-1.7873673869768e-09,2.2622078296752e-09,5.4508006330704e-09,-5.0228722541453e-09,-0.0015555928856134,0.0015555933173935,-0.0016436877093885,0.0016436902681714,-0.001643691119838,0.0016436867746582,-0.0016436864151272,0.0016436916060186,-0.0016436898237707,0.0016436881131345,-0.0013869044197018,0.0013869164952068,-0.001386914582064,0.0013869060672422,-0.0015514688153031,0.001551461823684,-0.001551464850261,0.0015514658481134,-1.6464311740731e-08,1.7554531273002e-08,-0.00088222996929743,0.0008822310411279,-4.5351090235121e-09,5.8345745830612e-09,-0.0010145278259931,0.0010145140428179,-0.0010145243954846,0.0010145174808383,-0.0010145164809015,0.0010145253785861,-0.0010145130478284,0.0010145288263109,-0.00099845025558311,0.00099848809871487,-0.00099848354740492,0.000998454803082,0.73586309336946,125803,2834,0.0064591799295556,0.0064591799366502,0.0036736579071909,37.854145617336,6.2833164938689e-05,6.2833164938689e-05,6.2833164938689e-05,3439998.0998598,0.016731250835557
36219200,0.99924007347358,0.016377000606097,0.0061624790541269,0.0061624790573358,0.0040520424946342,-0.0015556839698704,0.0015556835236163,1.6773451676624e-08,-1.722469116992e-08,1.7467302375314e-09,-2.2262698166323e-09,-0.0016437673579646,0.0016437795668076,-0.0016437787070728,0.001643768256212,-0.0016437686660312,0.0016437782394028,-0.0016437799912738,0.0016437669083277,-0.0013869949946694,0.0013870265095065,-0.0013870282740223,0.001386993178166,-1.7823020967767e-09,2.2561671419302e-09,5.5176006029511e-09,-5.0912547308025e-09,-0.0015556835343967,0.0015556839652241,-0.0016437721633315,0.0016437747699339,-0.0016437756199274,0.0016437712327356,-0.0016437708740475,0.0016437761050587,-0.0016437743259088,0.0016437725665111,-0.00138700470418,0.0013870169033376,-0.0013870149952633,0.0013870063442066,-0.001551560721463,0.0015515536933818,-0.0015515567563581,0.0015515577024269,-1.657658272446e-08,1.767378740725e-08,-0.00088214447916901,0.00088214555868377,-4.6106049380167e-09,5.9203671732981e-09,-0.0010145594023534,0.0010145454962684,-0.0010145559192305,0.0010145489880015,-0.0010145479816115,0.0010145569091693,-0.0010145444936804,0.0010145604100943,-0.00099840030927118,0.00099843844169236,-0.00099843382752369,0.00099840491307314,0.71361054629207,125803,2834,0.0064595517558552,0.0064595517685521,0.003673312046975,37.827180329385,6.2617442635083e-05,6.2617442635083e-05,6.2617442635083e-05,3431417.2534092,0.016731656455623
36419200,0.99929381906682,0.016377870318253,0.006162809337879,0.0061628093410839,0.0040522516392899,-0.0015551328605108,0.0015551324131848,1.6889643912443e-08,-1.7340889427849e-08,1.7449141729521e-09,-2.2274865177571e-09,-0.0016432228656536,0.0016432351517317,-0.0016432342894969,0.0016432237610457,-0.0016432241732919,0.0016432338222718,-0.0016432355756349,0.0016432224143161,-0.0013864395687691,0.0013864713143748,-0.0013864730724556,0.001386437755662,-1.7859173272751e-09,2.2602555734153e-09,5.6104909412205e-09,-5.1834334014912e-09,-0.0015551324234424,0.0015551328546476,-0.0016432276814882,0.0016432303482694,-0.0016432311951579,0.0016432267447705,-0.0016432263878442,0.0016432316821246,-0.0016432299022399,0.001643228083582,-0.0013864492997196,0.0013864616862118,-0.0013864597727738,0.0013864509470218,-0.0015510095906616,0.0015510024953918,-0.0015510056238441,0.0015510065116838,-1.6662417721943e-08,1.7760942729803e-08,-0.00088153895162226,0.00088154003342753,-4.6881300571702e-09,5.9995160546895e-09,-0.0010139860437125,0.0010139720306219,-0.001013982507779,0.0010139755738729,-0.0010139745639601,0.0010139835007801,-0.0010139710247968,0.0010139870548225,-0.00099781288890531,0.00099785124903499,-0.00099784657645738,0.00099781754758345,0.70434019492911,125803,2834,0.0064572689644263,0.0064572689735237,0.0036708017872865,37.496725008106,5.9973800064851e-05,5.9973800064851e-05,5.9973800064851e-05,3423586.5859159,0.016724462421815
36619200,0.9993428922919,0.016378619534792,0.0061630952968258,0.0061630953000291,0.004052428937937,-0.0015545396533234,0.0015545392068893,1.698847528233e-08,-1.7437792789577e-08,1.7412101995177e-09,-2.2243358602428e-09,-0.0016426410059633,0.0016426533553643,-0.001642652496606,0.0016426419012079,-0.0016426423110825,0.0016426520300334,-0.0016426537792061,0.0016426405561524,-0.0013858333525865,0.0013858652967352,-0.0013858670508143,0.0013858315414999,-1.7907711261713e-09,2.2661448679617e-09,5.6844989744409e-09,-5.2561853756926e-09,-0.0015545392159476,0.0015545396482137,-0.0016426458316167,0.0016426485433511,-0.0016426493954704,0.0016426448935652,-0.0016426445349242,0.0016426498833953,-0.0016426480970583,0.0016426462346834,-0.0013858431116018,0.0013858556474225,-0.0013858537289,0.001385844759888,-0.001550415831925,0.0015504086780202,-0.0015504118579183,0.0015504127085931,-1.6763091298091e-08,1.7870368334808e-08,-0.00088093045624872,0.00088093154586521,-4.7600100359093e-09,6.0803297303532e-09,-0.0010133749902075,0.0010133608626674,-0.0010133714031119,0.0010133644574157,-0.0010133634403828,0.0010133724033277,-0.0010133598503345,0.0010133760078146,-0.00099721741186531,0.00099725603111131,-0.00099725130501342,0.00099722213230296,0.66675280376578,125803,2834,0.0064548127435989,0.0064548127517692,0.0036682770209858,37.158375910623,5.7267007284982e-05,5.7267007284982e-05,5.7267007284982e-05,3417725.0938392,0.016716900692059
36819200,0.99938775521711,0.016379285836877,0.0061633501304469,0.0061633501336501,0.0040525855727802,-0.0015538872775045,0.0015538868309551,1.7091270820408e-08,-1.754056913483e-08,1.7413569865629e-09,-2.2248582851654e-09,-0.0016420265138372,0.0016420389320334,-0.0016420380732127,0.0016420274093984,-0.0016420278192259,0.0016420376065404,-0.0016420393560121,0.0016420260640162,-0.001385132232858,0.0013851643785175,-0.001385166132595,0.001385130421459,-1.7907893510263e-09,2.2661815101845e-09,5.744188095248e-09,-5.3158403733579e-09,-0.00155388683997,0.0015538872722471,-0.0016420313544809,0.0016420341057885,-0.001642034957637,0.0016420304161568,-0.001642030057793,0.0016420354458853,-0.0016420336592201,0.0016420317572238,-0.0013851420346645,0.0013851546876139,-0.0013851527685412,0.0013851436822956,-0.0015497596905544,0.0015497524969023,-0.001549755716998,0.0015497565278776,-1.6861104903908e-08,1.7972595452399e-08,-0.00088035388905291,0.00088035498289059,-4.8157799529414e-09,6.140984183495e-09,-0.0010127038654028,0.0010126896363949,-0.0010127002394572,0.0010126932698851,-0.0010126922487644,0.0010127012437495,-0.0010126886200422,0.0010127048870429,-0.00099665358019582,0.00099669243817729,-0.00099668766922055,0.00099665834391719,0.6495783320826,125803,2834,0.0064521137116997,0.0064521137194746,0.0036658793057095,36.819714011633,5.4557712093063e-05,5.4557712093063e-05,5.4557712093063e-05,3418812.2138615,0.016708973535911
37019200,0.99942998755381,0.016379954436358,0.0061636041655171,0.0061636041687206,0.0040527461021207,-0.0015542583207369,0.0015542578744635,1.7190348322012e-08,-1.7638125803658e-08,1.7362409028558e-09,-2.2214966263324e-09,-0.0016424417711889,0.0016424542530175,-0.0016424533961621,0.0016424426645983,-0.0016424430738762,0.001642452930146,-0.0016424546763222,0.0016424413219753,-0.0013854283965289,0.0013854607405106,-0.0013854624875401,0.0013854265898556,-1.7912302710271e-09,2.2667390527129e-09,5.7472317304663e-09,-5.3184931728902e-09,-0.0015542578827755,0.0015542583151884,-0.0016424466438563,0.0016424493969368,-0.0016424502489097,0.0016424457053223,-0.0016424453468883,0.0016424507371403,-0.0016424489503215,0.0016424470466802,-0.0013854382965769,0.001385450956052,-0.0013854490366704,0.0013854399457421,-0.0015501354000933,0.0015501282035607,-0.0015501314298464,0.0015501322394717,-1.6965590225188e-08,1.8077570435044e-08,-0.00088073442004551,0.00088073551391524,-4.8224010567668e-09,6.1470771217561e-09,-0.001012990616494,0.0010129763132963,-0.0010129869862001,0.0010129799511142,-0.0010129789297863,0.0010129879904929,-0.0010129752968575,0.0010129916381376,-0.00099709307713497,0.00099713214486166,-0.00099712737301767,0.0009970978483879,0.68961815102198,125803,2834,0.0064536509462607,0.0064536509519741,0.0036674565407101,37.01598909889,5.6127912791124e-05,5.6127912791124e-05,5.6127912791124e-05,3428693.7246988,0.0167137018511
37219200,0.99946998330093,0.016380630436733,0.0061638595854757,0.0061638595886808,0.0040529112625764,-0.0015549497523386,0.001554949306568,1.7293757992211e-08,-1.7741908331056e-08,1.7354038038403e-09,-2.2186506437458e-09,-0.0016431478912698,0.001643160441016,-0.0016431595851389,0.001643148783565,-0.0016431491926651,0.001643159119384,-0.0016431608640687,0.0016431474423019,-0.0013860868797572,0.0013861194267907,-0.0013861211746464,0.0013860850736142,-1.7888928324931e-09,2.263967336925e-09,5.7280089914373e-09,-5.2998703228276e-09,-0.0015549493152171,0.0015549497472034,-0.0016431528027543,0.0016431555445493,-0.0016431563951744,0.0016431518654315,-0.0016431515073595,0.0016431568830233,-0.0016431550982928,0.0016431532052522,-0.001386096899264,0.0013861095193024,-0.0013861076019226,0.0013860985457522,-0.0015508343844463,0.0015508272051262,-0.0015508304160589,0.0015508312329929,-1.7066429627506e-08,1.817582881623e-08,-0.00088132066883174,0.0008813217604604,-4.8021791785791e-09,6.1247883194413e-09,-0.0010135995938144,0.0010135852363338,-0.0010135959777573,0.0010135888598696,-0.0010135878408715,0.0010135969798687,-0.0010135842221033,0.0010136006133338,-0.00099773787997211,0.000997777125663,-0.00099777236916123,0.00099774263239058,0.73362542668808,125803,2834,0.0064565119153938,0.0064565119226628,0.0036698945189178,37.342560497192,5.8740483977534e-05,5.8740483977534e-05,5.8740483977534e-05,3431892.9173351,0.016721998403346
37419200,0.99950781722709,0.016381226365974,0.0061640862373973,0.0061640862406028,0.0040530538879743,-0.0015557050469186,0.0015557046012575,1.7395631237642e-08,-1.7843842025992e-08,1.735024588778e-09,-2.2179195042581e-09,-0.0016438868145195,0.001643899431837,-0.0016438985763421,0.0016438877065495,-0.0016438881155054,0.0016438981107031,-0.0016438998548474,0.0016438863656236,-0.0013868532706735,0.0013868860174943,-0.0013868877655928,0.0013868514646971,-1.7857163987663e-09,2.2602799484637e-09,5.6996113293299e-09,-5.2719810976919e-09,-0.0015557046101057,0.0015557050416085,-0.0016438917680637,0.0016438944929172,-0.0016438953420848,0.0016438908327881,-0.0016438904749618,0.0016438958293122,-0.001643894047326,0.0016438921702144,-0.001386863418608,0.0013868759806234,-0.0013868740664021,0.0013868650624169,-0.0015515969382473,0.0015515897840504,-0.0015515929762348,0.0015515938048074,-1.7168948065912e-08,1.8275773249966e-08,-0.00088187506697472,0.00088187615600673,-4.7747356249534e-09,6.0944999111211e-09,-0.0010142828795326,0.0010142684711893,-0.0010142792826917,0.0010142720755182,-0.0010142710590971,0.0010142802822664,-0.0010142674595736,0.0010142838964409,-0.00099834298925948,0.00099838241114526,-0.00099837767628732,0.00099834771959596,0.68665558563707,125803,2834,0.0064596349001981,0.0064596349075181,0.0036722061956494,37.67260658794,6.1380852703523e-05,6.1380852703523e-05,6.1380852703523e-05,3427150.995227,0.016730700557287
37619200,0.99954355747641,0.016381769825492,0.0061642935819449,0.0061642935851507,0.0040531826583965,-0.0015563898440941,0.001556389398729,1.7497329956522e-08,-1.7945288780569e-08,1.7335692333558e-09,-2.2160798876924e-09,-0.0016445900710527,0.0016446027552291,-0.0016446019005261,0.0016445909622167,-0.0016445913709195,0.0016446014351817,-0.0016446031779663,0.0016445896224091,-0.0013875001407179,0.0013875330878895,-0.0013875348347238,0.0013874983361009,-1.7841107236421e-09,2.2583811205489e-09,5.6669818384726e-09,-5.2396300726185e-09,-0.0015563894076057,0.0015563898388378,-0.0016445950681994,0.0016445977723844,-0.0016445986208437,0.0016445941339991,-0.0016445937762488,0.0016445991076347,-0.0016445973272246,0.0016445954702506,-0.0013875104211697,0.0013875229180472,-0.0013875210055798,0.0013875120638653,-0.0015522830216268,0.0015522758922391,-0.0015522790629153,0.0015522799093996,-1.7271917524911e-08,1.837594123005e-08,-0.00088245477158023,0.0008824558577737,-4.7437360853174e-09,6.0603024378194e-09,-0.0010148825301077,0.001014868072987,-0.0010148789549879,0.0010148716556078,-0.0010148706419646,0.0010148799518014,-0.0010148670641463,0.0010148835442415,-0.00099898352457618,0.00099902312064901,-0.00099901841032141,0.00099898823030773,0.66415285420781,125803,2834,0.0064624684083187,0.006462468415809,0.0036746168346651,38.002790974246,6.4022327793965e-05,6.4022327793965e-05,6.4022327793965e-05,3431692.2345434,0.016738913514563
37819200,0.99957636437806,0.01638224946438,0.0061644772422059,0.0061644772454118,0.0040532949767627,-0.0015560069038042,0.0015560064584676,1.7599709116085e-08,-1.8048751828256e-08,1.7361632975207e-09,-2.2168541215695e-09,-0.0016442452480595,0.0016442580014024,-0.0016442571460134,0.0016442461400796,-0.0016442465489463,0.0016442566804089,-0.0016442584244902,0.0016442447991627,-0.0013870714450787,0.0013871045906355,-0.0013871063419329,0.0013870696377461,-1.7834036815946e-09,2.2574847653885e-09,5.6634971964267e-09,-5.2365690707624e-09,-0.0015560064678529,0.0015560068988857,-0.0016442502798426,0.0016442529820763,-0.0016442538302265,0.0016442493459941,-0.0016442489883591,0.0016442543169822,-0.0016442525370591,0.0016442506817025,-0.0013870818263972,0.0013870943157956,-0.0013870924036926,0.0013870834671684,-0.0015518933665127,0.0015518862406613,-0.0015518894052856,0.0015518902521653,-1.7372538055973e-08,1.8475564022907e-08,-0.00088212681214687,0.00088212789775446,-4.7386296751658e-09,6.0551387883163e-09,-0.0010144825136139,0.0010144679926195,-0.0010144789419771,0.0010144715717885,-0.0010144705588661,0.0010144799382514,-0.0010144669844532,0.0010144835271555,-0.00099867026907997,0.00099871005625169,-0.00099870534886284,0.00099867496766304,0.64016140861891,125803,2834,0.0064608843460753,0.0064608843553214,0.0036732524180113,37.804414524524,6.2435316196191e-05,6.2435316196191e-05,6.2435316196191e-05,3433845.7258563,0.016734304435565
38019200,0.99960643033785,0.01638270782573,0.0061646519615341,0.0061646519647392,0.0040534038994571,-0.0015554959745408,0.0015554955291732,1.7698966754185e-08,-1.8147239708813e-08,1.7341427860106e-09,-2.2160973113954e-09,-0.001643783797117,0.0016437966157463,-0.0016437957605945,0.0016437846879895,-0.0016437850970894,0.0016437952952947,-0.0016437970383887,0.0016437833482594,-0.001386495510704,0.0013865288530953,-0.0013865306006239,0.001386493705051,-1.7859401737536e-09,2.2604503640994e-09,5.6564568684177e-09,-5.2289495184389e-09,-0.0015554955380465,0.0015554959694911,-0.0016437888652544,0.0016437915613509,-0.0016437924103345,0.0016437879294459,-0.0016437875717425,0.0016437928974965,-0.0016437911158315,0.0016437892674997,-0.0013865059974031,0.0013865184752996,-0.0013865165608308,0.0013865076409153,-0.0015513796578486,0.0015513725318619,-0.0015513756942322,0.0015513765508849,-1.7477091177704e-08,1.8579182423377e-08,-0.0008817422461695,0.00088174333068811,-4.7348772279071e-09,6.0497123013628e-09,-0.0010139586468982,0.0010139440585162,-0.0010139550781917,0.0010139476344638,-0.0010139466224517,0.0010139560734135,-0.0010139430512492,0.0010139596595739,-0.00099829969897768,0.00099833968561871,-0.00099833498302879,0.00099830439505565,0.66569813140017,125803,2834,0.0064587719921514,0.0064587720000631,0.0036716491189773,37.56022460695,6.0481796855601e-05,6.0481796855601e-05,6.0481796855601e-05,3439120.6037669,0.016728377539153
38219200,0.99963400832592,0.016383131608408,0.0061648133447361,0.0061648133479411,0.0040535049157306,-0.001555020420965,0.0015550199753943,1.7801478625342e-08,-1.8249746741705e-08,1.7353418318512e-09,-2.217891721048e-09,-0.0016433347427399,0.0016433476306574,-0.0016433467749783,0.0016433356347903,-0.0016433360437482,0.0016433463094158,-0.001643348053613,0.001643334293825,-0.0013859852728589,0.0013860188148102,-0.001386020563345,0.001385983466656,-1.7859312644376e-09,2.2604526429048e-09,5.6477575137942e-09,-5.2202026240108e-09,-0.0015550199843097,0.0015550204157744,-0.0016433398485261,0.0016433425388062,-0.0016433433883839,0.0016433389133116,-0.0016433385552619,0.0016433438753544,-0.0016433420935097,0.0016433402508995,-0.0013859958685928,0.001386008329099,-0.0013860064152742,0.0013859975128316,-0.0015509054985335,0.0015508983784574,-0.0015509015357027,0.0015509023990174,-1.757774812369e-08,1.8679493708113e-08,-0.00088134387970971,0.00088134496364845,-4.725358046774e-09,6.0394921739842e-09,-0.001013486075152,0.001013471425697,-0.0010134825130878,0.0010134749952589,-0.001013473983844,0.0010134835076816,-0.0010134704190913,0.0010134870870613,-0.00099790825309865,0.00099794842989194,-0.00099794373479678,0.00099791294319249,0.67076171021303,125803,2834,0.0064568047184118,0.0064568047261182,0.0036699920914293,37.314689928586,5.8517519428691e-05,5.8517519428691e-05,5.8517519428691e-05,3438536.8061167,0.016722691836374
38419200,0.99965949711223,0.016383549315129,0.006164971469161,0.0061649714723661,0.0040536063736017,-0.0015548025504246,0.0015548021043705,1.7905035803858e-08,-1.8353435163154e-08,1.7373542644904e-09,-2.2209926980212e-09,-0.0016431360693024,0.0016431490275612,-0.0016431481705071,0.0016431369625582,-0.0016431373719025,0.001643147704687,-0.0016431494508453,0.0016431356199013,-0.0013857384792411,0.0013857722229061,-0.0013857739726389,0.0013857366714272,-1.7842061501974e-09,2.2584687861136e-09,5.628618644051e-09,-5.2012349367621e-09,-0.0015548021134759,0.0015548025446938,-0.0016431412163788,0.0016431438949102,-0.0016431447436514,0.0016431402821578,-0.0016431399242518,0.0016431452303058,-0.0016431434500175,0.0016431416185256,-0.0013857491955538,0.0013857616174891,-0.0013857597055949,0.0013857508390388,-0.0015506918987132,0.0015506847950495,-0.0015506879412552,0.0015506888132395,-1.7678027433947e-08,1.8778003973427e-08,-0.00088116875398946,0.00088116983598727,-4.7046743054386e-09,6.0164037724459e-09,-0.001013260826911,0.0010132461237115,-0.0010132572792712,0.001013249678717,-0.0010132486691144,0.0010132582719963,-0.0010132451190617,0.0010132618368438,-0.0009977487224711,0.00099778907753445,-0.00099778439906238,0.00099775339719189,0.7125373164875,125803,2834,0.006455903562742,0.0064559035697229,0.0036692635241783,37.196796393414,5.7574371147309e-05,5.7574371147309e-05,5.7574371147309e-05,3438130.0711572,0.016720118272635
38619200,0.99968320730621,0.016383940006188,0.0061651193195995,0.006165119322805,0.0040537013637831,-0.0015548678830133,0.0015548674364218,1.8005957315834e-08,-1.845488105264e-08,1.7405178223753e-09,-2.2247675112326e-09,-0.0016431882224654,0.0016432012497869,-0.0016432003909957,0.0016431891176507,-0.0016431895273546,0.0016431999247097,-0.0016432016736964,0.001643187772432,-0.0013858176974843,0.0013858516361779,-0.0013858533885555,0.0013858158867396,-1.7810972461135e-09,2.2548143899476e-09,5.6003274700802e-09,-5.1734480281698e-09,-0.0015548674460488,0.0015548678767586,-0.0016431934124491,0.0016431960739977,-0.0016431969213258,0.0016431924803994,-0.0016431921226577,0.0016431974073556,-0.0016431956298771,0.0016431938141467,-0.0013858285402147,0.0013858409042689,-0.0013858389951744,0.0013858301810435,-0.0015507647846002,0.0015507577054788,-0.0015507608330118,0.0015507617161069,-1.7780988878435e-08,1.8878859320601e-08,-0.000881163940198,0.00088116502002344,-4.6776147639787e-09,5.9868237078033e-09,-0.0010133168667739,0.0010133021121078,-0.0010133133378891,0.0010133056484784,-0.0010133046408769,0.0010133143286128,-0.001013301109628,0.0010133178744713,-0.00099775993720786,0.00099780047082012,-0.00099779581351416,0.00099776459092512,0.71625965420012,125803,2834,0.0064561722702611,0.006456172277237,0.0036692484772891,37.193735017248,5.7549880137984e-05,5.7549880137984e-05,5.7549880137984e-05,3431223.3739942,0.016720650171942
38819200,0.99970526663155,0.016384304741262,0.0061652573185053,0.0061652573217111,0.0040537901010456,-0.0015549393951813,0.0015549389498736,1.8105517521809e-08,-1.8553347324092e-08,1.7329784334631e-09,-2.2155540844024e-09,-0.0016432453242499,0.0016432584136082,-0.0016432575590051,0.0016432462149021,-0.001643246623715,0.0016432570938108,-0.0016432588360621,0.0016432448756815,-0.0013859076193084,0.0013859417587273,-0.0013859435049407,0.0013859058151287,-1.7888881389894e-09,2.2639757398546e-09,5.5720243606051e-09,-5.1439037755426e-09,-0.0015549389582642,0.0015549393902549,-0.0016432505566784,0.0016432531950026,-0.0016432540466238,0.0016432496201779,-0.0016432492613401,0.0016432545336486,-0.0016432527495327,0.0016432509600558,-0.0013859185868019,0.001385930900837,-0.0013859289853228,0.0013859202348141,-0.001550841242725,0.0015508341673616,-0.00155083727438,0.0015508381956035,-1.7886027815997e-08,1.8981860828211e-08,-0.00088115661466565,0.00088115769246124,-4.6535682949201e-09,5.9605399042288e-09,-0.0010133771427,0.0010133623339392,-0.0010133736309228,0.0010133658532011,-0.0010133648478625,0.0010133746194116,-0.0010133613332896,0.001013378148696,-0.00099776618166852,0.00099780689997903,-0.00099780226114095,0.00099777081610473,0.71844599038839,125803,2834,0.0064564664137765,0.0064564664209434,0.0036692232532399,37.193613765674,5.7548910125389e-05,5.7548910125389e-05,5.7548910125389e-05,3424594.7259468,0.016721223461287
38880000,0.99971182350359,0.016384413282803,0.0061652983790168,0.0061652983822226,0.0040538165215638,-0.0015549615463404,0.0015549611009659,1.8136245572853e-08,-1.8584192597732e-08,1.7336108543196e-09,-2.2161322910915e-09,-0.0016432625422336,0.001643275652389,-0.0016432747974667,0.0016432634332243,-0.0016432638421042,0.0016432743321865,-0.0016432760749605,0.0016432620935418,-0.0013859358400526,0.00138597003911,-0.0013859717858878,0.0013859340352466,-1.7883490552228e-09,2.2633234218309e-09,5.5648197773747e-09,-5.136816713588e-09,-0.0015549611094995,0.0015549615413856,-0.0016432677871611,0.0016432704210478,-0.0016432712724182,0.0016432668510591,-0.0016432664922369,0.0016432717593091,-0.0016432699757263,0.0016432681904494,-0.0013859468445422,0.0013859591440231,-0.0013859572289136,0.0013859484919008,-0.0015508637326577,0.0015508566630009,-0.001550859764885,0.0015508606893592,-1.791726273054e-08,1.9012524791154e-08,-0.0008811507016932,0.00088115177895169,-4.6467287377683e-09,5.9531114035817e-09,-0.0010133950715553,0.0010133802463729,-0.0010133915644996,0.0010133837608942,-0.0010133827560361,0.0010133925525091,-0.0010133792462308,0.0010133960770211,-0.00099776747175875,0.00099780824529599,-0.00099780361176879,0.00099777210066685,0.71909629338202,125803,2834,0.0064565573986218,0.006456557406026,0.0036692006435451,37.193609100823,5.7548872806584e-05,5.7548872806584e-05,5.7548872806584e-05,3422429.4214646,0.016721385744116
