time,ASR_ext,ASR_strain,ASR_strain_xx,ASR_strain_yy,ASR_strain_zz,disp_x_101,disp_x_102,disp_x_103,disp_x_104,disp_x_105,disp_x_106,disp_x_p1_neg,disp_x_p1_pos,disp_x_p2_neg,disp_x_p2_pos,disp_x_p3_neg,disp_x_p3_pos,disp_x_p4_neg,disp_x_p4_pos,disp_x_p5_neg,disp_x_p5_pos,disp_x_p6_neg,disp_x_p6_pos,disp_y_101,disp_y_102,disp_y_103,disp_y_104,disp_y_105,disp_y_106,disp_y_p1_neg,disp_y_p1_pos,disp_y_p2_neg,disp_y_p2_pos,disp_y_p3_neg,disp_y_p3_pos,disp_y_p4_neg,disp_y_p4_pos,disp_y_p5_neg,disp_y_p5_pos,disp_y_p6_neg,disp_y_p6_pos,disp_y_p7_neg,disp_y_p7_pos,disp_y_p8_neg,disp_y_p8_pos,disp_z_101,disp_z_102,disp_z_103,disp_z_104,disp_z_105,disp_z_106,disp_z_p1_neg,disp_z_p1_pos,disp_z_p2_neg,disp_z_p2_pos,disp_z_p3_neg,disp_z_p3_pos,disp_z_p4_neg,disp_z_p4_pos,disp_z_p5_neg,disp_z_p5_pos,disp_z_p6_neg,disp_z_p6_pos,humidity,ndof,nelem,strain_xx,strain_yy,strain_zz,temp,thermal_strain_xx,thermal_strain_yy,thermal_strain_zz,vonmises,vstrain
2419200,0,0,0,0,0,0,0,0,0,0,0,0,0,0,0,0,0,0,0,0,0,0,0,0,0,0,0,0,0,0,0,0,0,0,0,0,0,0,0,0,0,0,0,0,0,0,0,0,0,0,0,0,0,0,0,0,0,0,0,0,0,0,0,0,0,0,0,0,0,0,0,0,0,0,0
2619200,0.019526774542125,0.00040058005570504,0.00013352668523501,0.00013352668523501,0.00013352668523501,-3.5399944538554e-05,3.5399514867879e-05,-2.0174290902496e-10,-2.3031688667574e-10,4.2339798116246e-10,-8.6569878527944e-10,-3.4732554617829e-05,3.4732560211202e-05,-3.4732551293788e-05,3.4732537732975e-05,-3.4732959748332e-05,3.4732123127238e-05,-3.4732969403451e-05,3.4732113929285e-05,-3.5608328854695e-05,3.5607490682986e-05,-3.5608360335237e-05,3.5607466844702e-05,-4.1961286041294e-10,8.663014845926e-10,-2.6049975378853e-09,3.0282966078596e-09,-3.5399516090136e-05,3.5399943316291e-05,-3.4733438641592e-05,3.47315966244e-05,-3.47316389959e-05,3.4733485461333e-05,-3.4733027282712e-05,3.473202514657e-05,-3.4731227521303e-05,3.4733914168951e-05,-3.561021839107e-05,3.5605536738104e-05,-3.5604766158978e-05,3.5611141822962e-05,-3.6055970599278e-05,3.6057011609883e-05,-3.6054704213139e-05,3.6058283774632e-05,-6.1912352048617e-10,-5.9076302325968e-10,-3.2998002809184e-05,3.2996785059831e-05,2.1271328606273e-09,-3.4346133624349e-09,-3.2689699029226e-05,3.2690342425609e-05,-3.2691543995583e-05,3.2688499766338e-05,-3.2689689253757e-05,3.2690351383516e-05,-3.2691534194441e-05,3.2688508948061e-05,-3.4280308490987e-05,3.4277269838539e-05,-3.4280327635667e-05,3.4277232986606e-05,0.81992965368171,125803,2834,0.00014748793470614,0.00014748793470622,0.00013747967654844,31.519551508785,1.2156412070277e-05,1.2156412070277e-05,1.2156412070277e-05,551395.429954,0.00043254929294468
2819200,0.041122837496193,0.00084156176716819,0.00028204231073039,0.00028204231368791,0.0002774771427499,-7.3863325033004e-05,7.3862327950403e-05,-3.8508916012873e-10,-6.0736470821919e-10,1.2721217794205e-09,-2.313399947624e-09,-7.3202882080671e-05,7.3203143619796e-05,-7.3202955169566e-05,7.32030684645e-05,-7.3204031498084e-05,7.3201947210179e-05,-7.3204102664743e-05,7.320187051352e-05,-7.3783401965687e-05,7.3781432276465e-05,-7.3783614035516e-05,7.3781209537229e-05,-1.2688901280974e-09,2.315116961355e-09,1.0861658437131e-09,-9.9858522318079e-11,-7.3862328980908e-05,7.3863325426607e-05,-7.3202903396653e-05,7.3203095193554e-05,-7.3203260054963e-05,7.3202692155664e-05,-7.3201754235817e-05,7.3204291090115e-05,-7.3202110940182e-05,7.3203888478323e-05,-7.3780769378656e-05,7.3784107441225e-05,-7.3781907045151e-05,7.3782914414094e-05,-7.476861959261e-05,7.4765719175607e-05,-7.4765114532532e-05,7.4769291133105e-05,3.4400906393712e-10,5.6897013616172e-10,-6.770715800334e-05,6.7708066867129e-05,-1.2149645246397e-10,1.0542923793609e-09,-6.8160932764659e-05,6.8161372730316e-05,-6.8160553612613e-05,6.8161757891678e-05,-6.816085551984e-05,6.8161445257089e-05,-6.816047639151e-05,6.8161830961029e-05,-7.0132899253717e-05,7.0134414791094e-05,-7.0133121889821e-05,7.0134196128487e-05,0.82138489005453,125803,2834,0.00030771423563158,0.00030771423859758,0.0002820754420526,32.736193382692,2.188954706154e-05,2.188954706154e-05,2.188954706154e-05,761497.24787845,0.00089790724178361
3019200,0.062599298252332,0.0012789717337974,0.00043185331825453,0.00043185332153666,0.00041526509400625,-0.0001098059091107,0.00010980550148631,7.7432593568301e-12,-4.1070714906087e-10,1.1814816142499e-09,-1.6192702655189e-09,-0.00010914787423191,0.00010914853291194,-0.00010914801627935,0.00010914839589544,-0.00010914878226087,0.0001091476005795,-0.00010914891869527,0.00010914745838169,-0.00010909839208371,0.00010909745928164,-0.0001090988023888,0.00010909705073629,-1.17968769863e-09,1.621558268685e-09,1.9040539851447e-09,-1.5052897962179e-09,-0.0001098055022719,0.0001098059098972,-0.00010914790620928,0.00010914850347352,-0.00010914899427156,0.0001091473576118,-0.00010914699993788,0.00010914943797999,-0.00010914808804727,0.00010914829259722,-0.00010909561885518,0.00010910029807496,-0.00010909891354356,0.00010909689927739,-0.00011109394213335,0.00011109047824247,-0.00011109120089185,0.0001110932682554,3.0738708395594e-10,7.2889101203433e-10,-9.8279638242326e-05,9.828067776191e-05,-1.1372363907528e-09,2.234365132806e-09,-9.931637162695e-05,9.9316140124569e-05,-9.9315263304604e-05,9.931725730169e-05,-9.9316227204526e-05,9.931627642318e-05,-9.9315118926404e-05,9.9317394372728e-05,-0.00010236653731782,0.00010236910440922,-0.00010236695631657,0.00010236869706076,0.82013323415392,125803,2834,0.00045741865997747,0.00045741866325118,0.00040941757238274,32.491947827061,1.9935582616488e-05,1.9935582616488e-05,1.9935582616488e-05,1024356.198198,0.0013251329777272
3219200,0.08385184814292,0.0017038687681529,0.00057930747996648,0.0005793074823422,0.00054525380584418,-0.00014510274843228,0.00014510257591183,2.224651834737e-10,-3.9260089529008e-10,9.871636063368e-10,-1.1784326507723e-09,-0.00014469907107255,0.00014469982045119,-0.00014469927951718,0.0001446996188475,-0.00014469977876695,0.00014469910206828,-0.00014469997939525,0.00014469889292995,-0.0001432481744841,0.00014324787544478,-0.00014324877857901,0.00014324727532291,-9.8616516366942e-10,1.1818124867489e-09,2.4908548527275e-09,-2.3246277693019e-09,-0.00014510257636154,0.00014510274912304,-0.00014469893240662,0.00014469997237267,-0.00014470048899478,0.00014469835862702,-0.0001446982272444,0.00014470069486426,-0.00014469978382474,0.00014469908139361,-0.00014324525138481,0.00014325087061174,-0.00014324991501868,0.0001432460802336,-0.00014663089903689,0.00014662735546439,-0.00014662877395635,0.00014662950761663,2.5411581961931e-10,8.7174630668622e-10,-0.00012691999009098,0.00012692112131893,-1.7731529915212e-09,2.9849934290297e-09,-0.00012871769057959,0.00012871701767302,-0.00012871611963712,0.00012871859540373,-0.00012871748180476,0.00012871722034682,-0.00012871591087391,0.00012871879887114,-0.0001327924371993,0.00013279575020309,-0.0001327930444388,0.00013279514689051,0.80675912455695,125803,2834,0.00060441080871023,0.00060441081108482,0.00052869777923115,32.204230291359,1.7633842330876e-05,1.7633842330876e-05,1.7633842330876e-05,1234750.4874324,0.0017390310214689
3419200,0.10485359373525,0.0021121350334846,0.00072292982392727,0.00072292982645272,0.00066627538310457,-0.00017947513602839,0.00017947508265468,3.7958104239059e-10,-4.3186660429374e-10,8.3572445729444e-10,-9.0164908024687e-10,-0.00017967881907266,0.00017967961129739,-0.00017967909306444,0.00017967934436697,-0.00017967938952348,0.00017967903668321,-0.00017967965471429,0.00017967876118685,-0.00017584899557481,0.00017584914833052,-0.00017584979059124,0.00017584835445327,-8.3433819062187e-10,9.0347206795576e-10,2.8686336382985e-09,-2.821039976303e-09,-0.00017947508361111,0.00017947513628458,-0.00017967854687078,0.00017967990112469,-0.00017968039688574,0.00017967799707608,-0.00017967798019868,0.00017968047963896,-0.00017967983023859,0.00017967857585151,-0.00017584600148112,0.0001758522184452,-0.00017585151649683,0.00017584656253407,-0.00018099658938722,0.00018099305945219,-0.00018099488338634,0.00018099477915891,1.6945001750405e-10,9.8342977718948e-10,-0.00015344564732742,0.00015344680573959,-2.1821139840742e-09,3.4385766606811e-09,-0.00015625931359382,0.00015625831025123,-0.00015625745447471,0.00015626017396208,-0.00015625904041843,0.00015625857942479,-0.0001562571813028,0.00015626044393425,-0.00016105111741024,0.00016105493922711,-0.00016105191375867,0.00016105414049994,0.78589835489663,125803,2834,0.00074753195736318,0.00074753195988764,0.00063915893078959,31.914758513359,1.5318068106874e-05,1.5318068106874e-05,1.5318068106874e-05,1430127.6094971,0.0021365033766535
3619200,0.1261224779578,0.0025161443095218,0.00086678109380971,0.00086678109644303,0.00078258211926905,-0.00021461741888372,0.00021461746463925,5.2730460980907e-10,-4.8074637807962e-10,7.6754573285767e-10,-7.3110794766876e-10,-0.0002158309716494,0.00021583184914527,-0.00021583131125219,0.00021583151699662,-0.00021583146539707,0.00021583135466626,-0.00021583179638045,0.00021583101372087,-0.00020856931905557,0.00020856984382394,-0.00020857030543692,0.00020856885642697,-7.8754372078581e-10,7.7612847936761e-10,2.9299927165458e-09,-2.9596536357996e-09,-0.0002146174549598,0.00021461742983215,-0.00021583071682329,0.00021583212053267,-0.00021583264050296,0.00021583015193458,-0.00021583020637105,0.0002158326407879,-0.00021583213024693,0.0002158306722084,-0.00020856647997186,0.00020857275711421,-0.0002085721924737,0.00020856690682739,-0.00021601052532247,0.00021600702062566,-0.00021600898671842,0.00021600856774636,1.4484460123197e-11,1.0240041900146e-09,-0.00017951116267827,0.00017951220514455,-2.3336759342575e-09,3.4810603750719e-09,-0.00018348502972604,0.00018348377752982,-0.00018348310473826,0.0001834857060585,-0.00018348469194114,0.00018348411267368,-0.00018348276732176,0.00018348604191968,-0.00018893008467052,0.00018893404947642,-0.00018893107116515,0.00018893305795767,0.7701157415394,125803,2834,0.00089383733061781,0.00089383733325921,0.0007476929268197,31.993780722006,1.5950245776047e-05,1.5950245776047e-05,1.5950245776047e-05,1667335.9238435,0.0025385859673756
3819200,0.14799591281529,0.0029303557824036,0.0010153173922453,0.0010153173950366,0.00089972099512177,-0.00025138022473943,0.00025138034343188,6.6244052269822e-10,-5.4300298958728e-10,7.8398151893216e-10,-6.7307884031521e-10,-0.00025385554665786,0.00025385654594995,-0.00025385595379147,0.00025385614980296,-0.00025385602490205,0.00025385606799006,-0.00025385642273474,0.00025385566216427,-0.00024247541230032,0.00024247621809232,-0.00024247659244801,0.00024247503708688,-7.956652245912e-10,7.1559017577732e-10,2.7975086399224e-09,-2.8945548958275e-09,-0.00025138033112927,0.00025138023839002,-0.00025385541046407,0.00025385669840525,-0.00025385727213273,0.00025385479640213,-0.00025385491551321,0.00025385720278554,-0.00025385677767167,0.00025385530089352,-0.00024247285255456,0.0002424788503893,-0.00024247837299036,0.00024247319559612,-0.00025272750371222,0.00025272404611619,-0.00025272601292548,0.00025272554199451,-1.4847370133949e-10,1.0555185539195e-09,-0.00020619524199946,0.0002061961515282,-2.2986510531687e-09,3.3153971746377e-09,-0.00021120963383066,0.00021120824894675,-0.00021120777505016,0.00021121011094545,-0.0002112092307814,0.00021120864864266,-0.00021120737303916,0.0002112105116994,-0.00021785903198443,0.0002178629891823,-0.00021786020756541,0.00021786180677666,0.77140159846942,125803,2834,0.0010468658661747,0.0010468658689801,0.00085879192112902,32.324814544963,1.8598516359703e-05,1.8598516359703e-05,1.8598516359703e-05,1910245.3825134,0.0029568886425787
4019200,0.17046299164886,0.0033551086125245,0.001168629210931,0.0011686292139191,0.0010178501876744,-0.0002893273105355,0.00028932746002353,7.7561353417129e-10,-6.2524423083558e-10,8.1577635957748e-10,-6.7421655911751e-10,-0.00029326477522241,0.00029326588027063,-0.00029326524881606,0.00029326542002229,-0.00029326526327449,0.00029326539226999,-0.0002932657269844,0.00029326492179186,-0.0002772705538867,0.00027727157137831,-0.00027727192475351,0.00027727019851931,-8.2211461410992e-10,7.1332339853206e-10,2.653749681991e-09,-2.7798488187359e-09,-0.00028932744682432,0.00028932732517821,-0.00029326475173933,0.00029326591809126,-0.00029326653131955,0.0002932641030637,-0.00029326424894144,0.00029326643115811,-0.00029326602887372,0.00029326461613564,-0.00027726823609518,0.00027727395890344,-0.00027727350542805,0.00027726855987142,-0.00029063995821769,0.00029063653203434,-0.00029063844158069,0.00029063805387765,-3.0838391705595e-10,1.0920527113113e-09,-0.0002330859326123,0.00023308671702223,-2.2325244224169e-09,3.1238302593105e-09,-0.00023913701099178,0.00023913552083049,-0.00023913523801794,0.0002391372974164,-0.00023913654233248,0.00023913598565582,-0.0002391347703559,0.00023913776334651,-0.00024734262969099,0.00024734657043929,-0.00024734399773752,0.00024734519588024,0.7729948401912,125803,2834,0.00120479872183,0.0012047987248337,0.00097074092343557,32.662297812552,2.129838250042e-05,2.129838250042e-05,2.129838250042e-05,2131420.4267281,0.0033860608264713
4219200,0.19349880275746,0.0037905250002693,0.0013268158123892,0.0013268158155193,0.0011368933723608,-0.00032855561719705,0.00032855576387008,8.7219278043279e-10,-7.2441413268962e-10,8.3394115581719e-10,-6.9576713883562e-10,-0.00033402726533658,0.00033402844578977,-0.000334027804574,0.00033402792061748,-0.00033402776596951,0.00033402794478736,-0.0003340282953697,0.00033402740947856,-0.00031329354291463,0.00031329473606644,-0.00031329510353599,0.00031329316953795,-8.395323942734e-10,7.3188461769755e-10,2.5133134965396e-09,-2.6388734604542e-09,-0.00032855575173121,0.00032855563083177,-0.00033402733069738,0.00033402839316059,-0.00033402901916108,0.00033402667242576,-0.00033402681629393,0.00033402891821178,-0.00033402850508755,0.0003340271975066,-0.0003132914427555,0.00031329690336171,-0.00031329643812444,0.0003132917798597,-0.00032983345285737,0.0003298300846481,-0.00032983190018365,0.00032983164333639,-4.4599337887474e-10,1.1505692169296e-09,-0.00026011753451904,0.00026011823847902,-2.13227615791e-09,2.9433911688697e-09,-0.00026752387468393,0.00026752233166112,-0.00026752219579225,0.00026752401445152,-0.0002675233405877,0.00026752286174295,-0.00026752166257081,0.00026752454556134,-0.00027716701360394,0.00027717097410515,-0.00027716857356837,0.00027716940742725,0.77488672029013,125803,2834,0.0013680367566146,0.0013680367597267,0.0010832669493889,33.000034843169,2.4000278745352e-05,2.4000278745352e-05,2.4000278745352e-05,2326241.7211659,0.0038266471570657
4419200,0.21747431867164,0.0042436885520715,0.0014926155764021,0.001492615579584,0.0012584573960854,-0.00037036021046115,0.00037036035230291,9.4310812742938e-10,-7.9975413316315e-10,8.4386041636412e-10,-7.1074601421185e-10,-0.00037744215186372,0.00037744338925753,-0.00037744274472241,0.00037744281245677,-0.00037744266527007,0.00037744287747953,-0.00037744324197133,0.00037744229404498,-0.0003516315707122,0.00035163288479553,-0.00035163326411192,0.00035163118282134,-8.3255606773362e-10,7.1689048387788e-10,2.2953478040686e-09,-2.4280536626549e-09,-0.0003703603462288,0.00037036021813442,-0.00037744231333431,0.00037744323825865,-0.00037744386885526,0.00037744166117718,-0.00037744181051702,0.00037744375460596,-0.00037744335663591,0.00037744217764495,-0.00035162975165247,0.00035163476888915,-0.00035163432215527,0.0003516300786876,-0.00037172409693802,0.00037172087593026,-0.00037172255722575,0.00037172242149138,-6.1838718640436e-10,1.2237780001427e-09,-0.0002879633695907,0.00028796397274777,-1.9974406853495e-09,2.7038645500121e-09,-0.00029700488948831,0.00029700329316877,-0.00029700334010313,0.00029700485013698,-0.0002970042795044,0.00029700390345516,-0.00029700272162588,0.0002970054620766,-0.00030813659922262,0.00030814058413045,-0.00030813841028581,0.00030813877110075,0.77612067062985,125803,2834,0.0015419650998516,0.0015419651031775,0.0011991726501008,33.593816834319,2.8750534674549e-05,2.8750534674549e-05,2.8750534674549e-05,2493307.6200916,0.0042922936051184
4619200,0.24252930252781,0.0047173452888608,0.0016673783925515,0.0016673783953725,0.0013825885009367,-0.00041461069631329,0.00041461083936551,1.0417770419412e-09,-8.9720544084259e-10,8.3879847613527e-10,-7.0450686968108e-10,-0.0004233523524689,0.00042335364893682,-0.00042335300465287,0.00042335300735884,-0.00042335286086853,0.00042335313972774,-0.00042335349879257,0.0004233524960884,-0.00039204800911853,0.00039204951978451,-0.00039204989433629,0.00039204762536318,-8.2930375692772e-10,7.0938991992194e-10,2.1021032644307e-09,-2.2384833805356e-09,-0.00041461083431405,0.00041461070255226,-0.00042335260553224,0.00042335340250074,-0.00042335403444188,0.00042335195338203,-0.00042335210476959,0.00042335391414295,-0.00042335352582791,0.00042335246936987,-0.00039204647729187,0.0003920511120189,-0.0003920506781293,0.00039204680209629,-0.00041623280842352,0.00041622972039505,-0.00041623128094143,0.00041623125474432,-7.5721531659339e-10,1.2812050342862e-09,-0.00031645469417688,0.00031645521475321,-1.851242098128e-09,2.4703804970973e-09,-0.00032737872460969,0.00032737710421645,-0.00032737729930494,0.00032737853543211,-0.00032737804624086,0.0003273777815908,-0.00032737661403809,0.00032737921574074,-0.00034013710306895,0.00034014107461552,-0.000340139108113,0.00034013906668873,0.7769364562769,125803,2834,0.0017260355526376,0.0017260355551065,0.0013177556899752,34.291517181001,3.4332137448006e-05,3.4332137448006e-05,3.4332137448006e-05,2653754.0449612,0.0047812275550985
4819200,0.26863201326881,0.0052110719188815,0.001851040705811,0.0018510407084913,0.0015089905045792,-0.00046103266495928,0.00046103281002757,1.1433680799341e-09,-9.9685624954938e-10,8.3279642653788e-10,-6.9630664467762e-10,-0.00047149337883624,0.00047149473838492,-0.0004714940948957,0.00047149402979461,-0.00047149388195041,0.00047149423337743,-0.00047149458573053,0.00047149352360651,-0.00043427037236794,0.00043427208707339,-0.00043427245530658,0.00043426999448854,-8.2604979830451e-10,7.0462973941784e-10,1.9469867755637e-09,-2.0845901303385e-09,-0.0004610328045097,0.00046103267144613,-0.00047149371244772,0.00047149440839361,-0.00047149504042929,0.00047149306358474,-0.00047149321399276,0.00047149491717327,-0.00047149453511194,0.00047149357659911,-0.00043426909282596,0.0004342734217435,-0.00043427299638747,0.0004342694182225,-0.00046308761881138,0.00046308464169071,-0.00046308610184536,0.00046308616593515,-8.8221917824996e-10,1.3472772527665e-09,-0.00034538283130041,0.00034538329252301,-1.7283809162652e-09,2.2828377462456e-09,-0.00035840699570445,0.00035840535572701,-0.00035840567263679,0.0003584066842444,-0.00035840625270976,0.000358406097566,-0.0003584049232583,0.00035840742907259,-0.00037293371963671,0.00037293771634933,-0.00037293591179942,0.00037293552052833,0.77792178516912,125803,2834,0.0019191008852267,0.0019191008872407,0.001438148095399,34.991918109422,3.9935344875376e-05,3.9935344875376e-05,3.9935344875376e-05,2809231.6616996,0.0052903036930667
5019200,0.29573193196884,0.0057224993058422,0.002042749932607,0.0020427499352821,0.001636999437953,-0.00050940714637464,0.00050940729331771,1.2430807631183e-09,-1.0947666711444e-09,8.2754142716274e-10,-6.8896782288829e-10,-0.0005216953543024,0.00052169677698263,-0.00052169613432524,0.00052169600161145,-0.00052169585274655,0.00052169627575863,-0.00052169662180417,0.00052169549993784,-0.00047804290629092,0.00047804482035995,-0.00047804518292795,0.00047804253425367,-8.2189707738787e-10,6.9886283995692e-10,1.83411709859e-09,-1.9731762305706e-09,-0.00050940728758065,0.0005094071530178,-0.00052169575413275,0.00052169637794061,-0.00052169700939164,0.0005216951084914,-0.00052169525883044,0.00052169688337578,-0.00052169650762189,0.00052169561797307,-0.00047804183657605,0.00047804594088724,-0.00047804552430057,0.00047804216109189,-0.00051202180988134,0.00051201891608799,-0.00051202030363854,0.00051202042938924,-9.9754020514323e-10,1.4265101307712e-09,-0.00037463876084786,0.00037463918596558,-1.63777952983e-09,2.1510582663942e-09,-0.00038997328509136,0.00038997161909688,-0.00038997203528569,0.00038997287402809,-0.00038997247691064,0.00038997242605286,-0.00038997122091771,0.00038997368415557,-0.000406340772319,0.0004063448491835,-0.00040634315481172,0.00040634246246139,0.77677325226158,125803,2834,0.0021202448669462,0.002120244868829,0.0015598970901448,35.692425807869,4.5539406462951e-05,4.5539406462951e-05,4.5539406462951e-05,2961404.3131599,0.0058172539100922
5219200,0.32313068667081,0.0062402586633534,0.0022380969661335,0.0022380969686902,0.0017640647285297,-0.0005579131024893,0.00055791324239687,1.3235684264666e-09,-1.1827226986628e-09,8.3978880317558e-10,-7.0793482004778e-10,-0.00057208940728092,0.00057209089007558,-0.00057209024347695,0.00057209005694617,-0.00057208991639855,0.00057209037726607,-0.00057209074021627,0.00057208954595299,-0.00052167625207542,0.00052167830943696,-0.00052167869166803,0.00052167586251736,-8.2784855753012e-10,7.085669628803e-10,1.8605659249019e-09,-1.9962070276674e-09,-0.00055791323839302,0.00055791310732659,-0.00057208982836343,0.00057209046786771,-0.00057209110058195,0.00057208918080284,-0.00057208932902615,0.00057209097750259,-0.00057209059298128,0.00057208969636735,-0.00052167522416812,0.00052167938242279,-0.00052167895804328,0.00052167555760095,-0.00056124532501767,0.00056124240039449,-0.00056124379947455,0.00056124393029736,-1.103345646915e-09,1.5446346188844e-09,-0.00040296534934615,0.00040296578753915,-1.670615248396e-09,2.1953818481646e-09,-0.00042069599838242,0.00042069424694191,-0.0004206947235813,0.00042069552664574,-0.00042069511651292,0.00042069512763146,-0.00042069383359105,0.00042069641260931,-0.00043902750400303,0.00043903184052042,-0.0004390301076627,0.00043902923048435,0.77855551811496,125803,2834,0.0023218921549861,0.0023218921567188,0.0016777736394941,36.022412317054,4.8179298536431e-05,4.8179298536431e-05,4.8179298536431e-05,3093243.2074407,0.0063415967827845
5419200,0.35062159764148,0.0067532504796261,0.0024328700678884,0.0024328700700887,0.001887510341649,-0.00060620702103034,0.00060620715563742,1.4207452731777e-09,-1.2852959759726e-09,8.4597975413451e-10,-7.1945137360733e-10,-0.00062246111463572,0.00062246266330749,-0.00062246201542726,0.00062246176493517,-0.00062246162966727,0.0006224621442847,-0.00062246251849854,0.00062246124742062,-0.00056477888786592,0.00056478113051499,-0.00056478152412169,0.00056477848747293,-8.3514437420675e-10,7.2100735130745e-10,1.9229664422605e-09,-2.0538005126175e-09,-0.00060620715187213,0.00060620702573547,-0.00062246154986057,0.00062246222701105,-0.00062246285972151,0.00062246090020504,-0.00062246104435509,0.00062246274288641,-0.00062246234649524,0.00062246142182653,-0.00056477788761497,0.00056478217599406,-0.00056478173914295,0.00056477823140924,-0.00061016510629122,0.00061016212875484,-0.000610163562754,0.00061016367743415,-1.1875813093006e-09,1.6536235191866e-09,-0.00043038315709446,0.00043038362055746,-1.7165187243456e-09,2.2667318430705e-09,-0.0004506830476003,0.00045068121749582,-0.00045068173343026,0.000450682536464,-0.00045068210074133,0.00045068216315495,-0.00045068077847904,0.00045068348749014,-0.00047073409782559,0.0004707386880463,-0.00047073689165226,0.00047073588839196,0.76958002830449,125803,2834,0.0025226147494516,0.0025226147514053,0.0017918646412306,36.275403745647,5.020322996518e-05,5.020322996518e-05,5.020322996518e-05,3222592.3654903,0.0068605400613846
5619200,0.3781212463737,0.0072431042742047,0.0026202182231434,0.0026202182251789,0.0020026678258824,-0.0006532235262294,0.00065322365757691,1.5185879673271e-09,-1.3861767609279e-09,8.4732676695478e-10,-7.2427032633281e-10,-0.00067204074103284,0.00067204235405979,-0.00067204170732805,0.00067204139033933,-0.00067204125818178,0.00067204183315738,-0.0006720422127865,0.00067204087029492,-0.00060607299586285,0.00060607542853248,-0.00060607582700835,0.00060607259087301,-8.3792160936413e-10,7.2773705545137e-10,1.9794171933682e-09,-2.1065582976231e-09,-0.00065322365354575,0.00065322353124907,-0.00067204119099296,0.00067204190424533,-0.00067204253532591,0.0006720405412994,-0.00067204068221854,0.00067204242351833,-0.00067204201913113,0.00067204106569883,-0.00060607203469146,0.00060607643731291,-0.00060607599282014,0.00060607238434889,-0.00065715032607147,0.00065714730786076,-0.00065714877491899,0.00065714886582688,-1.273574776574e-09,1.7614528427659e-09,-0.00045603298163236,0.00045603346726127,-1.7584169016552e-09,2.3313679156432e-09,-0.00047949000254952,0.00047948809430109,-0.000479488652778,0.00047948944872854,-0.00047948899076618,0.00047948910467925,-0.00047948763297417,0.00047949046471103,-0.00050006967368495,0.00050007451125895,-0.0005000726583058,0.00050007152224636,0.73637048205212,125803,2834,0.0027179865001759,0.00271798650223,0.0018985975560911,36.526324618264,5.2210596946109e-05,5.2210596946109e-05,5.2210596946109e-05,3364078.1231611,0.0073615598537968
5819200,0.40554543785712,0.0077142259019658,0.0028013833087381,0.0028013833108776,0.0021114592823502,-0.00069947164643145,0.00069947177582484,1.6163116480828e-09,-1.4856748567706e-09,8.4573853409185e-10,-7.2477761618839e-10,-0.00072122250203547,0.00072122417824916,-0.00072122353400911,0.00072122314928727,-0.00072122301896246,0.00072122365782698,-0.00072122403918294,0.00072122262924994,-0.00064603604241041,0.00064603866723376,-0.0006460390670474,0.00064603563661769,-8.3701209873729e-10,7.2902180434302e-10,2.0242712601223e-09,-2.1494370978596e-09,-0.00069947177174455,0.00069947165154898,-0.00072122296857755,0.00072122371264591,-0.00072122434124447,0.00072122232049448,-0.00072122245966732,0.00072122423224269,-0.00072122382496168,0.00072122284485494,-0.00064603513398091,0.0006460396248556,-0.000646039177805,0.00064603548522968,-0.00070297149815126,0.00070296845316195,-0.00070296994744046,0.00070297001148286,-1.3633433795124e-09,1.8668320849142e-09,-0.0004801559108565,0.00048015641242099,-1.7934259124417e-09,2.3827860491615e-09,-0.00050736631215237,0.00050736432574912,-0.00050736493350635,0.00050736570896081,-0.00050736523508147,0.00050736540118059,-0.00050736384857774,0.00050736679012533,-0.00052767397435534,0.00052767904738152,-0.00052767715068595,0.00052767586784217,0.71317583467484,125803,2834,0.0029101246315535,0.0029101246337084,0.0019989790139317,36.777163040441,5.4217304323525e-05,5.4217304323525e-05,5.4217304323525e-05,3475378.3343577,0.0078499124386325
6019200,0.43241282921487,0.0081674527259933,0.0029764744891751,0.0029764744913802,0.002214503745438,-0.00074422333408112,0.00074422345988442,1.7176366447619e-09,-1.5911233429211e-09,8.5290236377118e-10,-7.3477582404412e-10,-0.00076905099427221,0.00076905274032867,-0.00076905209463935,0.00076905164368246,-0.00076905151614591,0.00076905221502049,-0.00076905260573843,0.00076905111690589,-0.00068424467537838,0.00068424749421871,-0.00068424790494249,0.00068424425949426,-8.4317766200121e-10,7.3888988145194e-10,2.1171964096503e-09,-2.2390650134795e-09,-0.00074422345601145,0.00074422333923726,-0.00076905146627591,0.00076905226838831,-0.00076905289808951,0.00076905081581831,-0.00076905095167242,0.00076905279408788,-0.00076905237745927,0.00076905134479575,-0.00068424376629686,0.00068424844690394,-0.00068424798946794,0.00068424412417509,-0.00074727839116436,0.00074727527554537,-0.00074727682445645,0.00074727684529779,-1.4450466712634e-09,1.9706862747694e-09,-0.00050249509419503,0.00050249561831589,-1.8670429190892e-09,2.4805985994546e-09,-0.0005337392343259,0.00053373715083472,-0.00053373779799384,0.00053373859181192,-0.00053373809470855,0.00053373828894083,-0.000533736651743,0.00053373973437649,-0.00055346890404073,0.0005534742358397,-0.00055347225889217,0.00055347087543814,0.70261522818011,125803,2834,0.0030960064108333,0.0030960064135013,0.0020919437821204,36.775476055741,5.420380844593e-05,5.420380844593e-05,5.420380844593e-05,3540722.3286936,0.0083184092048282
6219200,0.45865427804526,0.0086127323260221,0.0031488008599364,0.003148800861481,0.0023151306046047,-0.00078822287693753,0.00078822300036233,1.813273935873e-09,-1.688993210358e-09,8.5627051534705e-10,-7.4075244410954e-10,-0.00081599311353571,0.00081599492539598,-0.00081599427951615,0.00081599376406625,-0.00081599363871978,0.00081599439703216,-0.00081599479313253,0.00081599323394124,-0.00072186566897604,0.00072186867210014,-0.00072186908775593,0.00072186524821488,-8.4706038921009e-10,7.4527778011358e-10,2.1903622590008e-09,-2.3098844920923e-09,-0.0007882229964878,0.00078822288209337,-0.00081599359477112,0.00081599444434551,-0.00081599507463728,0.00081599294318275,-0.00081599307734558,0.00081599497349082,-0.00081599455071044,0.00081599347563176,-0.00072186478067035,0.00072186960761481,-0.00072186914342584,0.00072186514325734,-0.00079115315337698,0.00079114998165126,-0.00079115157613944,0.00079115156244789,-1.5347431070519e-09,2.0795201001766e-09,-0.00052403210217263,0.00052403264567305,-1.9294693018323e-09,2.5638192341563e-09,-0.00055920403324574,0.00055920185504719,-0.00055920254862674,0.00055920334425927,-0.00055920282758391,0.00055920305896694,-0.00055920133647122,0.00055920455274579,-0.00057845241645633,0.00057845801024487,-0.00057845596632378,0.00057845445625854,0.70745491377932,125803,2834,0.0032787259163366,0.0032787259189993,0.0021815753952439,36.75878650392,5.4070292031358e-05,5.4070292031358e-05,5.4070292031358e-05,3573360.6421338,0.0087773827815214
6419200,0.48422864588289,0.0090433716382063,0.0033158684118409,0.003315868413138,0.0024116348132274,-0.00083092712420388,0.00083092724642659,1.910809687958e-09,-1.7875417705906e-09,8.57607429917e-10,-7.4350086861765e-10,-0.00086156990757754,0.00086157178510981,-0.00086157113938489,0.00086157055859113,-0.00086157043431029,0.00086157125545137,-0.00086157165408468,0.00086157002697125,-0.00075842558813667,0.000758428780976,-0.00075842919866988,0.0007584251650824,-8.488263559669e-10,7.4819482759841e-10,2.2459531615043e-09,-2.3643730630884e-09,-0.00083092724249228,0.00083092712923024,-0.00086157040378121,0.00086157128976121,-0.00086157192008166,0.00086156975149245,-0.00086156988491766,0.00086157182039338,-0.00086157139465132,0.00086157028562788,-0.00075842474053447,0.00075842967806596,-0.00075842921055153,0.00075842510523061,-0.00083376141678994,0.00083375820502098,-0.00083375983534588,0.00083375979095239,-1.6254312282669e-09,2.1850152436371e-09,-0.00054456301111848,0.00054456356953652,-1.9761605536975e-09,2.6266498162003e-09,-0.00058370609061602,0.00058370382525497,-0.00058370456947176,0.00058370535090349,-0.0005837048192846,0.00058370509457549,-0.00058370329199945,0.00058370662474461,-0.00060223181621649,0.00060223765288966,-0.00060223555819375,0.00060223390769724,0.70210892343924,125803,2834,0.0034560303741294,0.0034560303763981,0.0022670248018396,36.741628738948,5.3933029911582e-05,5.3933029911582e-05,5.3933029911582e-05,3613288.6929686,0.009221416271988
6619200,0.50951059880047,0.009493140895882,0.0034895004340922,0.0034895004353162,0.0025141400264736,-0.00087485087977555,0.00087485100390074,2.0088118669411e-09,-1.8831555748898e-09,8.4828049508375e-10,-7.3288472593352e-10,-0.00090791650411387,0.00090791844189219,-0.00090791780076782,0.00090791715069234,-0.0009079170246634,0.00090791791871916,-0.00090791830875461,0.00090791662581025,-0.0007968922189264,0.00079689561059107,-0.00079689601858477,0.00079689180552935,-8.402386898142e-10,7.3735654149266e-10,2.2227772948254e-09,-2.3432487927806e-09,-0.00087485099989817,0.00087485088456729,-0.00090791703582777,0.00090791791192939,-0.00090791853808728,0.00090791638812375,-0.00090791652348566,0.00090791843591177,-0.00090791801880984,0.00090791691602316,-0.00079689149956563,0.00079689638471032,-0.00079689592656322,0.00079689185685376,-0.00087844489718788,0.00087844171679069,-0.00087844333609385,0.00087844328562841,-1.7232618931345e-09,2.2860306464212e-09,-0.00056618053551225,0.00056618109703174,-1.9537465532681e-09,2.6072579696667e-09,-0.00060898388770744,0.00060898157331678,-0.00060898238054836,0.0006089830848749,-0.00060898255004432,0.00060898290866233,-0.0006089810366278,0.00060898442512158,-0.00062782776043168,0.00062783378148494,-0.00062783169873279,0.00062782984228312,0.74070665726692,125803,2834,0.0036383632106113,0.0036383632122481,0.0023569932955496,37.008587248269,5.6068697986153e-05,5.6068697986153e-05,5.6068697986153e-05,3625579.3308562,0.0096803596250852
6819200,0.53559321943335,0.0099907838785222,0.0036807028159615,0.0036807028176155,0.0026293782449452,-0.00092327612854309,0.00092327626124289,2.1405821918305e-09,-2.0048730807977e-09,8.1631173526624e-10,-6.9446805835987e-10,-0.00095825477537699,0.00095825678057611,-0.00095825615315802,0.00095825540746358,-0.00095825527035836,0.00095825628328951,-0.00095825664098844,0.00095825490340421,-0.0008404250759304,0.00084042876014875,-0.00084042913159485,0.00084042469759215,-8.1170859297731e-10,6.9986694189443e-10,2.0481454892263e-09,-2.1769784899338e-09,-0.00092327625696291,0.00092327613314827,-0.00095825539278768,0.00095825616695947,-0.00095825678122815,0.00095825476003819,-0.00095825489946884,0.00095825667155825,-0.0009582562861452,0.0009582552632497,-0.00084042468841516,0.00084042921719232,-0.00084042879283553,0.0008404250197028,-0.00092889171565944,0.00092888871315866,-0.00092889023224835,0.00092889021371442,-1.8046094995991e-09,2.343815767596e-09,-0.00059135723209499,0.0005913577692732,-1.7693646973767e-09,2.3954870763607e-09,-0.00063739294711863,0.00063739069118452,-0.00063739156882087,0.00063739207391756,-0.00063739155996486,0.00063739207562022,-0.00063739018074136,0.00063739345788872,-0.00065814568557231,0.00065815167963924,-0.00065814975560142,0.00065814761543427,0.79221450036915,125803,2834,0.0038393422953805,0.0038393422960445,0.0024617622354207,38.072505643223,6.4580045145788e-05,6.4580045145788e-05,6.4580045145788e-05,3656342.1887656,0.0101921294776
7019200,0.5623791651627,0.010463514073288,0.003864303850958,0.0038643038537973,0.0027349063685332,-0.00097138709186492,0.00097138723520843,2.235192907538e-09,-2.0890117422429e-09,7.9543270331222e-10,-6.6259128684983e-10,-0.0010088875994469,0.0010088896617727,-0.001008889041028,0.0010088882243427,-0.0010088880776375,0.0010088891816975,-0.0010088895110721,0.0010088877385878,-0.00088255957303357,0.00088256345698886,-0.00088256380059177,0.00088255922178442,-7.9059672731267e-10,6.6783668168612e-10,1.8669634162633e-09,-2.0061780562992e-09,-0.00097138723080577,0.00097138709648847,-0.001008888298668,0.0010088889658971,-0.0010088895755437,0.0010088876749253,-0.0010088878233018,0.0010088894528831,-0.0010088890965369,0.0010088881607362,-0.00088255947001807,0.00088256362215474,-0.00088256322893538,0.00088255977634231,-0.00097778672502861,0.00097778387712173,-0.00097778529053468,0.00097778532660157,-1.9229314801558e-09,2.4358607019217e-09,-0.0006154527816163,0.0006154532917589,-1.6168841827577e-09,2.2128594701134e-09,-0.00066541408293253,0.00066541184368098,-0.00066541281674899,0.0006654131142121,-0.0006654126270689,0.00066541329671425,-0.00066541135955855,0.00066541456750897,-0.00068633902649258,0.00068634508845953,-0.00068634330201389,0.00068634081769652,0.7333580652827,125803,2834,0.0040389712711036,0.0040389712715536,0.0025620407308277,39.156607739738,7.3252861917904e-05,7.3252861917904e-05,7.3252861917904e-05,3723919.3293554,0.01069689772872
7219200,0.5897159058837,0.010927960324736,0.0040456285347373,0.004045628539186,0.0028367032508125,-0.00101941902914,0.001019419182912,2.3368045454017e-09,-2.1807107255784e-09,7.8348446664617e-10,-6.3892622627178e-10,-0.0010599174658613,0.0010599195920461,-0.0010599189722633,0.0010599180884658,-0.0010599179325642,0.0010599191231217,-0.0010599194308245,0.0010599176153146,-0.00092396623062412,0.0009239703238343,-0.00092397064742727,0.00092396590113817,-7.7782176852007e-10,6.4458263937435e-10,1.7140914714064e-09,-1.8633692473522e-09,-0.0010194191790047,0.001019419034632,-0.001059918243378,0.0010599188158263,-0.0010599194250164,0.0010599176229333,-0.0010599177796379,0.0010599192901495,-0.0010599189574409,0.0010599180973348,-0.00092396638485796,0.00092397022387776,-0.0009239698561892,0.00092396667241376,-0.0010260561415423,0.0010260534154581,-0.0010260547387433,0.0010260548275759,-2.0354191789992e-09,2.5221989317892e-09,-0.00063919154490938,0.00063919202858468,-1.4859343295093e-09,2.0525304303901e-09,-0.00069318464232124,0.00069318240757214,-0.00069318347254552,0.00069318358163012,-0.00069318311991148,0.00069318392707297,-0.00069318194955066,0.00069318510080879,-0.00071392919432313,0.00071393532579598,-0.00071393366208139,0.00071393086106767,0.70718847836196,125803,2834,0.0042382287079628,0.004238228711244,0.0026608382167555,40.241506231683,8.1932049853465e-05,8.1932049853465e-05,8.1932049853465e-05,3796582.6902857,0.011199673919322
7419200,0.61661051571298,0.011369626670692,0.0042186994688339,0.0042186994732386,0.0029322277286191,-0.0010647823437976,0.0010647824969682,2.4407291751638e-09,-2.2864866529317e-09,7.8919144962529e-10,-6.4310988308158e-10,-0.0011085597398579,0.0011085619374386,-0.0011085613150675,0.0011085603643581,-0.0011085602087402,0.001108561465783,-0.001108561777851,0.0011085598873438,-0.0009626552762113,0.000962659570692,-0.00096265990190403,0.00096265494099229,-7.8234376334682e-10,6.5018750894189e-10,1.718110091465e-09,-1.8665486783e-09,-0.0010647824930368,0.0010647823496249,-0.0011085605514045,0.0011085611235803,-0.0011085617354806,0.0011085599290152,-0.0011085600834063,0.0011085616017977,-0.0011085612656417,0.0011085604061303,-0.00096265551586699,0.00096265936869398,-0.00096265899730648,0.00096265580780685,-0.0010711054369586,0.0010711027014389,-0.0010711040214811,0.0010711041158972,-2.1303516966855e-09,2.6098882318531e-09,-0.00066070042327382,0.00066070089985084,-1.4872289794936e-09,2.045865781769e-09,-0.00071901090637442,0.00071900860510475,-0.00071900973742133,0.00071900977840064,-0.00071900932227992,0.00071901018645807,-0.00071900815454015,0.00071901135773597,-0.0007388458130473,0.0007388521104249,-0.00073885045288805,0.00073884746765165,0.68501443607608,125803,2834,0.0044263753962834,0.0044263754002195,0.0027503651816719,40.770168383489,8.6161347067913e-05,8.6161347067913e-05,8.6161347067913e-05,3864895.8941793,0.011670846106789
7619200,0.64232476128509,0.011783204417156,0.0043810456105601,0.0043810456132847,0.0030211131933109,-0.001107065816223,0.0011070659641174,2.5346019141513e-09,-2.3855740789082e-09,8.0221230190601e-10,-6.6141264329776e-10,-0.0011541457797911,0.0011541480481192,-0.0011541474207444,0.0011541464097597,-0.0011541462592894,0.0011541475660745,-0.0011541478940193,0.0011541459221946,-0.0009981504281592,0.00099815489635621,-0.00099815524333567,0.00099815007785119,-7.9485907765962e-10,6.6818162059902e-10,1.8124689361836e-09,-1.9556986154446e-09,-0.0011070659598302,0.001107065821747,-0.0011541465982993,0.0011541472269174,-0.0011541478434053,0.0011541459706645,-0.0011541461201916,0.0011541477154876,-0.001154147363212,0.0011541464578504,-0.00099815065756099,0.00099815470505377,-0.00099815431761022,0.00099815096369324,-0.0011127645909916,0.0011127617696055,-0.0011127631452537,0.0011127632137299,-2.2247249533356e-09,2.7136791694641e-09,-0.00067978215114932,0.00067978263738613,-1.5749792534962e-09,2.1440143661577e-09,-0.00074278280905323,0.00074278039019792,-0.00074278157840134,0.00074278162523326,-0.00074278115934433,0.00074278203724362,-0.00074277993007027,0.00074278327000823,-0.00076107379451562,0.00076108035601012,-0.00076107862740885,0.00076107552047058,0.67223240822842,125803,2834,0.0046017138959702,0.0046017138985392,0.0028298008487965,40.851607389167,8.6812859113336e-05,8.6812859113336e-05,8.6812859113336e-05,3897214.0682381,0.012106102074586
7819200,0.66682507928321,0.012173586990176,0.0045343925856567,0.0045343925875463,0.003104801816973,-0.001147231491007,0.0011472316351928,2.6296858687253e-09,-2.4841812760261e-09,8.1176443009506e-10,-6.7491156379736e-10,-0.0011975449946885,0.0011975473322993,-0.0011975467011627,0.0011975456289716,-0.0011975454821905,0.0011975468423506,-0.0011975471820432,0.0011975451338155,-0.0010312946177662,0.0010312992642893,-0.0010312996226124,0.0010312942570057,-8.0444525057332e-10,6.8168450517656e-10,1.9019915080167e-09,-2.0414640552443e-09,-0.0011472316307447,0.0011472314965023,-0.0011975458206035,0.0011975465039151,-0.0011975471237383,0.0011975451885878,-0.001197545334923,0.0011975469999762,-0.0011975466357507,0.0011975456837545,-0.0010312948466814,0.0010312990768554,-0.0010312986769287,0.0010312951633183,-0.0011523256973366,0.0011523227982433,-0.0011523242284733,0.0011523242653349,-2.3187920057535e-09,2.817534350142e-09,-0.00069747089882997,0.00069747139516276,-1.6578058048894e-09,2.2380489339125e-09,-0.00076506276442962,0.0007650602308809,-0.00076506147494849,0.00076506152469675,-0.0007650610490001,0.00076506194378573,-0.00076505976080376,0.00076506323534271,-0.00078187283169177,0.00078187965479763,-0.0007818778579087,0.00078187462652233,0.66655083354766,125803,2834,0.0047682394622971,0.0047682394644706,0.0029034426958814,40.921533243385,8.7372265947082e-05,8.7372265947082e-05,8.7372265947082e-05,3908650.204747,0.012517833338022
8019200,0.69010473916897,0.012541308829307,0.0046789694184083,0.0046789694198058,0.0031833699910926,-0.0011851954139144,0.0011851955561565,2.7259990218364e-09,-2.5822125318855e-09,8.1877765843398e-10,-6.8415516405877e-10,-0.0012386939607533,0.0012386963671276,-0.0012386957326137,0.0012386945989046,-0.0012386944540375,0.0012386958716046,-0.0012386962188775,0.0012386940984323,-0.0010624141306468,0.001062418960339,-0.0010624193255284,0.0010624137629938,-8.1175479627172e-10,6.9078599675293e-10,1.9788788654814e-09,-2.1166009296291e-09,-0.0011851955516254,0.0011851954191651,-0.0012386947980546,0.0012386955283398,-0.0012386961513944,0.0012386941617967,-0.0012386943068625,0.0012386960296399,-0.0012386956577433,0.001238694662707,-0.0010624143748815,0.00106241876076,-0.0010624183528255,0.0010624146976085,-0.0011897138968476,0.0011897109325347,-0.0011897124120949,0.0011897124165276,-2.4137359788674e-09,2.9200112078385e-09,-0.00071391702939459,0.00071391753342314,-1.7300087737816e-09,2.3189633103822e-09,-0.0007856195476336,0.00078561690484834,-0.00078561820714878,0.0007856182495889,-0.00078561776643208,0.00078561868345932,-0.00078561642725555,0.00078562002599212,-0.00080137660441492,0.0008013836790973,-0.00080138182368125,0.00080137845858659,0.6609724901841,125803,2834,0.0049256083780327,0.0049256083795253,0.0029719166642697,40.991002424265,8.792801939412e-05,8.792801939412e-05,8.792801939412e-05,3915952.9705781,0.012905948784255
8219200,0.71230793673882,0.012889043665877,0.00481577819817,0.004815778199537,0.0032574872681699,-0.0012213406262652,0.0012213407671552,2.8225868220866e-09,-2.6798750988906e-09,8.2025595480245e-10,-6.8744627863513e-10,-0.0012780830191627,0.0012780854908478,-0.001278084856327,0.0012780836578683,-0.0012780835143834,0.0012780849936436,-0.0012780853440905,0.0012780831558879,-0.0010917726165177,0.0010917776338518,-0.0010917780011851,0.001091772246409,-8.1371744701996e-10,6.9382030020181e-10,2.0247046959848e-09,-2.1614162029006e-09,-0.0012213407627232,0.0012213406312885,-0.0012780838751582,0.0012780846347632,-0.0012780852578199,0.0012780832376259,-0.0012780833822472,0.0012780851375616,-0.0012780847622784,0.0012780837404728,-0.0010917729108112,0.0010917773877812,-0.0010917769765924,0.0010917732354625,-0.0012253089050783,0.0012253059063987,-0.0012253074158724,0.0012253073965682,-2.5105463713924e-09,3.0207496396426e-09,-0.00072955847616596,0.00072955898421198,-1.7736302153107e-09,2.367273470096e-09,-0.00080521525512963,0.000805212519785,-0.00080521388407202,0.00080521389507811,-0.00080521340814189,0.00080521436409868,-0.00080521203827967,0.00080521573735394,-0.00082008347405114,0.00082009077673504,-0.0008200888870454,0.00082008536351676,0.65549139454105,125803,2834,0.0050754127182301,0.0050754127194542,0.0030370419468358,41.181258008624,8.9450064068994e-05,8.9450064068994e-05,8.9450064068994e-05,3928278.1559091,0.01327549077902
8419200,0.73348673043591,0.013219832443457,0.0049458769885994,0.0049458769901292,0.0033280784647283,-0.0012557553854149,0.0012557555253849,2.9200217918681e-09,-2.7779501176484e-09,8.1892152315666e-10,-6.874474515993e-10,-0.0013157585461625,0.0013157610818559,-0.0013157604487555,0.0013157591838324,-0.0013157590411518,0.0013157605850621,-0.0013157609361862,0.0013157586822781,-0.0011198451810378,0.0011198503901794,-0.0011198507573567,0.0011198448110269,-8.127009239564e-10,6.9345690747749e-10,2.0517907958895e-09,-2.1878660282222e-09,-0.0012557555210015,0.0012557553902182,-0.0013157594257221,0.0013157602037827,-0.0013157608251202,0.0013157587886434,-0.0013157589330769,0.0013157607060415,-0.0013157603299227,0.0013157592911462,-0.0011198455460218,0.0011198500759259,-0.0011198496641107,0.0011198458707983,-0.0012592346268601,0.0012592316124146,-0.0012592331399116,0.0012592331020489,-2.6080864377486e-09,3.1195041468779e-09,-0.00074445972574244,0.00074446023501533,-1.7995755097329e-09,2.3949170583589e-09,-0.0008238475601194,0.00082384474239728,-0.00082384617109314,0.00082384613559326,-0.0008238456475886,0.00082384665215056,-0.00082384425991763,0.00082384804326642,-0.00083790954492791,0.00083791705862156,-0.0008379151502767,0.00083791145416355,0.65380934988096,125803,2834,0.0052180219837282,0.0052180219845955,0.00309908665519,41.43049295774,9.1443943661919e-05,9.1443943661919e-05,9.1443943661919e-05,3940022.4537641,0.013627458836585
8619200,0.75362648788994,0.013533775537002,0.0050692882796655,0.0050692882815129,0.0033951989758232,-0.0012883328833861,0.0012883330228483,3.0172091623312e-09,-2.8756688548787e-09,8.1690185050333e-10,-6.8578885515063e-10,-0.0013515181714512,0.0013515207705029,-0.0013515201393165,0.0013515188075945,-0.0013515186652736,0.0013515202748856,-0.0013515206254083,0.0013515183072225,-0.0011465537154628,0.0011465591159069,-0.0011465594825795,0.0011465533459054,-8.1073439179731e-10,6.9181851895618e-10,2.070676165138e-09,-2.2064531486613e-09,-0.0012883330185704,0.0012883328881158,-0.0013515190757968,0.0013515198679814,-0.0013515204877238,0.0013515184402095,-0.0013515185844029,0.0013515203689878,-0.001351519993721,0.0013515189415809,-0.001146554157828,0.0011465587234862,-0.0011465583120304,0.0011465544811804,-0.0012913834190092,0.0012913803958354,-0.0012913819351545,0.0012913818817655,-2.7061538203576e-09,3.2182300547809e-09,-0.00075856896087979,0.00075856947086919,-1.8180411554601e-09,2.4145599051317e-09,-0.00084146367935055,0.00084146078390226,-0.00084146227763076,0.00084146218980303,-0.00084146170124842,0.00084146275922133,-0.00084146030085432,0.0008414641630603,-0.00085481148615938,0.00085481920567977,-0.00085481728370548,0.00085481340861797,0.65260875347655,125803,2834,0.0053529967139445,0.0053529967148789,0.003157836377626,41.681263945439,9.3450111563509e-05,9.3450111563509e-05,9.3450111563509e-05,3949917.113753,0.013960725730609
8819200,0.77271910768699,0.013820463708793,0.0051823921945325,0.0051823921965155,0.0034556793177446,-0.0013186254796732,0.0013186256190794,3.1146770754592e-09,-2.9732553783832e-09,8.1393689037494e-10,-6.8274869514308e-10,-0.0013849346095094,0.0013849372714654,-0.0013849366426331,0.0013849352437159,-0.001384935101215,0.0013849367779151,-0.0013849371264799,0.001384934745316,-0.0011710809407029,0.0011710865340463,-0.0011710868989039,0.0011710805729401,-8.0777895578974e-10,6.8881922546903e-10,2.0785546759843e-09,-2.2143714021318e-09,-0.0013186256149555,0.0013186254844866,-0.0013849355414268,0.0013849363411395,-0.0013849369592394,0.0013849349080494,-0.0013849350520876,0.0013849368402254,-0.0013849364672885,0.001384935407531,-0.0011710814725851,0.0011710860517746,-0.0011710856420694,0.0011710817936527,-0.0013209661202691,0.0013209630976314,-0.001320964641821,0.0013209645773973,-2.8045198817963e-09,3.3164372956171e-09,-0.00077145471137311,0.00077145522123132,-1.8260230472254e-09,2.4227797794522e-09,-0.00085777875521869,0.00085777578857521,-0.0008577773480703,0.00085777719988977,-0.00085777671159572,0.00085777782940443,-0.0008577753057698,0.00085777923869996,-0.00087012301107886,0.00087013092810823,-0.00087012900074798,0.00087012493877634,0.62941992699665,125803,2834,0.0054784854960462,0.0054784854974734,0.0032114972851492,41.932096038802,9.5456768310414e-05,9.5456768310414e-05,9.5456768310414e-05,3969329.5946019,0.014269701964131
9019200,0.7903662189879,0.01408554674374,0.0052868443328797,0.0052868443349101,0.00351185807595,-0.0013456989482022,0.0013456990874406,3.2103989597508e-09,-3.0700055744959e-09,8.156683163046e-10,-6.8321963122689e-10,-0.0014148462691511,0.0014148489959923,-0.0014148483672429,0.0014148469039587,-0.0014148467621178,0.0014148485013904,-0.0014148488511868,0.00141484640517,-0.001192884958718,0.0011928907357617,-0.0011928911040673,0.0011928845877327,-8.0903437955505e-10,6.9050669929321e-10,2.1227863210592e-09,-2.2582543119471e-09,-0.0013456990834959,0.0013456989534349,-0.0014148472186466,0.001414848047417,-0.0014148486660117,0.0014148465845185,-0.0014148467287813,0.0014148485471299,-0.0014148481724384,0.0014148470853579,-0.0011928855351123,0.0011928902004856,-0.0011928897882816,0.0011928858558104,-0.0013474880797707,0.0013474850234661,-0.0013474865938094,0.0013474865049281,-2.9026680345805e-09,3.4171917338735e-09,-0.00078243068587953,0.00078243119853275,-1.869607793688e-09,2.4700958247874e-09,-0.00087188473986248,0.00087188167963483,-0.00087188330286617,0.00087188312078161,-0.00087188263048876,0.0008718837864176,-0.00087188119388292,0.00087188522647391,-0.00088335334058193,0.00088336148581089,-0.00088335952400998,0.00088335529914197,0.6297753009596,125803,2834,0.0055906240749514,0.005590624077627,0.0032572120110393,41.750258713576,9.4002069708604e-05,9.4002069708604e-05,9.4002069708604e-05,3977848.1453923,0.014543619582379
9219200,0.80656176077393,0.014326097851077,0.0053816548413065,0.0053816548428823,0.003562788166888,-0.0013700840564211,0.0013700841951911,3.3087266694362e-09,-3.1686327626794e-09,8.1606367516783e-10,-6.8463835047423e-10,-0.0014418573411271,0.0014418601334356,-0.0014418595045428,0.0014418579762532,-0.0014418578344141,0.0014418596384318,-0.0014418599893883,0.0014418574766184,-0.0012124388789808,0.001212444850169,-0.0012124452182517,0.0012124385076839,-8.0955023367841e-10,6.9137773150494e-10,2.1642042202644e-09,-2.2993020081446e-09,-0.0013700841914536,0.0013700840617681,-0.0014418583105618,0.0014418591662574,-0.0014418597845113,0.0014418576759023,-0.0014418578197241,0.0014418596664657,-0.0014418592908555,0.0014418581771013,-0.0012124395129429,0.0012124442614413,-0.0012124438478444,0.0012124398343502,-0.0013713343386976,0.001371331255312,-0.0013713328533041,0.0013713327374525,-2.9984374099854e-09,3.5157924241901e-09,-0.0007920866327845,0.00079208714828981,-1.9081850101787e-09,2.5122209808808e-09,-0.00088442173576021,0.00088441858600423,-0.0008844202714781,0.00088442005435851,-0.00088441956114544,0.00088442075790802,-0.00088441809791853,0.00088442222468244,-0.00089504761154306,0.00089505597616954,-0.00089505398477226,0.00089504960082465,0.62300580227434,125803,2834,0.0056916146419998,0.0056916146453386,0.0032974343230332,41.452590807315,9.1620726458522e-05,9.1620726458522e-05,9.1620726458522e-05,3982058.011932,0.014789410411832
9419200,0.82141514640214,0.014544219469696,0.005467641746864,0.00546764174843,0.0036089359744022,-0.0013921938010411,0.0013921939394617,3.4059793921969e-09,-3.2660425599946e-09,8.1544161681835e-10,-6.8453654187853e-10,-0.0014664037247548,0.0014664065814476,-0.001466405953323,0.001466404359539,-0.0014664042179329,0.0014664060866832,-0.0014664064378273,0.0014664038601313,-0.0012302204631121,0.0012302266250118,-0.0012302269928232,0.0012302200918459,-8.0914022367453e-10,6.9117305914064e-10,2.1921895164892e-09,-2.3270614792331e-09,-0.0013921939356774,0.0013921938062233,-0.0014664047170841,0.0014664055917384,-0.001466406209367,0.0014664040826326,-0.0014664042264904,0.0014664060917314,-0.001466405715875,0.0014664045837559,-0.0012302211659134,0.0012302259691506,-0.0012302255550988,0.0012302214871111,-0.0013929163270133,0.0013929132257533,-0.0013929148423675,0.0013929147078653,-3.0955618400492e-09,3.6151228671544e-09,-0.00080070657389115,0.00080070709169567,-1.9348049188632e-09,2.5417635518526e-09,-0.00089570410235487,0.00089570087054991,-0.00089570261941237,0.00089570235758275,-0.00089570186230372,0.00089570310787706,-0.00089570038031655,0.00089570459339137,-0.00090542715784983,0.00090543573575077,-0.00090543372362076,0.0009054291684613,0.61620824006648,125803,2834,0.005783171209116,0.0057831712120144,0.0033333447229315,41.151833679082,8.921466943266e-05,8.921466943266e-05,8.921466943266e-05,3985163.6706975,0.015011731727515
9619200,0.83503286895053,0.014741903475127,0.00554558743295,0.0055455874344779,0.0036507286076995,-0.0014122356532252,0.0014122357914264,3.5033881880133e-09,-3.3635498122738e-09,8.1420763669207e-10,-6.836206720342e-10,-0.00148870326092,0.0014887061817115,-0.0014887055546504,0.0014887038949906,-0.0014887037534673,0.0014887056876854,-0.0014887060384081,0.0014887033962409,-0.0012464121835446,0.0012464185371604,-0.0012464189041218,0.0012464118126189,-8.0804982986766e-10,6.9014607404576e-10,2.2098131240843e-09,-2.3446115020221e-09,-0.0014122357876273,0.0014122356582499,-0.0014887042792688,0.0014887051663662,-0.0014887057830551,0.0014887036454193,-0.0014887037893523,0.0014887056656541,-0.0014887052902605,0.0014887041458935,-0.0012464129654282,0.0012464178029808,-0.0012464173891626,0.0012464132858772,-0.0014124435145709,0.0014124404038404,-0.0014124420322736,0.0014124418840329,-3.1928543129487e-09,3.7139498519108e-09,-0.00080839974547428,0.00080840026486275,-1.9514184381386e-09,2.5604744547694e-09,-0.00090585422338336,0.00090585091583527,-0.00090585272867149,0.00090585241464386,-0.00090585191795669,0.00090585321851215,-0.00090585042418301,0.00090585471581043,-0.000914626802778,0.00091463558600065,-0.0009146335606299,0.00091462882704671,0.60938040504751,125803,2834,0.0058661557119547,0.0058661557144954,0.0033653977104197,40.850953177209,8.6807625417674e-05,8.6807625417674e-05,8.6807625417674e-05,3987353.323738,0.015212779533665
9819200,0.8472812606135,0.014920560714816,0.0056159055761177,0.005615905577633,0.0036887495610654,-0.0014294349415663,0.0014294350806617,3.6013400944145e-09,-3.4633150838074e-09,8.1747463141703e-10,-6.8105872141768e-10,-0.0015079476063458,0.0015079505917811,-0.0015079499650961,0.0015079482415379,-0.0015079480982351,0.0015079500987464,-0.0015079504508914,0.0015079477402969,-0.0012603055543319,0.0012603120996387,-0.0012603124718863,0.0012603051779581,-8.0920517510207e-10,6.9145718036362e-10,2.2483789737e-09,-2.3833438776515e-09,-0.0014294350780201,0.0014294349488179,-0.0015079486427599,0.0015079495538468,-0.0015079501708788,0.0015079480091829,-0.0015079481511397,0.0015079500552171,-0.0015079496788251,0.0015079485080063,-0.0012603063821449,0.001260311300491,-0.001260310880799,0.0012603066987056,-0.0014292621452487,0.0014292590090155,-0.0014292606519545,0.0014292604731789,-3.2880834024984e-09,3.811689105426e-09,-0.00081456261913866,0.00081456314178622,-1.9865716305507e-09,2.6004222991016e-09,-0.00091419898788015,0.00091419559282543,-0.0009141974672967,0.00091419711857312,-0.00091419661761997,0.00091419796211829,-0.00091419509962991,0.00091419948239102,-0.00092224738278916,0.00092225637564646,-0.00092225431893676,0.00092224942686076,0.61213711031364,125803,2834,0.0059373630348603,0.0059373630444297,0.0033910844783438,40.185146921227,8.1481175369817e-05,8.1481175369817e-05,8.1481175369817e-05,3982828.8211565,0.015383482988408
10019200,0.85828939385062,0.015082129966631,0.005679370521166,0.005679370521152,0.0037233889243129,-0.0014446604828855,0.0014446606214369,3.6978958997598e-09,-3.5593865012445e-09,8.1575651449256e-10,-6.8284338819145e-10,-0.0015250145138541,0.0015250175641941,-0.0015250169375048,0.0015250151483355,-0.0015250150060938,0.0015250170704559,-0.0015250174219653,0.0015250146488224,-0.0012726349485235,0.001272641682477,-0.0012726420526752,0.0012726345746341,-8.0857253119361e-10,6.9110498225102e-10,2.2732875469105e-09,-2.4077963342082e-09,-0.0014446606184988,0.0014446604895414,-0.0015250155761617,0.0015250165045842,-0.0015250171209413,0.0015250149417396,-0.0015250150847955,0.001525017004634,-0.0015250166278661,0.0015250154420832,-0.0012726358538487,0.001272640816905,-0.0012726404000363,0.0012726361722031,-0.0014442105747643,0.001444207421847,-0.0014442090868114,0.0014442088960506,-3.3858165980424e-09,3.9119690669715e-09,-0.0008199493142271,0.00081994983902614,-2.0110448061013e-09,2.6271124404355e-09,-0.00092151011051719,0.00092150663509451,-0.00092150857323963,0.00092150817650174,-0.00092150767449195,0.00092150906881798,-0.0009215061390532,0.00092151060751383,-0.0009289861655945,0.00092899537675345,-0.00092899330185407,0.00092898823407898,0.61574676852284,125803,2834,0.0060003936864212,0.0060003936941323,0.0034135393159451,39.481052604032,7.5848420832258e-05,7.5848420832258e-05,7.5848420832258e-05,3975181.0922904,0.015534322295224
10219200,0.86819650165902,0.015228624419909,0.0057367977065118,0.0057367977064709,0.003755029006926,-0.0014582221697513,0.0014582223079262,3.7954191946077e-09,-3.6565404973742e-09,8.1415044108641e-10,-6.8237646392625e-10,-0.0015402322365941,0.0015402353511104,-0.0015402347254192,0.0015402328703177,-0.0015402327282861,0.001540234858049,-0.0015402352090759,0.0015402323714996,-0.001283640164213,0.0012836470904721,-0.0012836474588587,0.0012836397918472,-8.0750084499171e-10,6.9002294700757e-10,2.2842029988903e-09,-2.4186764128624e-09,-0.0014582223043746,0.0014582221754122,-0.001540233326827,0.0015402342632654,-0.0015402348788631,0.0015402326930078,-0.0015402328364331,0.0015402347627794,-0.0015402343865536,0.0015402331928831,-0.0012836411572498,0.0012836461409744,-0.0012836457245142,0.0012836414749536,-0.0014575673649958,0.0014575642069405,-0.0014575658813235,0.0014575656815799,-3.4832328982717e-09,4.0104478718939e-09,-0.00082472821765804,0.00082472874348951,-2.021364247491e-09,2.638722949123e-09,-0.00092799238674163,0.00092798883966446,-0.00092799084228713,0.00092799038834715,-0.00092798988547551,0.00092799133858961,-0.00092798834260769,0.00092799288467871,-0.00093501740230968,0.00093502681373829,-0.00093502473179232,0.00093501948053815,0.62007022708761,125803,2834,0.0060565322017027,0.006056532206078,0.003433462936066,38.77585886511,7.0206870920879e-05,7.0206870920879e-05,7.0206870920879e-05,3964981.4795195,0.015668609774495
10419200,0.8771403903295,0.015362009436267,0.0057889795375658,0.0057889795375002,0.0037840503612011,-0.0014704102665774,0.0014704104045813,3.8929514080655e-09,-3.7536701347775e-09,8.1166049979947e-10,-6.8094831579049e-10,-0.0015539044977995,0.0015539076760222,-0.0015539070516097,0.0015539051303404,-0.0015539049882443,0.0015539071842601,-0.0015539075339611,0.0015539046328056,-0.0012935414923863,0.0012935486120068,-0.0012935489776782,0.0012935411220371,-8.0578105488306e-10,6.8815043828628e-10,2.2780663725502e-09,-2.4126143055372e-09,-0.0014704104006569,0.0014704102715658,-0.0015539056216761,0.0015539065551134,-0.0015539071696865,0.0015539049888854,-0.0015539051325375,0.0015539070535189,-0.0015539066785882,0.001553905487651,-0.0012935425904007,0.0012935475609925,-0.0012935471457938,0.0012935429068649,-0.0014696079131761,0.001469604762659,-0.0014696064349989,0.0014696062356334,-3.5812086335062e-09,4.1083705850693e-09,-0.00082903919080717,0.00082903971641755,-2.0155129603118e-09,2.6326626119956e-09,-0.00093382318910181,0.0009338195803352,-0.00093382164860237,0.00093382112506468,-0.00093382062246049,0.00093382214452596,-0.00093381908355671,0.00093382368668883,-0.00094051776436286,0.00094052736350087,-0.00094052528651924,0.00094051983972202,0.62506142514332,125803,2834,0.0061069817134217,0.0061069817156291,0.003451436779045,38.10076783941,6.4806142715282e-05,6.4806142715282e-05,6.4806142715282e-05,3952752.3643421,0.015789373867698
10619200,0.88548932445192,0.015484258110684,0.0058368612519255,0.0058368612519927,0.0038105356067656,-0.0014827506580482,0.001482750795217,3.9915490547986e-09,-3.8503898052345e-09,8.0491267458795e-10,-6.7976818943078e-10,-0.0015676562518412,0.00156765949301,-0.0015676588703173,0.001567656881424,-0.0015676567398107,0.0015676590032835,-0.0015676593500988,0.0015676563870952,-0.0013036502742607,0.001303657594192,-0.0013036579504759,0.0013036499107543,-8.0127668984126e-10,6.8296324413695e-10,2.2082835012712e-09,-2.3431040657865e-09,-0.0014827507903587,0.0014827506607082,-0.0015676574305935,0.0015676583207297,-0.0015676589323593,0.0015676568000286,-0.0015676569446393,0.0015676588152465,-0.0015676584448516,0.0015676572965758,-0.0013036515518471,0.0013036563824924,-0.0013036559724315,0.0013036518669331,-0.0014817455402824,0.0014817424447473,-0.0014817440802778,0.0014817439165286,-3.6814546733114e-09,4.2035558265491e-09,-0.00083400493367107,0.00083400545370588,-1.9491626024223e-09,2.559207361935e-09,-0.00094025522451945,0.00094025159186543,-0.00094025373047059,0.00094025308960813,-0.0009402525922442,0.00094025422055547,-0.00094025110001368,0.00094025571674666,-0.00094661254839291,0.00094662228807512,-0.00094662026720197,0.00094661457735781,0.61395112248666,125803,2834,0.0061580596383566,0.0061580596337877,0.003472128196651,38.02963690278,6.4237095222241e-05,6.4237095222241e-05,6.4237095222241e-05,3948020.9137583,0.015914190048207
10819200,0.89328547248166,0.015596499304396,0.0058808779503502,0.0058808779513266,0.0038347434027192,-0.0014941612925277,0.0014941614309842,4.0886357126914e-09,-3.9478769471868e-09,8.0345947562924e-10,-6.7303663554572e-10,-0.0015804215552508,0.0015804248588782,-0.001580424238953,0.0015804221828117,-0.0015804220404799,0.0015804243722317,-0.001580424716087,0.00158042169079,-0.0013129062698743,0.0013129137788434,-0.0013129141366463,0.0013129059069597,-7.9796692418763e-10,6.7905122466507e-10,2.1318266224706e-09,-2.26752954229e-09,-0.0014941614267314,0.0014941612964686,-0.0015804227871204,0.0015804236286078,-0.0015804242393161,0.0015804221594192,-0.0015804223038758,0.0015804241214688,-0.0015804237540838,0.0015804226530109,-0.0013129077109412,0.0013129123892379,-0.0013129119820342,0.0013129080225201,-0.0014929210280518,0.0014929179898694,-0.0014929195690808,0.0014929194489461,-3.7823716973995e-09,4.298712420404e-09,-0.00083857956872962,0.00083858008325257,-1.8764940925057e-09,2.4808752445378e-09,-0.00094618450657378,0.00094618085344697,-0.00094618306310759,0.00094618230123302,-0.00094618180943442,0.00094618354792099,-0.00094618036725265,0.00094618499321465,-0.00095222025532317,0.00095223012957884,-0.00095222816228109,0.00095222222469331,0.60386753634248,125803,2834,0.0062052865559194,0.0062052865552704,0.0034911904545761,37.973754484876,6.3790035879004e-05,6.3790035879004e-05,6.3790035879004e-05,3947307.4301936,0.016029540687972
11019200,0.90056219437854,0.015699365225484,0.0059212725857896,0.005921272586656,0.0038568200530389,-0.0015046728923259,0.0015046730314934,4.1861393575514e-09,-4.0451439384529e-09,8.0067138245063e-10,-6.6921476683059e-10,-0.0015922249673338,0.0015922283344487,-0.0015922277159024,0.0015922255933118,-0.0015922254504017,0.0015922278499115,-0.001592228190912,0.0015922251035389,-0.0013213719138147,0.0013213796158556,-0.001321379971514,0.0013213715530981,-7.9499008501037e-10,6.7547105514933e-10,2.057072570758e-09,-2.1933598862342e-09,-0.0015046730277109,0.0015046728968875,-0.0015922262550449,0.0015922270488295,-0.0015922276583155,0.0015922256293814,-0.0015922257737889,0.0015922275392794,-0.0015922271750433,0.0015922261206362,-0.0013213735245713,0.0013213780540223,-0.0013213776505598,0.0013213738341463,-0.0015031817796288,0.0015031787969854,-0.0015031803259231,0.0015031802483258,-3.8834802708932e-09,4.3935007765671e-09,-0.00084274571844004,0.00084274622645721,-1.8059992419059e-09,2.402974680591e-09,-0.00095160108550646,0.00095159741018456,-0.00095159969141161,0.00095159880848166,-0.00095159832307592,0.00095160016998277,-0.00095159693038189,0.00095160156592862,-0.00095731238393997,0.00095732239411639,-0.00095732048160832,0.00095731429657448,0.59320719556773,125803,2834,0.0062487902779999,0.0062487902796133,0.0035085511879925,37.918473300062,6.3347786400495e-05,6.3347786400495e-05,6.3347786400495e-05,3949211.0686646,0.01613560859528
11219200,0.90734207121175,0.015795122155832,0.0059588471048086,0.0059588471056672,0.0038774279453559,-0.0015143569389117,0.0015143570786828,4.2834912955753e-09,-4.1421449996077e-09,7.9863504983567e-10,-6.6612142444773e-10,-0.0016031147576825,0.0016031181884133,-0.0016031175709203,0.0016031153823515,-0.0016031152390327,0.0016031177055165,-0.0016031180443518,0.0016031148943025,-0.0013291729089911,0.0013291808033142,-0.0013291811574066,0.0013291725502166,-7.9307233789035e-10,6.7303924370041e-10,1.9901781539829e-09,-2.1269902545254e-09,-0.001514357075061,0.0015143569437539,-0.0016031160983854,0.0016031168490242,-0.0016031174579409,0.0016031154741322,-0.0016031156185149,0.0016031173379891,-0.0016031169760954,0.0016031159638872,-0.0013291746810988,0.0013291790778634,-0.0013291786771891,0.0013291749893145,-0.0015126585098785,0.0015126555754606,-0.0015126570596534,0.0015126570215173,-3.9846010534871e-09,4.4886395358198e-09,-0.00084655465870294,0.00084655516060807,-1.7433609297115e-09,2.3334043270003e-09,-0.00095653731522529,0.00095653361260701,-0.00095653596516569,0.00095653496686176,-0.00095653448740022,0.0009565364378672,-0.00095653313875536,0.00095653778974252,-0.00096198932362981,0.00096199947537799,-0.00096199761263128,0.00096199118551712,0.59263236079374,125803,2834,0.0062888674681764,0.0062888674707048,0.0035244231917577,37.837711562937,6.2701692503495e-05,6.2701692503495e-05,6.2701692503495e-05,3951602.6290946,0.016233208870267
11419200,0.91361537218246,0.015884296447067,0.0059937852314247,0.0059937852322242,0.0038967259834184,-0.0015230658236214,0.0015230659640711,4.3783812192827e-09,-4.2366759926331e-09,7.9608089668682e-10,-6.6232767422655e-10,-0.0016129262867047,0.0016129297792072,-0.0016129291629617,0.0016129269097391,-0.0016129267657992,0.0016129292983718,-0.0016129296346832,0.0016129264236717,-0.0013361779831595,0.0013361860660704,-0.0013361864183754,0.0013361776260333,-7.9428767123334e-10,6.7416826821581e-10,1.9418010243307e-09,-2.0787343698456e-09,-0.0015230659603352,0.0015230658289419,-0.0016129276743735,0.0016129283922171,-0.001612929002126,0.0016129270495604,-0.0016129271934889,0.0016129288818822,-0.0016129285198161,0.0016129275399399,-0.0013361798947077,0.0013361841980554,-0.0013361837974007,0.0013361802036064,-0.0015212097507508,0.001521206846799,-0.0015212082982712,0.0015212082939119,-4.0873804191386e-09,4.5868827794385e-09,-0.00084985835515378,0.00084985885238195,-1.7011992965164e-09,2.2859636289437e-09,-0.00096086323292054,0.00096085948866635,-0.00096086191259914,0.00096086081310508,-0.00096086033808455,0.00096086238093539,-0.0009608590195618,0.00096086370275882,-0.00096611566516525,0.00096612597740582,-0.0009661241489886,0.00096611749175274,0.59626237915983,125803,2834,0.0063249071974082,0.0063249072006936,0.0035381926262192,37.630841894887,6.1046735159096e-05,6.1046735159096e-05,6.1046735159096e-05,3950725.1356372,0.016320472998815
11619200,0.91942017487322,0.015967176229891,0.0060262171247866,0.0060262171254985,0.0039147419796062,-0.0015310956494077,0.00153109578979,4.478199619605e-09,-4.3362895423899e-09,7.972851893671e-10,-6.6421553143616e-10,-0.0016219634022367,0.0016219669621399,-0.0016219663448166,0.0016219640261224,-0.001621963882342,0.0016219664802093,-0.001621966817314,0.0016219635393537,-0.0013426616614471,0.0013426699383392,-0.0013426702908294,0.0013426613041208,-7.923201106939e-10,6.7179011103875e-10,1.9066503810362e-09,-2.0439128068079e-09,-0.0015310957861567,0.0015310956543837,-0.0016219648348131,0.0016219655304389,-0.0016219661397568,0.0016219642111971,-0.0016219643553277,0.0016219660186252,-0.0016219656585576,0.0016219647004382,-0.001342663706362,0.0013426679384477,-0.0013426675403985,0.0013426640145889,-0.0015291124669822,0.0015291095893743,-0.0015291110189411,0.0015291110337647,-4.1848848642055e-09,4.6805308009969e-09,-0.00085289882082468,0.00085289931400608,-1.6658729243672e-09,2.2458623776684e-09,-0.000964849711979,0.00096484592480488,-0.00096484841651627,0.00096484722405997,-0.00096484675304679,0.00096484888084091,-0.00096484545944499,0.00096485017805297,-0.0009699398840223,0.000969950355611,-0.00096994855616062,0.0009699416823388,0.5987335885887,125803,2834,0.0063581352812415,0.0063581352840237,0.0035508660137022,37.420782244216,5.9366257953728e-05,5.9366257953728e-05,5.9366257953728e-05,3947322.7267843,0.016400913485403
11819200,0.92479283138107,0.016044356525499,0.0060563775116489,0.0060563775123699,0.0039316015014806,-0.0015385094842794,0.0015385096247274,4.5757682440093e-09,-4.4336796112489e-09,7.9756229766633e-10,-6.6451191867585e-10,-0.0016302979227251,0.0016303015478039,-0.0016303009301747,0.0016302985467792,-0.00163029840301,0.0016303010657058,-0.0016303014028204,0.0016302980598772,-0.0013486690610392,0.0013486775290494,-0.0013486778814329,0.0013486687040053,-7.9260597566681e-10,6.7194236079813e-10,1.880715701915e-09,-2.0181106632442e-09,-0.0015385096210037,0.0015385094891027,-0.0016302993963839,0.0016303000745626,-0.0016303006845067,0.0016302987727452,-0.0016302989167862,0.0016303005630114,-0.0016303002030578,0.0016302992621768,-0.0013486712268163,0.0013486754082598,-0.0013486750107123,0.0013486715358684,-0.0015364257736991,0.0015364229128697,-0.0015364243254883,0.0015364243580364,-4.2841568316836e-09,4.7768331115862e-09,-0.00085571066058823,0.00085571115067364,-1.6418437311521e-09,2.21825686536e-09,-0.00096853424806424,0.00096853040994961,-0.00096853296990766,0.00096853169207001,-0.00096853122406224,0.00096853343119709,-0.00096852994754786,0.00096853471115078,-0.00097350079583601,0.00097351143876342,-0.00097350965981395,0.00097350257424716,0.6021809197968,125803,2834,0.0063888130482267,0.0063888130505045,0.0035625873067097,37.210596813893,5.7684774511147e-05,5.7684774511147e-05,5.7684774511147e-05,3942179.2816611,0.016475206388459
12019200,0.92977431373562,0.016118034761612,0.0060850570125565,0.006085057013282,0.0039479207357737,-0.0015454998309492,0.0015454999713828,4.6732040772938e-09,-4.531014828666e-09,7.9811670461194e-10,-6.6524330639128e-10,-0.001638104236978,0.0016381079274333,-0.001638107309286,0.001638104861405,-0.0016381047176888,0.0016381074448777,-0.00163810778237,0.0016381043741107,-0.0013544220445331,0.0013544307031857,-0.0013544310557654,0.0013544216873368,-7.9328177349223e-10,6.7256692752089e-10,1.8647579837606e-09,-2.0021932206766e-09,-0.0015454999676224,0.0015454998356754,-0.0016381057487395,0.0016381064159155,-0.0016381070265545,0.0016381051248043,-0.001638105268716,0.0016381069048185,-0.0016381065446386,0.0016381056147018,-0.0013544243212241,0.0013544284717942,-0.0013544280743373,0.0013544246311969,-0.0015433898262927,0.0015433869747656,-0.001543388377148,0.0015433884215923,-4.3830561207721e-09,4.8736213238904e-09,-0.000858442038918,0.00085844252678517,-1.6273181755982e-09,2.2011524490812e-09,-0.00097205877241208,0.00097205487744552,-0.00097205750479595,0.00097205614906056,-0.00097205568319261,0.00097205796392448,-0.00097205441716343,0.00097205923336022,-0.00097699025727133,0.00097700107902207,-0.00097699931294535,0.0009769920232542,0.61929849987508,125803,2834,0.0064177375342496,0.0064177375362494,0.0035739724952189,37.028198636689,5.6225589093509e-05,5.6225589093509e-05,5.6225589093509e-05,3934055.4196042,0.016545596059691
12219200,0.93441100729867,0.016188756549738,0.0061124822062977,0.0061124822070389,0.003963792136401,-0.0015522497737519,0.0015522499141362,4.7705692381491e-09,-4.6283429717698e-09,7.9877288327201e-10,-6.6607330879998e-10,-0.0016455582143447,0.0016455619701923,-0.0016455613515099,0.0016455588391913,-0.0016455586955552,0.0016455614871046,-0.0016455618251057,0.00164555835143,-0.0013601017379989,0.0013601105870353,-0.0013601109399759,0.0013601013804446,-7.9409324911398e-10,6.7338636012968e-10,1.8559792821325e-09,-1.9933993485623e-09,-0.0015522499103585,0.0015522497784229,-0.0016455597619031,0.0016455604227833,-0.0016455610341036,0.0016455591375739,-0.0016455592813385,0.0016455609122251,-0.0016455605516249,0.0016455596280415,-0.0013601041183692,0.0013601082522334,-0.0013601078545672,0.0013601044292602,-0.0015501799934789,0.0015501771461942,-0.0015501785429624,0.0015501785948968,-4.4816469322631e-09,4.9707967224252e-09,-0.0008611912446638,0.00086119173103612,-1.619555556899e-09,2.1916492002316e-09,-0.0009755773126095,0.00097557335667601,-0.00097557605073361,0.00097557462255927,-0.00097557415812835,0.00097557650840649,-0.00097557289781454,0.00097557777212084,-0.00098050105737398,0.00098051206349405,-0.00098051030473728,0.00098050281635292,0.63789980697344,125803,2834,0.0064456659300225,0.0064456659318717,0.0035854319526089,36.914448402538,5.5315587220304e-05,5.5315587220304e-05,5.5315587220304e-05,3920729.8699274,0.016614038801055
12419200,0.93872728065549,0.016252521882194,0.0061372930051794,0.0061372930059408,0.0039779358710734,-0.0015584791460022,0.0015584792863575,4.8679689388316e-09,-4.7258670718285e-09,7.9972669631015e-10,-6.6687589322275e-10,-0.0016524390781687,0.001652442899519,-0.0016524422802863,0.0016524397034985,-0.001652439559966,0.0016524424158304,-0.0016524427544694,0.0016524392151755,-0.0013653058591763,0.0013653148983001,-0.0013653152521221,0.0013653055008143,-7.9482242183825e-10,6.7415340486197e-10,1.8560010560759e-09,-1.9934053029209e-09,-0.0015584792826321,0.0015584791507278,-0.0016524406585753,0.0016524413190459,-0.0016524419309239,0.0016524400338506,-0.001652440177497,0.001652441808984,-0.0016524414479129,0.0016524405248346,-0.0013653083339379,0.0013653124682905,-0.001365312070219,0.0013653086454153,-0.0015563823864022,0.0015563795376494,-0.0015563809340731,0.001556380987522,-4.5797250173894e-09,5.0682077320269e-09,-0.00086364710340496,0.00086364758908793,-1.6199364790801e-09,2.1912623835505e-09,-0.00097883565354705,0.00097883163174447,-0.00097883439165269,0.00097883289764231,-0.00097883243389316,0.00097883484865995,-0.00097883117354913,0.00097883611240354,-0.00098360185878427,0.00098361305543553,-0.00098361129717026,0.00098360361690155,0.61826606053662,125803,2834,0.0064714383042729,0.0064714383063439,0.0035956731142965,36.802438222354,5.4419505778829e-05,5.4419505778829e-05,5.4419505778829e-05,3906041.4686127,0.016676864502778
12619200,0.94274547415911,0.016308837009275,0.0061593270319408,0.0061593270327049,0.0039901829446294,-0.0015640767221987,0.0015640768624701,4.9653139642432e-09,-4.823305205278e-09,8.0045759239354e-10,-6.6767745838255e-10,-0.0016586998276316,0.0016587037143555,-0.0016587030946608,0.0016587004533614,-0.0016587003099503,0.0016587032301401,-0.0016587035693561,0.0016586999645412,-0.0013698491975827,0.0013698584269207,-0.0013698587813272,0.0013698488385764,-7.9553750605174e-10,6.7491766439339e-10,1.8598947456116e-09,-1.9972555460523e-09,-0.0015640768587565,0.0015640767268999,-0.0016587014396115,0.001658702102252,-0.0016587027146351,0.0016587008144851,-0.0016587009580352,0.0016587025926783,-0.0016587022311053,0.0016587013059748,-0.0013698517632609,0.0013698559057167,-0.0013698555071757,0.0013698520753509,-0.001561865784117,0.001561862931369,-0.0015618643303024,0.0015618643826837,-4.6776656110971e-09,5.1658672335961e-09,-0.0008657896936268,0.00086579017899022,-1.6240388327836e-09,2.1950028184519e-09,-0.00098169595854859,0.00098169186858255,-0.00098169469402531,0.00098169313711487,-0.0009816926736848,0.00098169515071088,-0.00098169141070004,0.00098169641709255,-0.00098629020801846,0.00098630159833704,-0.00098629983771259,0.00098629196846063,0.58731201757098,125803,2834,0.00649459624453,0.0064945962465755,0.0036046083670737,36.690496639023,5.3523973112181e-05,5.3523973112181e-05,5.3523973112181e-05,3899951.8570466,0.016733050836347
12819200,0.94645261082176,0.016361175126607,0.0061797720768271,0.0061797720775962,0.0040016309721842,-0.0015688210010703,0.0015688211415446,5.0636288704962e-09,-4.9222093811763e-09,8.0284371755788e-10,-6.6839003114335e-10,-0.0016640844709358,0.0016640884241474,-0.0016640878037339,0.0016640850976263,-0.0016640849542507,0.0016640879390363,-0.001664088279406,0.0016640846076993,-0.0013736103107963,0.0013736197306138,-0.0013736200879721,0.0013736099495624,-7.9535714962033e-10,6.7469098449477e-10,1.8829335771207e-09,-2.0205034600393e-09,-0.0015688211383001,0.0015688210063618,-0.0016640861078986,0.001664086785901,-0.0016640873982639,0.0016640854828419,-0.0016640856264133,0.0016640872763296,-0.001664086914768,0.001664085974085,-0.0013736129471135,0.001373617134584,-0.0013736167356742,0.0013736132580381,-0.001566524589071,0.0015665217213839,-0.0015665231330111,0.0015665231694609,-4.773859991961e-09,5.2628240750135e-09,-0.00086747688811212,0.00086747737447739,-1.6450573325836e-09,2.2174735659648e-09,-0.00098392406804956,0.00098391990009366,-0.00098392278903183,0.00098392118318669,-0.00098392071885627,0.00098392324678568,-0.00098391944132812,0.0009839245275894,-0.00098850258249935,0.0009885141767172,-0.00098851239955595,0.00098850435670363,0.59134553077297,125803,2834,0.0065142242228279,0.0065142242270712,0.0036116452568737,36.407272689078,5.1258181512627e-05,5.1258181512627e-05,5.1258181512627e-05,3899358.6540691,0.016780129812575
13019200,0.94982998317523,0.01640900505011,0.0061984372966708,0.0061984372973337,0.0040121304561057,-0.0015726148230922,0.0015726149637214,5.1568169396058e-09,-5.0155626565919e-09,8.0074882561421e-10,-6.6577313544066e-10,-0.0016684527937159,0.0016684568084545,-0.001668456188553,0.0016684534188259,-0.0016684532757664,0.0016684563239308,-0.001668456663322,0.0016684529306371,-0.0013765419288368,0.0013765515330761,-0.0013765518883474,0.0013765415703743,-7.9851193494969e-10,6.7813847627151e-10,1.9233864952053e-09,-2.0607092165605e-09,-0.001572614960334,0.0015726148286669,-0.0016684544486823,0.0016684551523432,-0.0016684557651088,0.0016684538210743,-0.0016684539649235,0.0016684556436238,-0.0016684552803941,0.0016684543150139,-0.0013765446148571,0.0013765488844758,-0.0013765484822879,0.0013765449297645,-0.0015702494109343,0.00157024651042,-0.001570247947811,0.0015702479626994,-4.8747970109997e-09,5.3654867525921e-09,-0.00086854096117312,0.00086854144962846,-1.6888955994998e-09,2.2637436011906e-09,-0.00098546445879166,0.00098546019584969,-0.00098546315014073,0.00098546150862105,-0.00098546104218597,0.00098546361001703,-0.00098545973467302,0.00098546492086582,-0.00099002247928514,0.00099003430614464,-0.0009900324947652,0.00099002428401612,0.59302696127902,125803,2834,0.0065299188190153,0.0065299188235525,0.0036160910062828,35.874907568185,4.6999260545482e-05,4.6999260545482e-05,4.6999260545482e-05,3894195.4527278,0.016816575959123
13219200,0.95291042525799,0.016452796204662,0.0062155066459226,0.006215506646492,0.0040217829122477,-0.0015759743975479,0.0015759745379008,5.2573995512878e-09,-5.1157497714149e-09,8.0225523647675e-10,-6.6873074679354e-10,-0.0016723235648429,0.0016723276474768,-0.001672327026982,0.0016723241915446,-0.0016723240481705,0.0016723271622591,-0.0016723275026654,0.0016723237017341,-0.0013791368531723,0.0013791466534343,-0.0013791470098493,0.0013791364929823,-7.9666609669172e-10,6.7610088569337e-10,1.967224095438e-09,-2.1045850709516e-09,-0.0015759745344493,0.0015759744026401,-0.0016723252394184,0.0016723259727354,-0.0016723265852648,0.0016723246130689,-0.0016723247569572,0.001672326463767,-0.001672326101039,0.0016723251053865,-0.0013791395978568,0.0013791439514726,-0.0013791435513061,0.0013791399100177,-0.0015735565238065,0.0015735535973296,-0.0015735550669001,0.0015735550499628,-4.9676450086484e-09,5.4620465214928e-09,-0.00086942932637992,0.00086942981828095,-1.7272797741727e-09,2.3060209549948e-09,-0.0009867840366846,0.00098677968642038,-0.00098678270087247,0.00098678102633701,-0.00098678055664133,0.00098678316392997,-0.0009867792221752,0.0009867845016218,-0.00099132914514264,0.00099134118627917,-0.00099133934733273,0.00099133098246447,0.59512403001769,125803,2834,0.0065438165318187,0.0065438165352188,0.0036198048111419,35.336205792312,4.2689646338495e-05,4.2689646338495e-05,4.2689646338495e-05,3887417.4310895,0.016848623772613
13419200,0.95572417545154,0.016492176217782,0.0062308735285086,0.0062308735290658,0.0040304291602073,-0.0015789235378251,0.0015789236781032,5.3546116767594e-09,-5.2128352162271e-09,8.0190752174625e-10,-6.6875592125978e-10,-0.0016757399633309,0.0016757441105726,-0.0016757434903003,0.0016757405900172,-0.0016757404466195,0.0016757436255084,-0.0016757439657888,0.0016757401003006,-0.0013813851221011,0.0013813951132088,-0.0013813954690979,0.0013813847622451,-7.9677694636416e-10,6.7621595810997e-10,2.0068835367846e-09,-2.1442233143687e-09,-0.0015789236745249,0.0015789235427246,-0.0016757416573034,0.0016757424168202,-0.0016757430293286,0.0016757410307364,-0.0016757411748378,0.0016757429080046,-0.0016757425449643,0.0016757415231679,-0.0013813879242026,0.0013813923556396,-0.0013813919549589,0.0013813882360439,-0.0015764413765306,0.0015764384235343,-0.0015764399197679,0.0015764398768301,-5.06436655801e-09,5.5613365672206e-09,-0.0008701379955192,0.00087013849001334,-1.7655852590676e-09,2.3473661202951e-09,-0.00098789508195737,0.00098789064223243,-0.00098789371955397,0.0009878920087176,-0.00098789153649718,0.00098789418511811,-0.00098789017548183,0.0009878955494223,-0.00099240178329489,0.00099241404550812,-0.00099241217775479,0.00099240365014121,0.58608286883511,125803,2834,0.0065560158159933,0.00655601581873,0.0036227704232136,34.797254285039,3.8378034280315e-05,3.8378034280315e-05,3.8378034280315e-05,3880142.0909246,0.016876457259534
13619200,0.95831179681819,0.016527939486721,0.0062448383457083,0.0062448383462643,0.0040382627947488,-0.0015816949768084,0.001581695117103,5.4498342857741e-09,-5.3075381503528e-09,7.9939071898579e-10,-6.6710475523118e-10,-0.0016789511197686,0.0016789553295517,-0.00167895471033,0.0016789517454322,-0.0016789516019069,0.0016789548456548,-0.001678955184451,0.0016789512570963,-0.0013834987358482,0.0013835089155736,-0.0013835092687006,0.0013834983780548,-7.9801598698291e-10,6.7759314533828e-10,2.0321126842368e-09,-2.1692355418616e-09,-0.0015816951130605,0.0015816949814055,-0.001678952837387,0.00167895361312,-0.0016789542261495,0.0016789522100504,-0.0016789523542459,0.0016789541049492,-0.0016789537409388,0.0016789527033871,-0.0013835016085912,0.0013835060901792,-0.0013835056884108,0.0013835019214221,-0.0015791449955386,0.0015791420231112,-0.0015791435376563,0.0015791434809825,-5.1634235839092e-09,5.6625159025261e-09,-0.0008708741457438,0.00087087464224852,-1.7923907951217e-09,2.3763712522753e-09,-0.0009889811832941,0.00098897666038841,-0.0009889798024228,0.00098897804534965,-0.00098897757122978,0.00098898026978143,-0.00098897619158493,0.00098898165274782,-0.00099347263839611,0.00099348511740032,-0.00099348322975685,0.00099347452683381,0.57889842414314,125803,2834,0.0065674803213886,0.006567480322536,0.0036258474943166,34.356430663565,3.4851445308519e-05,3.4851445308519e-05,3.4851445308519e-05,3876256.0648645,0.016902909939386
13819200,0.96070572320316,0.016561002034803,0.0062577399861178,0.0062577399867201,0.004045522061965,-0.0015843439296034,0.0015843440695192,5.5518155557869e-09,-5.4096913794064e-09,8.0180456336215e-10,-6.7025144557254e-10,-0.0016820100802052,0.0016820143591025,-0.0016820137386226,0.00168201070739,-0.0016820105639084,0.0016820138737932,-0.0016820142144928,0.0016820102170919,-0.0013855392016992,0.0013855495796878,-0.0013855499346191,0.0013855388422284,-7.9426470299382e-10,6.7336303743408e-10,2.0483728333122e-09,-2.185912414549e-09,-0.0015843440656988,0.0015843439335971,-0.0016820118261792,0.0016820126145776,-0.001682013225702,0.0016820112009736,-0.0016820113454724,0.0016820131042843,-0.0016820127429808,0.0016820116915084,-0.0013855421594515,0.0013855466705044,-0.0013855462718586,0.0013855424694179,-0.0015817357603458,0.0015817327850244,-0.0015817343115355,0.0015817342354096,-5.2559602606021e-09,5.7561210718348e-09,-0.0008716619749638,0.00087166247247904,-1.8027255679438e-09,2.387843550219e-09,-0.00099007261554337,0.00099006802363695,-0.0009900712269858,0.00099006941614267,-0.00099006894090167,0.00099007169541759,-0.00099006755405286,0.00099007308569048,-0.00099457652358377,0.00099458919332399,-0.000994587297244,0.00099457842114754,0.57842146988109,125803,2834,0.0065784384783248,0.0065784384786821,0.0036291369701944,34.004066763469,3.203253410775e-05,3.203253410775e-05,3.203253410775e-05,3874703.2791227,0.016928548792884
14019200,0.96292275455756,0.016591613577847,0.0062696779727249,0.006269677973377,0.0040522576317456,-0.0015867462655482,0.0015867464057806,5.6480528926846e-09,-5.5059918565518e-09,8.0078272799028e-10,-6.6809306656836e-10,-0.0016847881847629,0.0016847925268379,-0.0016847919073243,0.001684788811063,-0.0016847886674705,0.0016847920425572,-0.0016847923821408,0.0016847883218288,-0.001387385816043,0.0013873963831853,-0.0013873967377601,0.0013873854574958,-7.9458494909288e-10,6.7365365533635e-10,2.0554771330033e-09,-2.1931386356642e-09,-0.0015867464020963,0.0015867462699549,-0.0016847899596779,0.0016847907526215,-0.0016847913639247,0.001684789334238,-0.0016847894788256,0.0016847912425244,-0.0016847908809869,0.0016847898249915,-0.001387388860427,0.0013873933856612,-0.0013873929863149,0.0013873891701011,-0.0015840872140196,0.0015840842332314,-0.0015840857627276,0.0015840856822294,-5.3545853098628e-09,5.8552182128969e-09,-0.00087235695579971,0.0008723574539377,-1.8109183725967e-09,2.3969405303033e-09,-0.00099104503054209,0.00099104036775064,-0.00099104363644621,0.00099104176605843,-0.00099104129025878,0.00099104410550092,-0.00099103989757583,0.00099104550134059,-0.00099556237666219,0.0009955752455674,-0.00099557334305009,0.00099556427942989,0.57820995977552,125803,2834,0.0065883762665959,0.0065883762680915,0.003632039411425,33.653961346629,2.9231690773036e-05,2.9231690773036e-05,2.9231690773036e-05,3872579.3485938,0.0169517188393
14219200,0.96497783623328,0.016618996927949,0.0062803944736229,0.0062803944742752,0.0040582079800512,-0.0015888758564093,0.0015888759968379,5.7443447701515e-09,-5.6022097559257e-09,7.9967771104191e-10,-6.6661203334232e-10,-0.0016872752522229,0.0016872796579814,-0.001687279039055,0.0016872758778401,-0.0016872757341934,0.0016872791744301,-0.0016872795130244,0.0016872753895164,-0.0013889839248983,0.0013889946813387,-0.0013889950352137,0.0013889835670418,-7.9460896506509e-10,6.7363934057616e-10,2.0596187553086e-09,-2.1973284606827e-09,-0.0015888759931812,0.0015888758610012,-0.0016872770576137,0.0016872778534558,-0.0016872784646329,0.001687276432052,-0.0016872765767829,0.001687278343157,-0.0016872779816884,0.001687276922868,-0.0013889870596652,0.0013889915927969,-0.0013889911934366,0.0013889873689903,-0.0015861418068986,0.0015861388230442,-0.0015861403551891,0.0015861402720728,-5.453190364412e-09,5.9542208432286e-09,-0.0008729168313983,0.00087291732995819,-1.8159690508626e-09,2.402524369719e-09,-0.00099187067723242,0.00099186594552922,-0.00099186927966797,0.00099186734726064,-0.00099186687116295,0.00099186974903769,-0.00099186547492498,0.00099187114849014,-0.00099636731562819,0.00099638038176158,-0.00099637847509859,0.00099636922206357,0.55856304990989,125803,2834,0.0065971854595001,0.0065971854614372,0.0036343794359164,33.303944884029,2.643155907223e-05,2.643155907223e-05,2.643155907223e-05,3870648.4209572,0.016972022136013
14419200,0.96685288813791,0.016644230504872,0.0062902504630278,0.0062902504636808,0.0040637295781636,-0.001590119215561,0.0015901193564441,5.8463597473699e-09,-5.7052518554132e-09,8.0432339059018e-10,-6.6791770133741e-10,-0.0016888616106392,0.001688866085951,-0.0016888654656667,0.0016888622378761,-0.0016888620941318,0.0016888656009179,-0.0016888659415892,0.0016888617475242,-0.0013897365931719,0.0013897475457668,-0.0013897479057674,0.0013897362322629,-7.9110895751733e-10,6.6968183926233e-10,2.0795988862133e-09,-2.2180601804054e-09,-0.001590119353908,0.0015901192212217,-0.0016888634421779,0.001688864253077,-0.0016888648622794,0.0016888628182912,-0.0016888629633087,0.0016888647407279,-0.0016888643817441,0.0016888633065258,-0.0013897398035999,0.0013897443739202,-0.001389743977332,0.0013897401096134,-0.0015873283109892,0.0015873253224425,-0.0015873268638865,0.0015873267596904,-5.5454578054659e-09,6.0470482512386e-09,-0.00087286305316266,0.00087286355280154,-1.8294483608492e-09,2.4178830263516e-09,-0.00099196838979059,0.00099196358751185,-0.00099196698242518,0.00099196499901897,-0.00099196452189426,0.00099196745308171,-0.00099196311618437,0.00099196886188538,-0.00099653182178402,0.00099654507920386,-0.00099654315920201,0.0009965337362855,0.56383117359114,125803,2834,0.0066023284255092,0.0066023284319862,0.0036341662240246,32.648737508548,2.1189900068385e-05,2.1189900068385e-05,2.1189900068385e-05,3868982.5114684,0.016982271050201
14619200,0.96855063621015,0.016667190895267,0.0062992062185587,0.0062992062191031,0.0040687784576052,-0.0015908042672935,0.0015908044081739,5.9417620038376e-09,-5.8001808073989e-09,8.0164207620837e-10,-6.6668711440158e-10,-0.0016898440031397,0.0016898485409933,-0.0016898479218785,0.0016898446298157,-0.001689844485632,0.0016898480574212,-0.0016898483962566,0.0016898441405294,-0.0013900026091569,0.0013900137511097,-0.0013900141078007,0.00139000224919,-7.9216582446606e-10,6.708032814093e-10,2.0976386286502e-09,-2.2358509576409e-09,-0.0015908044053057,0.0015908042727273,-0.0016898458613897,0.0016898466834935,-0.0016898472936738,0.0016898452371752,-0.0016898453820763,0.001689847172042,-0.0016898468119518,0.0016898457257149,-0.0013900058981001,0.0013900105042215,-0.0013900101062189,0.0013900062035532,-0.001587972710819,0.0015879697067532,-0.0015879712614103,0.001587971147307,-5.6443886805762e-09,6.1478699308819e-09,-0.00087242738764225,0.0008724278888732,-1.849072894357e-09,2.4390802190226e-09,-0.00099165779617349,0.00099165291504859,-0.00099165637528793,0.00099165434037921,-0.00099165386178753,0.00099165684745901,-0.0009916524423179,0.00099165826981273,-0.00099627348170218,0.0009962869483424,-0.00099628501567282,0.00099627541238855,0.5664523268871,125803,2834,0.0066051611641466,0.0066051611694645,0.0036323655624454,31.824633395768,1.4597067166143e-05,1.4597067166143e-05,1.4597067166143e-05,3862600.5084196,0.016986205974044
14819200,0.97009056039669,0.016688140361808,0.0063073651777753,0.0063073651782996,0.0040734100057335,-0.0015912747271279,0.001591274867905,6.0375556412901e-09,-5.8955045562062e-09,7.9968546080516e-10,-6.6574038697051e-10,-0.0016905742377051,0.0016905788388257,-0.0016905782202195,0.0016905748634902,-0.0016905747194281,0.0016905783557385,-0.0016905786938491,0.0016905743752931,-0.0013901107614803,0.0013901220925017,-0.001390122446761,0.0013901104039425,-7.9285247954805e-10,6.7146966866203e-10,2.1081547291432e-09,-2.2462987711843e-09,-0.0015912748646734,0.0015912747321066,-0.0016905761243299,0.0016905769533399,-0.0016905775634658,0.0016905754995392,-0.0016905756447228,0.0016905774418438,-0.0016905770816446,0.0016905759888117,-0.0013901141359573,0.0013901187630244,-0.0013901183647656,0.0013901144430034,-0.001588412539839,0.0015884095274182,-0.0015884110907387,0.0015884109709153,-5.7434990270721e-09,6.2476700719385e-09,-0.00087190783282441,0.00087190833472602,-1.8613184375913e-09,2.4520002305145e-09,-0.00099124783492023,0.00099124288010892,-0.00099124640575254,0.00099124431357744,-0.00099124383431693,0.00099124687844117,-0.00099124240644627,0.00099124830934474,-0.00099591161149428,0.00099592528331848,-0.00099592334150698,0.00099591355216114,0.56961684277899,125803,2834,0.0066071060563559,0.0066071060599755,0.0036302156081172,30.996182566538,7.9694605323012e-06,7.9694605323012e-06,7.9694605323012e-06,3854524.8800964,0.016987979228359
15019200,0.97146862481372,0.016706816335469,0.0063146362803422,0.0063146362808659,0.004077543774261,-0.001590990212672,0.001590990353571,6.1385566705427e-09,-5.9970573528968e-09,8.0270745213246e-10,-6.6721717138518e-10,-0.0016905191444186,0.0016905238137761,-0.0016905231943735,0.0016905197716458,-0.001690519627343,0.0016905233298969,-0.0016905236694313,0.0016905192815556,-0.0013895176490339,0.001389529176126,-0.0013895295338772,0.0013895172875173,-7.9012407854588e-10,6.6839396144286e-10,2.1285880852616e-09,-2.2672078078835e-09,-0.0015909903508068,0.0015909902178705,-0.0016905210571319,0.0016905219009045,-0.001690522509874,0.0016905204340057,-0.0016905205792866,0.0016905223883154,-0.0016905220298285,0.0016905209208705,-0.0013895211005589,0.0013895257662497,-0.0013895253691767,0.0013895214024842,-0.0015880947331154,0.0015880917127505,-0.0015880932878309,0.0015880931472245,-5.8365679414965e-09,6.3419458284376e-09,-0.00087082140319408,0.00087082190644906,-1.876388460751e-09,2.4689608270444e-09,-0.00099023929724549,0.00099023426994586,-0.00099023785701884,0.00099023571442185,-0.00099023523378954,0.00099023833123883,-0.00099023379546149,0.00099023977258113,-0.00099493715380515,0.00099495101850194,-0.0009949490646301,0.00099493910517098,0.56737758845619,125803,2834,0.0066059268637771,0.0066059268688237,0.003625709709838,29.893569005352,-8.5144795718577e-07,-8.5144795718577e-07,-8.5144795718577e-07,3841917.5149634,0.016981001784575
15219200,0.97268357829052,0.016722584391379,0.0063207998910992,0.0063207998915846,0.0040809846086947,-0.0015898479676684,0.0015898481086559,6.2346548742203e-09,-6.093268058314e-09,8.0173307448726e-10,-6.6599280784747e-10,-0.0016895888653069,0.0016895935982867,-0.0016895929789188,0.0016895894916514,-0.0016895893475764,0.0016895931145621,-0.0016895934536855,0.0016895890024729,-0.0013880994899428,0.0013881112066946,-0.0013881115627224,0.0013880991302009,-7.906061256432e-10,6.688469866677e-10,2.1531817083422e-09,-2.2918215616267e-09,-0.0015898481059785,0.001589847973012,-0.00168959080203,0.0016895916620441,-0.0016895922702779,0.0016895901778862,-0.0016895903235587,0.0016895921488135,-0.0016895917905635,0.0016895906654605,-0.0013881030108799,0.0013881077259064,-0.0013881073273279,0.0013881033141918,-0.00158689978083,0.0015868967434134,-0.0015868983339266,0.0015868981765882,-5.9349687742967e-09,6.4411984458677e-09,-0.00086909137872987,0.00086909188311614,-1.9016614871958e-09,2.4955575488637e-09,-0.00098853796709359,0.0009885328580389,-0.00098853650966516,0.00098853431967196,-0.00098853383779338,0.00098853698513539,-0.00098853238221323,0.00098853844385528,-0.000993259261199,0.00099327333862589,-0.00099327136468019,0.00099326122955278,0.54391179539295,125803,2834,0.0066011986093648,0.0066011986148938,0.0036185282210168,28.488298151422,-1.2093614788626e-05,-1.2093614788626e-05,-1.2093614788626e-05,3826410.0667599,0.016964084622203
15419200,0.97375697795282,0.016738396249876,0.0063268870165831,0.0063268870170397,0.0040846222162528,-0.0015885188519091,0.0015885189929172,6.3295784726048e-09,-6.1874664223833e-09,7.9915855501942e-10,-6.6469647097908e-10,-0.0016884408246307,0.0016884456202275,-0.0016884450020623,0.0016884414502284,-0.0016884413059131,0.0016884451377198,-0.0016884454751891,0.0016884409624237,-0.0013865550637734,0.0013865669675546,-0.0013865673213494,0.0013865547066384,-7.9198341786199e-10,6.7032463959179e-10,2.1662421058035e-09,-2.3046514799351e-09,-0.0015885189898214,0.0015885188569908,-0.0016884427891521,0.0016884436572628,-0.0016884442666267,0.0016884421644478,-0.0016884423101535,0.0016884441450556,-0.0016884437854845,0.0016884426529543,-0.001386558667671,0.0013865634080935,-0.0013865630098268,0.001386558972921,-0.0015855880363113,0.0015855849868117,-0.0015855865887246,0.0015855864276254,-6.0344104157801e-09,6.5424834198872e-09,-0.00086737962150358,0.00086738012747573,-1.916782285025e-09,2.5123618569641e-09,-0.00098673240952778,0.00098672722483683,-0.00098673094188553,0.00098672869697833,-0.00098672821383453,0.00098673141849019,-0.00098672674730605,0.00098673288776611,-0.00099163654853207,0.00099165083523834,-0.00099164885103254,0.00099163853151497,0.61487579143155,125803,2834,0.0065956985839025,0.0065956985880179,0.0036114185371307,27.075355510406,-2.3397155916752e-05,-2.3397155916752e-05,-2.3397155916752e-05,3814700.4403981,0.016945668732339
15619200,0.97472453000568,0.016752938152378,0.0063324713144528,0.00633247131491,0.0040879955230151,-0.0015878324847095,0.0015878326245669,6.4363079856209e-09,-6.29447001285e-09,8.046325277933e-10,-6.729497569645e-10,-0.0016878244244535,0.0016878292941952,-0.0016878286723939,0.0016878250538058,-0.0016878249096397,0.001687828807883,-0.0016878291506171,0.0016878245606563,-0.0013857788741465,0.0013857909863159,-0.0013857913430337,0.0013857785123643,-7.8589050052584e-10,6.6336649682694e-10,2.1549685313526e-09,-2.2940093736839e-09,-0.0015878326218654,0.0015878324882777,-0.001687826428761,0.0016878272923611,-0.0016878278984806,0.0016878258078151,-0.0016878259535292,0.001687827776691,-0.0016878274221864,0.0016878262912074,-0.0013857825969022,0.0013857873132184,-0.0013857869199274,0.0013857828971873,-0.0015849279527188,0.0015849249248534,-0.0015849265226342,0.0015849263520784,-6.1233332411206e-09,6.6299803290637e-09,-0.00086612165199792,0.00086612215630222,-1.8960445151636e-09,2.4894093618521e-09,-0.00098562098186805,0.00098561575038677,-0.00098561952794669,0.00098561720874175,-0.00098561672641964,0.00098562000360893,-0.00098561527506459,0.00098562145776023,-0.00099043789109474,0.00099045233235485,-0.00099045036561647,0.00099043985978948,0.62694795757322,125803,2834,0.0065928552770245,0.0065928552788173,0.003606202386457,25.966008167565,-3.2271934659479e-05,-3.2271934659479e-05,-3.2271934659479e-05,3787488.5465573,0.016934583102269
15819200,0.97563452794709,0.016767568210016,0.0063380506140854,0.0063380506145678,0.0040914669813631,-0.001588488044715,0.0015884881834962,6.5388287840338e-09,-6.3969100173194e-09,8.0770395984552e-10,-6.7924642419388e-10,-0.0016885074214121,0.0016885123614341,-0.0016885117369729,0.001688508052948,-0.0016885079092654,0.0016885118722911,-0.0016885122186321,0.0016885075564963,-0.0013863847630946,0.0013863970762028,-0.0013863974335444,0.0013863843993221,-7.835175455474e-10,6.6059545693642e-10,2.0923339220239e-09,-2.2315009793717e-09,-0.0015884881808124,0.0015884880469133,-0.0016885094818023,0.0016885103047873,-0.0016885109098303,0.0016885088623166,-0.0016885090078337,0.0016885107877265,-0.0016885104356019,0.0016885093438817,-0.0013863886507175,0.0013863932440252,-0.0013863928534784,0.0013863889508528,-0.0015856379180043,0.0015856349378439,-0.001585636497583,0.0015856363612784,-6.218413121434e-09,6.7204319353586e-09,-0.00086606085335521,0.00086606135270593,-1.8310478182442e-09,2.4181958231231e-09,-0.00098578165456037,0.00098577640136065,-0.00098578024565694,0.00098577781485598,-0.00098577733674826,0.00098578071689814,-0.00098577593104912,0.00098578212528439,-0.00099049210323466,0.00099050667502288,-0.00099050476032673,0.00099049402411827,0.66919698631449,125803,2834,0.0065955647992834,0.0065955647982691,0.0036059612224484,25.548802791397,-3.5609577668823e-05,-3.5609577668823e-05,-3.5609577668823e-05,3766668.042729,0.01693985014899
16019200,0.97649193742641,0.016781319139636,0.0063432979107513,0.006343297911288,0.0040947233175969,-0.0015891972063655,0.0015891973465744,6.6254733815714e-09,-6.4836826209465e-09,8.0296870909241e-10,-6.7016881762617e-10,-0.0016891966846278,0.0016892016797495,-0.0016892010588282,0.0016891973125347,-0.0016891971687512,0.0016892011942737,-0.0016892015354395,0.0016891968213539,-0.0013871001350892,0.00138711261702,-0.0013871129734261,0.0013870997748628,-7.9181665577999e-10,6.7000708779795e-10,2.0193605682918e-09,-2.1578309906415e-09,-0.0015891973436958,0.0015891972107457,-0.0016891987976193,0.0016891995680766,-0.0016892001781285,0.0016891981737668,-0.0016891983186587,0.0016892000560018,-0.0016891996974161,0.0016891986617462,-0.0013871041725021,0.0013871086255729,-0.0013871082293282,0.0013871044793918,-0.0015863885274917,0.0015863855773922,-0.0015863870827022,0.0015863870176332,-6.3289751006114e-09,6.8268773711707e-09,-0.00086594955090157,0.00086595004633786,-1.7724576629071e-09,2.355523195273e-09,-0.00098602080638832,0.00098601551852829,-0.00098601943892516,0.00098601689073624,-0.00098601641741431,0.00098601990558429,-0.0009860150514219,0.00098602127405969,-0.00099046547160664,0.00099048021303821,-0.00099047834048841,0.00099046734492243,0.66742791426483,125803,2834,0.0065984943250357,0.0065984943281447,0.0036055146672778,25.148957399122,-3.8808340807026e-05,-3.8808340807026e-05,-3.8808340807026e-05,3738640.918105,0.016945356716723
16219200,0.97730042191188,0.016794227171663,0.0063482264644854,0.0063482264650265,0.0040977742421514,-0.0015898119493316,0.0015898120896853,6.7199370282424e-09,-6.5781065184789e-09,8.0206323940095e-10,-6.6895255337045e-10,-0.0016897934915272,0.0016897985495777,-0.0016897979290886,0.0016897941187934,-0.0016897939751571,0.001689798064493,-0.0016897984048843,0.0016897936285636,-0.0013877163835005,0.0013877290505944,-0.0013877294063547,0.0013877160238241,-7.9411336149956e-10,6.7262578635733e-10,1.9541663251648e-09,-2.0923456942532e-09,-0.0015898120866153,0.0015898119539656,-0.0016897956578784,0.0016897963840758,-0.0016897969957243,0.0016897950330308,-0.0016897951775186,0.0016897968733582,-0.0016897965132015,0.0016897955228381,-0.0013877205762292,0.0013877249024985,-0.0013877245048472,0.0013877208854837,-0.0015870339292938,0.0015870310173367,-0.0015870324787007,0.0015870324628908,-6.4316825235367e-09,6.92558349209e-09,-0.00086577942274595,0.00086577991406775,-1.7126726858376e-09,2.2908913942899e-09,-0.00098618500453117,0.00098617968739948,-0.00098618367877382,0.00098618101781424,-0.00098618054870148,0.00098618414125461,-0.00098617922406968,0.00098618546849727,-0.00099037975425903,0.00099039464797606,-0.00099039282063591,0.00099038158195539,0.66425603878932,125803,2834,0.0066010331233004,0.0066010331265399,0.0036048232236348,24.749788717535,-4.2001690259718e-05,-4.2001690259718e-05,-4.2001690259718e-05,3714112.6215485,0.016949819485053
16419200,0.97806610572821,0.016805237673406,0.0063524757062515,0.0063524757067956,0.0041002862603589,-0.0015904044443444,0.0015904045847482,6.8156479076349e-09,-6.6735316698354e-09,8.0063647116421e-10,-6.6789849780642e-10,-0.0016903889488648,0.0016903940702224,-0.00169039345029,0.0016903895753832,-0.0016903894317305,0.0016903935857964,-0.0016903939252633,0.0016903890860892,-0.0013882708069804,0.0013882836626227,-0.0013882840168274,0.0013882704487291,-7.9594482854949e-10,6.7470429777786e-10,1.8940617662263e-09,-2.0319539693959e-09,-0.001590404581394,0.0015904044489953,-0.0016903911672674,0.0016903918526253,-0.0016903924656351,0.0016903905417041,-0.0016903906857054,0.0016903923430969,-0.0016903919817432,0.0016903910328689,-0.0013882751526585,0.0013882793622243,-0.001388278963741,0.0013882754645015,-0.0015876150442416,0.00158761216845,-0.0015876135902883,0.0015876136190202,-6.5331868609595e-09,7.0233314344869e-09,-0.0008656288186788,0.0008656293060748,-1.6569797203242e-09,2.2304782392113e-09,-0.00098635482086463,0.00098634947236437,-0.00098635353390306,0.00098635076400326,-0.00098635029872126,0.00098635399251371,-0.00098634901270205,0.00098635528113469,-0.00099028505616817,0.00099030010282794,-0.00099029831822997,0.00099028684188739,0.59981696869401,125803,2834,0.0066034799622623,0.0066034799649467,0.0036042118902241,24.412247209112,-4.4702022327102e-05,-4.4702022327102e-05,-4.4702022327102e-05,3694764.8585616,0.016954177340295
16619200,0.97879529496854,0.016817573185185,0.0063571581198992,0.0063571581204511,0.0041032569448348,-0.0015910325647537,0.0015910327045469,6.9169346888638e-09,-6.7749494084167e-09,8.0304229813843e-10,-6.7191516645289e-10,-0.00169106536944,0.0016910705598813,-0.0016910699382022,0.001691065997489,-0.001691065854117,0.0016910700736613,-0.0016910704153261,0.0016910655060142,-0.0013888222974958,0.0013888353510168,-0.0013888357067785,0.0013888219368238,-7.9314217675682e-10,6.7158141270938e-10,1.8418664260761e-09,-1.9799436077657e-09,-0.0015910327011807,0.001591032568484,-0.0016910676392487,0.0016910682914012,-0.0016910689032772,0.0016910670155129,-0.0016910671594056,0.0016910687803298,-0.0016910684213258,0.0016910675046294,-0.0013888267945493,0.0013888309004099,-0.0013888305051744,0.0013888271047219,-0.001588287873571,0.0015882850388163,-0.0015882864283064,0.0015882864850251,-6.6289263802631e-09,7.1153191714717e-09,-0.0008657270515033,0.00086572753484511,-1.6029600628285e-09,2.1714313313406e-09,-0.00098655388011938,0.00098654850243189,-0.00098655263052006,0.00098654975654517,-0.00098654929499572,0.00098655308532571,-0.00098654804692694,0.00098655433622969,-0.00099051608341454,0.00099053127160421,-0.0009905295293024,0.00099051782915431,0.70235631037965,125803,2834,0.0066060772252322,0.0066060772259851,0.0036046265777087,24.158300275547,-4.6733597795625e-05,-4.6733597795625e-05,-4.6733597795625e-05,3691243.5264213,0.016959882037159
16819200,0.97949012718701,0.0168293845405,0.0063616426932152,0.0063616426937901,0.004106099153495,-0.0015918411983463,0.00159184133862,7.0123846538741e-09,-6.8705462189409e-09,8.0230914212408e-10,-6.6942938615647e-10,-0.0016918111737996,0.0016918164270094,-0.0016918158061183,0.0016918118009061,-0.0016918116574728,0.0016918159416551,-0.00169181628222,0.0016918113106331,-0.0013896854279493,0.001389698668181,-0.0013896990240036,0.0013896850681017,-7.9418052874176e-10,6.7271323567456e-10,1.8005943798958e-09,-1.9387233399136e-09,-0.0015918413355628,0.0015918412029488,-0.001691813488302,0.0016918141125521,-0.0016918147250698,0.0016918128641034,-0.0016918130077594,0.001691814601967,-0.0016918142423991,0.0016918133540418,-0.0013896900571552,0.0013896940825089,-0.0013896936863668,0.001389690368223,-0.0015891399169917,0.0015891371071042,-0.0015891384665443,0.0015891385531372,-6.7298791081826e-09,7.2137914588286e-09,-0.00086574824514825,0.00086574872618071,-1.5651744758838e-09,2.1311677748848e-09,-0.00098695237359059,0.00098694695333385,-0.00098695115012816,0.00098694818131845,-0.00098694772214025,0.00098695160267473,-0.0009869464999503,0.00098695282763254,-0.00099060777285491,0.00099062312780876,-0.00099062141303143,0.00099060948842579,0.705715708715,125803,2834,0.0066094176077039,0.0066094176109037,0.0036047314418332,23.9064554272,-4.8748356582399e-05,-4.8748356582399e-05,-4.8748356582399e-05,3665956.0679904,0.016966784807262
17019200,0.98015251700357,0.016840430890477,0.0063658455320789,0.0063658455326559,0.0041087398257424,-0.0015925774966329,0.0015925776369491,7.11005901446e-09,-6.9682225894066e-09,8.0206038931155e-10,-6.6908767212502e-10,-0.0016924885379209,0.0016924938560785,-0.0016924932353126,0.001692489164797,-0.0016924890213491,0.0016924933709354,-0.0016924937112446,0.001692488674753,-0.0013904647886895,0.0013904782205513,-0.0013904785762006,0.0013904644290308,-7.93582013026e-10,6.7203479011993e-10,1.7698599755355e-09,-1.9080606531744e-09,-0.0015925776339134,0.0015925775012307,-0.0016924908948118,0.0016924914990248,-0.0016924921113644,0.0016924902710958,-0.0016924904146441,0.0016924919880505,-0.0016924916290964,0.001692490760616,-0.0013904695437668,0.0013904735084869,-0.0013904731131331,0.0013904698546683,-0.0015899059260537,0.001589903137811,-0.0015899044768001,0.0015899045824598,-6.8283147129227e-09,7.3104239256848e-09,-0.00086571115823336,0.00086571163741318,-1.5353812638696e-09,2.0991436501778e-09,-0.00098729357785315,0.00098728811133207,-0.00098729237496769,0.00098728931875344,-0.00098728886133078,0.00098729282576451,-0.00098728765972909,0.00098729403010977,-0.00099064092111902,0.00099065644444602,-0.00099065475203104,0.00099064261427,0.69245975105238,125803,2834,0.006612458338181,0.0066124583414157,0.0036045946261133,23.654692464849,-5.0762460281205e-05,-5.0762460281205e-05,-5.0762460281205e-05,3642893.8737052,0.016972832488653
17219200,0.9807690616825,0.016850445982978,0.006369665918545,0.0063696659191238,0.0041111141453093,-0.0015923870911442,0.0015923872329141,7.200210342987e-09,-7.0580519178882e-09,7.9582412082527e-10,-6.5925779606804e-10,-0.0016922646224796,0.0016922699967237,-0.0016922693802888,0.0016922652450121,-0.0016922651010161,0.0016922695164734,-0.0016922698505135,0.0016922647608686,-0.0013902957407339,0.0013903093514941,-0.0013903097034818,0.0013902953860752,-7.9868860667013e-10,6.7787747781112e-10,1.7731276195787e-09,-1.9108745829388e-09,-0.0015923872295501,0.001592387097505,-0.0016922670069374,0.0016922676106571,-0.0016922682258289,0.001692266380132,-0.0016922665234935,0.0016922681027997,-0.0016922677395249,0.0016922668738319,-0.001390300578022,0.0013903045513183,-0.0013903041512151,0.0013903008923517,-0.001589727012612,0.0015897242108501,-0.0015897255477331,0.001589725664482,-6.9331476173989e-09,7.4158986780329e-09,-0.00086491800850012,0.00086491848861708,-1.5459200560766e-09,2.1111505001883e-09,-0.00098679183805671,0.00098678629530851,-0.00098679062818139,0.00098678750971719,-0.00098678705198068,0.00098679107945335,-0.00098678584241417,0.00098679229177169,-0.00098988720725319,0.00098990294548799,-0.00098990124299374,0.00098988890624751,0.67475986334829,125803,2834,0.0066116649808315,0.0066116649870431,0.0036013141590943,22.995404908566,-5.6036760731472e-05,-5.6036760731472e-05,-5.6036760731472e-05,3620473.9309428,0.01696788459389
17419200,0.98133175382284,0.016859209721393,0.0063730218556838,0.0063730218562444,0.0041131660094643,-0.0015913672638775,0.001591367405987,7.2952841779584e-09,-7.152659207171e-09,7.9259215714777e-10,-6.5592989573311e-10,-0.0016912375473694,0.0016912429832574,-0.0016912423686475,0.0016912381680194,-0.0016912380237951,0.0016912425051346,-0.0016912428364904,0.0016912376863604,-0.0013892731999461,0.0013892869989354,-0.0013892873481082,0.0013892728479765,-7.9829727056636e-10,6.7745006391405e-10,1.8092438142599e-09,-1.9469931978928e-09,-0.0015913674023444,0.0015913672702694,-0.0016912399507218,0.0016912405787575,-0.0016912411935409,0.0016912393237947,-0.0016912394675359,0.0016912410705171,-0.0016912407073334,0.0016912398175773,-0.0013892780967524,0.0013892821401028,-0.001389281740124,0.0013892784105452,-0.0015887032953015,0.0015887004694887,-0.0015887018310156,0.001588701923426,-7.0321697406544e-09,7.5174799572946e-09,-0.00086349117884444,0.0008634916615305,-1.5830621352167e-09,2.1512339098202e-09,-0.00098554955874614,0.00098554392584947,-0.0009855483231425,0.00098554516582939,-0.00098554470572884,0.00098554877673505,-0.00098554347029421,0.00098555001512986,-0.00098846555774618,0.00098848152104378,-0.00098847979035085,0.00098846728532348,0.64747797215103,125803,2834,0.00660744051801,0.0066074405237087,0.0035953973632687,21.992718575671,-6.405825139463e-05,-6.405825139463e-05,-6.405825139463e-05,3599718.9036413,0.016953276653384
17619200,0.98184569845207,0.016866917008397,0.0063759824868139,0.0063759824873623,0.0041149520342205,-0.001590172270754,0.001590172413126,7.3890862129589e-09,-7.2455127567353e-09,7.8929249365611e-10,-6.5336674727083e-10,-0.0016900643299164,0.0016900698269942,-0.0016900692137273,0.0016900649486771,-0.0016900648045719,0.00169006935066,-0.0016900696793319,0.0016900644695729,-0.0013880423244828,0.0013880563101697,-0.0013880566568203,0.0013880419755222,-7.9790234763098e-10,6.7704305263933e-10,1.8501887761913e-09,-1.9878102564303e-09,-0.0015901724090227,0.0015901722769692,-0.0016900667505158,0.0016900674062951,-0.0016900680202608,0.0016900661230258,-0.0016900662675486,0.0016900678974253,-0.0016900675343059,0.001690066617448,-0.0013880472768423,0.0013880513996004,-0.0013880510010458,0.0013880475904246,-0.0015874961280102,0.0015874932754732,-0.0015874946680039,0.0015874947340419,-7.1323998846336e-09,7.6208283668951e-09,-0.00086203375677478,0.00086203424241745,-1.6244155837484e-09,2.1959352649424e-09,-0.00098417370485696,0.00098416797861346,-0.00098417244077888,0.00098416924674994,-0.00098416878415252,0.00098417289674383,-0.00098416752012257,0.00098417416428026,-0.0009870074898693,0.00098702368399845,-0.00098702192285788,0.00098700925101412,0.6239023278457,125803,2834,0.0066024927414758,0.0066024927458486,0.0035893490407498,20.981354974729,-7.2149160202166e-05,-7.2149160202166e-05,-7.2149160202166e-05,3585751.1812701,0.016937063482031
17819200,0.98231631786994,0.01687373764393,0.0063786095923553,0.006378609592902,0.0041165184586731,-0.0015888897386655,0.0015888898799345,7.4970764228733e-09,-7.3541569799641e-09,7.9487146204599e-10,-6.6110839353356e-10,-0.0016888284897589,0.0016888340615176,-0.0016888334449477,0.0016888291119313,-0.0016888289678788,0.0016888335814075,-0.0016888339153132,0.0016888286280634,-0.0013866977087072,0.0013867119029759,-0.0013867122529462,0.0013866973561184,-7.8942985087171e-10,6.6735287119885e-10,1.8968800696417e-09,-2.0354960899292e-09,-0.0015888898764985,0.0015888897433358,-0.0016888309307637,0.0016888316216743,-0.0016888322309039,0.0016888303078604,-0.0016888304528574,0.0016888321074266,-0.0016888317511845,0.001688830795795,-0.0013867027227296,0.0013867069325422,-0.001386706540522,0.0013867030307359,-0.0015861945573403,0.0015861916916739,-0.0015861931172307,0.0015861931316148,-7.2180132824043e-09,7.7090525088552e-09,-0.00086060687851721,0.00086060736666312,-1.6596383096043e-09,2.2338266510869e-09,-0.00098274734681879,0.00098274153949213,-0.0009827460573701,0.00098274283279228,-0.00098274236698884,0.00098274651642096,-0.0009827410788782,0.00098274780807105,-0.00098557508981549,0.00098559148126674,-0.0009855896929119,0.0009855768786585,0.60341627591247,125803,2834,0.0065971840418396,0.0065971840443963,0.0035834238594003,19.991624333049,-8.006700533561e-05,-8.006700533561e-05,-8.006700533561e-05,3577511.2577616,0.016920241360227
18019200,0.98274823651006,0.016879989867683,0.0063810156736879,0.006381015674242,0.0041179585197533,-0.001587541221895,0.0015875413631976,7.5967397539916e-09,-7.4537869085147e-09,7.951176004678e-10,-6.6125868853038e-10,-0.0016875446238845,0.001687550261651,-0.0016875496449855,0.0016875452459199,-0.001687545101811,0.0016875497817273,-0.0016875501154787,0.0016875447621027,-0.0013852705656425,0.0013852849553105,-0.0013852853058485,0.0013852702124559,-7.8794495494014e-10,6.6566492891909e-10,1.9371327743923e-09,-2.0759506822861e-09,-0.001587541359872,0.0015875412265046,-0.0016875470844456,0.0016875478025437,-0.0016875484106719,0.0016875464617546,-0.0016875466071491,0.0016875482874458,-0.0016875479321222,0.0016875469489411,-0.0013852756385157,0.0013852799264105,-0.0013852795355653,0.0013852759443548,-0.0015848289290112,0.0015848260397572,-0.0015848274925983,0.0015848274766414,-7.3123873183216e-09,7.8058557800523e-09,-0.00085921729838677,0.00085921778900822,-1.6968960683392e-09,2.2740452152627e-09,-0.00098129053106349,0.00098128463605425,-0.00098128921536162,0.00098128595518465,-0.0009812854869183,0.00098128967684784,-0.00098128417327473,0.00098129099455244,-0.00098418177336627,0.00098419837926446,-0.00098419656271939,0.00098418359039593,0.60265702597613,125803,2834,0.0065916033794596,0.0065916033821183,0.0035776506705481,19.020209071201,-8.7838327430389e-05,-8.7838327430389e-05,-8.7838327430389e-05,3573527.7491536,0.016903020526176
18219200,0.98314505533334,0.016885839311736,0.0063832604987919,0.0063832604993522,0.0041193183135922,-0.0015861483569027,0.0015861484985374,7.6921375470663e-09,-7.5490960425919e-09,7.9404176392211e-10,-6.5942265438467e-10,-0.0016862108513762,0.0016862165526565,-0.001686215936972,0.0016862114735771,-0.0016862113289908,0.0016862160735629,-0.0016862164065424,0.0016862109898976,-0.0013838109246057,0.0013838255023069,-0.0013838258514049,0.0013838105721697,-7.8908329892922e-10,6.6685363840079e-10,1.9717684071426e-09,-2.110604567244e-09,-0.0015861484952578,0.0015861483619436,-0.0016862133320523,0.0016862140730172,-0.0016862146820479,0.0016862127096212,-0.0016862128548594,0.0016862145587748,-0.0016862142025573,0.0016862131965381,-0.0013838160571639,0.0013838204139462,-0.001383820020757,0.0013838163625395,-0.0015834243983174,0.001583421483453,-0.0015834229576687,0.001583422919495,-7.4111270724732e-09,7.9067767821615e-09,-0.00085782758148193,0.00085782807450353,-1.7321977633213e-09,2.3122595036871e-09,-0.00097982463184082,0.00097981864888319,-0.00097982329230038,0.00097981999268687,-0.00097981952205969,0.00097982375630933,-0.00097981818362641,0.00097982509780151,-0.00098278345288955,0.00098280028064137,-0.00098279843747845,0.00098278529609037,0.61338750424679,125803,2834,0.0065858393660553,0.0065858393697033,0.0035718764541364,18.04925543227,-9.5605956541842e-05,-9.5605956541842e-05,-9.5605956541842e-05,3568820.6323396,0.016885425904822
18419200,0.98351920566079,0.016891391494223,0.006385388171672,0.0063853881722333,0.004120615150318,-0.0015855304305973,0.0015855305717647,7.7910849194096e-09,-7.6478529739296e-09,7.9522616538651e-10,-6.6227306654183e-10,-0.0016856318401447,0.0016856376083845,-0.0016856369916003,0.001685632463447,-0.0016856323189954,0.001685637128026,-0.0016856374625559,0.0016856319783522,-0.0013831413943676,0.0013831561658475,-0.0013831565149914,0.0013831410414758,-7.8927287102028e-10,6.6702841204261e-10,1.9794904642099e-09,-2.1182178954194e-09,-0.0015855305683795,0.0015855304350857,-0.0016856343522917,0.0016856350981317,-0.0016856357073185,0.0016856337297423,-0.0016856338749086,0.0016856355841248,-0.0016856352277667,0.0016856342167246,-0.0013831466179978,0.0013831509903503,-0.0013831505973667,0.0013831469242801,-0.0015828018363897,0.0015827989163692,-0.0015828003977084,0.001582800354612,-7.5073519079178e-09,8.0034953752984e-09,-0.00085712339327779,0.00085712388663497,-1.7383019885932e-09,2.3185773077524e-09,-0.00097910315322775,0.0009790971020232,-0.00097910180943511,0.00097909845009931,-0.00097909797898189,0.00097910227381611,-0.0009790966364553,0.00097910361938065,-0.0009820905197427,0.00098210754091599,-0.00098210569424249,0.00098209236893316,0.6173840231816,125803,2834,0.0065832818390842,0.0065832818413648,0.0035689517401386,17.476219532541,-0.00010019024373967,-0.00010019024373967,-0.00010019024373967,3565665.3188066,0.016877250584442
18619200,0.98387956241113,0.01689668921342,0.006387419278785,0.0063874192793541,0.0041218506552811,-0.0015855475739805,0.0015855477153114,7.8831144352652e-09,-7.7396145141481e-09,7.934493574903e-10,-6.6050980393771e-10,-0.0016856816976866,0.0016856875267635,-0.0016856869108163,0.0016856823200944,-0.0016856821757814,0.0016856870471811,-0.0016856873803977,0.0016856818364099,-0.0013831084895288,0.0013831234417716,-0.0013831237894645,0.0013831081379085,-7.9471000615482e-10,6.7322664791847e-10,1.9610342694396e-09,-2.0990481875114e-09,-0.0015855477114108,0.0015855475788133,-0.00168568424787,0.0016856849785385,-0.0016856855909061,0.0016856836223264,-0.0016856837670733,0.0016856854680255,-0.0016856851073066,0.0016856841134205,-0.0013831138203422,0.0013831181593887,-0.0013831177622072,0.0013831141311691,-0.0015828142140157,0.0015828112947072,-0.0015828127633231,0.0015828127458079,-7.6112867164262e-09,8.1065131714695e-09,-0.000856983087762,0.00085698358015416,-1.7261607408731e-09,2.3052474031924e-09,-0.00097898675240498,0.00097898064025048,-0.00097898541747631,0.00097898197946112,-0.00097898150957533,0.00097898588061963,-0.00097898017533829,0.00097898721797089,-0.00098197638564049,0.0009819936006442,-0.00098199176356345,0.00098197822557427,0.6117863929611,125803,2834,0.0065833522016302,0.0065833522035566,0.0035683704743355,17.230982719602,-0.00010215213824319,-0.00010215213824319,-0.00010215213824319,3565326.9935116,0.016876803078986
18819200,0.98422691953958,0.01690211738495,0.0063894871354052,0.0063894871359827,0.0041231431135616,-0.0015855682126442,0.0015855683536286,7.9842820981331e-09,-7.8416926857889e-09,7.9849593279148e-10,-6.6492804243414e-10,-0.001685738456393,0.0016857443554015,-0.0016857437369752,0.0016857390812992,-0.0016857389372568,0.0016857438729869,-0.0016857442098269,0.0016857385943058,-0.001383079008873,0.0013830941561636,-0.0013830945085613,0.001383078652853,-7.937920587269e-10,6.7220560491406e-10,1.9459394833772e-09,-2.0841587356129e-09,-0.0015855683502806,0.0015855682175611,-0.0016857410460371,0.0016857417669231,-0.0016857423789217,0.001685740421025,-0.0016857405655254,0.0016857422560762,-0.0016857418960672,0.0016857409112672,-0.0013830844502649,0.0013830887598555,-0.0013830883630077,0.0013830847600391,-0.0015828391948835,0.001582836288101,-0.0015828377448372,0.0015828377344884,-7.7057703763627e-09,8.1995215411865e-09,-0.00085687141197803,0.00085687190300275,-1.7074574685265e-09,2.2851203796447e-09,-0.00097888177790611,0.00097887561447812,-0.00097888045565659,0.00097887694103313,-0.00097887647229733,0.00097888091773848,-0.00097887515113474,0.00097888224192397,-0.00098189953893369,0.00098191692214008,-0.00098191509849995,0.00098190136334935,0.64922936103362,125803,2834,0.0065834372529842,0.0065834372562325,0.003567907650069,16.994005998883,-0.00010404795200894,-0.00010404795200894,-0.00010404795200894,3565849.6240968,0.016876505679582
19019200,0.9845618490818,0.016907665397342,0.0063915892981062,0.0063915892986858,0.0041244868005496,-0.0015856704217785,0.0015856705626036,8.0822061185039e-09,-7.9398769261512e-09,8.0039027950872e-10,-6.668611984952e-10,-0.0016858304708017,0.0016858364361903,-0.0016858358166971,0.0016858310967518,-0.001685830952873,0.0016858359525381,-0.0016858362908362,0.0016858306084824,-0.0013831890126346,0.0013832043504593,-0.0013832047045417,0.0013831886550471,-7.9495859785464e-10,6.7354618717458e-10,1.9293893316822e-09,-2.0674634651787e-09,-0.0015856705593102,0.001585670426749,-0.0016858330993958,0.0016858338085245,-0.0016858344212994,0.001685832473781,-0.0016858326180182,0.0016858342985658,-0.0016858339376279,0.0016858329648503,-0.0013831945647532,0.0013831988427585,-0.0013831984450791,0.0013831948756072,-0.0015829556245756,0.0015829527266418,-0.0015829541719119,0.0015829541752184,-7.8036919401517e-09,8.2962547634353e-09,-0.00085674254430149,0.00085674303413522,-1.6910483269065e-09,2.267337153705e-09,-0.00097886223066422,0.00097885601251148,-0.00097886091976189,0.00097885732769481,-0.00097885686010919,0.00097886138072432,-0.00097885555035957,0.0009788626935044,-0.00098179250080884,0.00098181006177377,-0.00098180825057102,0.00098179431250456,0.68719100223839,125803,2834,0.0065838583916855,0.0065838583951585,0.0035673774712512,16.757350096588,-0.0001059411992273,-0.0001059411992273,-0.0001059411992273,3557593.7986638,0.01687682372554
19219200,0.98489526279486,0.016913350297035,0.0063937383803383,0.0063937383809188,0.0041258735357778,-0.001586836756202,0.0015868368966799,8.179318191032e-09,-8.0369618852724e-09,8.0143538958133e-10,-6.688580682569e-10,-0.0016869411513572,0.0016869471823247,-0.0016869465619466,0.0016869417780091,-0.0016869416344697,0.0016869466975743,-0.001686947037095,0.0016869412887796,-0.0013844035095548,0.0013844190370612,-0.0013844193916123,0.0013844031512791,-7.9692352659212e-10,6.7577725286965e-10,1.8881364059985e-09,-2.0258971353618e-09,-0.0015868368932946,0.0015868367610083,-0.0016869438270411,0.0016869445076358,-0.0016869451217229,0.0016869432005086,-0.0016869433443441,0.0016869449990397,-0.0016869446366384,0.0016869436930093,-0.0013844091972706,0.0013844133956977,-0.0013844129970062,0.0013844095105388,-0.0015841448944425,0.0015841420200993,-0.0015841434386293,0.0015841434740175,-7.9034546280124e-09,8.393482895712e-09,-0.00085745939659094,0.00085745988375967,-1.6518337382988e-09,2.2248761224707e-09,-0.00097982646835641,0.00097982020921377,-0.00097982518471255,0.00097982149715379,-0.00097982103213049,0.00097982564303324,-0.00097981974956988,0.00097982692863681,-0.00098255515598376,0.00098257288012692,-0.00098257109934967,0.00098255693862212,0.70677987082947,125803,2834,0.0065886816396041,0.0065886816425432,0.0035703652885612,17.022152110227,-0.00010382278311819,-0.00010382278311819,-0.00010382278311819,3547984.2618533,0.016889672614211
19419200,0.98523230443417,0.016918980003322,0.0063958717399665,0.0063958717405507,0.0041272365228053,-0.0015885291495082,0.001588529287242,8.2933089277521e-09,-8.1527571722176e-09,8.1833400792837e-10,-6.9047799431241e-10,-0.001688567734663,0.0016885738518504,-0.0016885732216185,0.0016885683721825,-0.0016885682293976,0.0016885733557981,-0.0016885737099937,0.0016885678687858,-0.0013861493007293,0.0013861650418704,-0.0013861654111944,0.0013861489280145,-7.8178936098931e-10,6.5838192312832e-10,1.8472160274105e-09,-1.9868330216996e-09,-0.0015885292855067,0.0015885291512051,-0.0016885704634444,0.0016885711250703,-0.0016885717318315,0.001688569846777,-0.0016885699908512,0.0016885716076566,-0.0016885712575182,0.0016885703266575,-0.0013861551417825,0.0013861592511544,-0.001386158867822,0.0013861554433026,-0.001585853727173,0.001585850912461,-0.0015858523101264,0.0015858523375416,-7.985243059207e-09,8.4731062900073e-09,-0.00085858138612238,0.00085858187037833,-1.5953694455935e-09,2.1646195216297e-09,-0.00098126653866521,0.00098126026050113,-0.00098126529290405,0.00098126151087821,-0.0009812610477423,0.00098126574922398,-0.00098125980484924,0.00098126699455628,-0.00098373367823233,0.00098375151615605,-0.00098374977957281,0.00098373542315266,0.69264757210164,125803,2834,0.0065956809364748,0.0065956809363897,0.0035750385812285,17.538405745971,-9.9692754032234e-05,-9.9692754032234e-05,-9.9692754032234e-05,3539494.1250976,0.016908661884358
19619200,0.9855728521273,0.016924532058884,0.0063979813825631,0.0063979813831628,0.0041285692931577,-0.0015901930219134,0.0015901931611183,8.3820191349514e-09,-8.2409603867876e-09,8.1004989035542e-10,-6.78910879621e-10,-0.0016901910119736,0.0016901971827565,-0.0016901965572436,0.0016901916437061,-0.0016901915008187,0.0016901966921191,-0.0016901970391464,0.0016901911476075,-0.0013878337095364,0.0013878496288228,-0.0013878499906784,0.0013878333436275,-7.9262633939765e-10,6.7085265898058e-10,1.8001992674417e-09,-1.9385310546077e-09,-0.0015901931584879,0.0015901930256189,-0.0016901937855482,0.0016901944098595,-0.0016901950220081,0.0016901931622422,-0.0016901933055875,0.0016901948986668,-0.0016901945403658,0.0016901936508491,-0.001387839679427,0.0013878437035171,-0.0013878433094015,0.0013878399901006,-0.0015875274581104,0.0015875246523814,-0.0015875260130045,0.0015875260959553,-8.0941954548559e-09,8.5787796982866e-09,-0.00085970136153705,0.00085970184297015,-1.5598758673317e-09,2.1259896208937e-09,-0.0009826670183008,0.00098266069132436,-0.0009826657978225,0.0009826619163278,-0.00098266145631929,0.00098266625116316,-0.00098266023771172,0.00098266747246734,-0.00098492383096004,0.000984941852537,-0.00098494014111113,0.00098492554460295,0.67638953028415,125803,2834,0.0066025624451068,0.0066025624473322,0.0035797025070352,18.061063394792,-9.5511492841664e-05,-9.5511492841664e-05,-9.5511492841664e-05,3535799.3205644,0.016927402324398
19819200,0.98591663517009,0.016929979742776,0.006400057655289,0.0064000576558934,0.0041298644315932,-0.0015918132171759,0.0015918133570132,8.4746566499389e-09,-8.3331985765036e-09,8.0666514246303e-10,-6.7440536090857e-10,-0.0016917944378443,0.0016918006685982,-0.0016918000450518,0.0016917950673469,-0.0016917949243991,0.0016918001802239,-0.0016918005240802,0.0016917945743163,-0.0013894420270457,0.0013894581293659,-0.001389458488785,0.0013894416640538,-7.9696000412481e-10,6.75825892821e-10,1.7619362807543e-09,-1.8997203457078e-09,-0.0015918133539715,0.0015918132216897,-0.0016917972549177,0.0016917978515929,-0.001691798466253,0.001691796629134,-0.0016917967721576,0.0016917983430972,-0.0016917979813016,0.0016917971213187,-0.0013894481241012,0.0013894520753289,-0.0013894516779341,0.0013894484386436,-0.0015891521082108,0.0015891493185715,-0.0015891506523441,0.0015891507716316,-8.1984592328481e-09,8.6808602088559e-09,-0.00086081648797793,0.00086081696727705,-1.5274834913323e-09,2.0911488250603e-09,-0.00098401581712937,0.00098400944209217,-0.00098401461938965,0.00098401064423716,-0.00098401018668079,0.00098401507030762,-0.00098400899024335,0.00098401626963879,-0.00098612024854668,0.00098613844817772,-0.00098613676095419,0.00098612193711923,0.65786894047626,125803,2834,0.0066092636746382,0.0066092636776865,0.0035843447767962,18.583970266907,-9.1328237864742e-05,-9.1328237864742e-05,-9.1328237864742e-05,3536376.9237823,0.016945754214125
20019200,0.98625413870581,0.016935516822131,0.0064021613662051,0.0064021613668107,0.0041311940891151,-0.0015925355625275,0.0015925357027414,8.574098867871e-09,-8.4333330464643e-09,8.0785307711362e-10,-6.7326287486955e-10,-0.0016925245112866,0.0016925308083985,-0.0016925301849928,0.0016925251407696,-0.0016925249976946,0.0016925303202193,-0.0016925306640968,0.0016925246476242,-0.0013901361927294,0.0013901524886918,-0.0013901528504942,0.0013901358282137,-7.9401831687369e-10,6.7249029620981e-10,1.7648124136847e-09,-1.9031867802334e-09,-0.0015925357003978,0.0015925355677042,-0.0016925273589701,0.0016925279593171,-0.0016925285722985,0.0016925267348559,-0.0016925268781043,0.0016925284489126,-0.0016925280894342,0.0016925272247904,-0.0013901423820279,0.0013901463370819,-0.0013901459413814,0.0013901426928735,-0.0015898803748454,0.0015898775890408,-0.0015898789216665,0.0015898790318728,-8.2943558436608e-09,8.7766236959353e-09,-0.00086118734493354,0.00086118782440669,-1.5281999502023e-09,2.0924179864731e-09,-0.0009845259108421,0.00098451947127811,-0.00098452471236193,0.00098452067417021,-0.0009845202164463,0.00098452516361533,-0.00098451901940115,0.00098452636346414,-0.00098655550802366,0.00098657389500397,-0.00098657220556141,0.00098655719503532,0.68048383183338,125803,2834,0.0066122503083332,0.0066122503142049,0.0035858923452417,18.671503946837,-9.0627968425303e-05,-9.0627968425303e-05,-9.0627968425303e-05,3535831.073846,0.016953403462176
20219200,0.98658295875685,0.016941062541137,0.0064042632979465,0.0064042632985423,0.0041325359446478,-0.0015930539712036,0.0015930541123763,8.664293292552e-09,-8.5221860210081e-09,7.9834394184647e-10,-6.6345130431218e-10,-0.0016930255167491,0.0016930318689509,-0.0016930312505597,0.0016930261411445,-0.001693025997391,0.0016930313864141,-0.0016930317232696,0.0016930256545653,-0.0013906586675529,0.001390675146524,-0.0013906754989973,0.0013906583118521,-7.9873540077002e-10,6.7783497795931e-10,1.7792396852429e-09,-1.9169297270318e-09,-0.0015930541090562,0.0015930539769829,-0.0016930283886369,0.0016930289962942,-0.0016930296115793,0.0016930277619174,-0.0016930279049816,0.00169302948838,-0.0016930291254154,0.0016930282553833,-0.0013906649340148,0.0013906689200635,-0.0013906685198221,0.0013906652499296,-0.0015904116289342,0.0015904088233651,-0.0015904101656243,0.0015904102774424,-8.3998026236496e-09,8.8834588391656e-09,-0.00086133713928057,0.00086133762019868,-1.5500241540889e-09,2.1157533528528e-09,-0.00098484886314001,0.00098484233994129,-0.00098484765018321,0.00098484355758475,-0.00098484309860427,0.00098484810261879,-0.00098484188605234,0.0009848493176898,-0.00098675373109655,0.00098677234406055,-0.00098677063821931,0.00098675543476437,0.69908659049902,125803,2834,0.0066143924467949,0.0066143924518903,0.0035865230922644,18.638411177033,-9.0892710583735e-05,-9.0892710583735e-05,-9.0892710583735e-05,3529256.4304186,0.016958402799038
20419200,0.98690326832801,0.016946472103821,0.0064063137543946,0.0064063137549848,0.0041338445944421,-0.0015935830501178,0.0015935831907594,8.7676872555845e-09,-8.6256213747761e-09,8.0072735232903e-10,-6.6726417230227e-10,-0.0016935202983228,0.0016935267208649,-0.0016935261010363,0.0016935209242709,-0.0016935207805826,0.0016935262369254,-0.0016935265757224,0.0016935204355677,-0.0013912100985909,0.0013912267795611,-0.0013912271342335,0.0013912097404557,-7.9149708607203e-10,6.6961799629495e-10,1.8067193218979e-09,-1.9452119373201e-09,-0.0015935831878001,0.001593583054838,-0.0016935231946363,0.0016935238245785,-0.0016935244358866,0.00169352257187,-0.001693522715705,0.0016935243122434,-0.0016935239547485,0.0016935230601373,-0.0013912164428174,0.0013912204781293,-0.001391220084556,0.0013912167521382,-0.0015909537361554,0.001590950927046,-0.0015909522908575,0.0015909523676633,-8.4909377680807e-09,8.9766121383374e-09,-0.00086145987364928,0.00086146035638312,-1.5709748640058e-09,2.1386569126041e-09,-0.0009851843445408,0.00098517774646344,-0.00098518311647322,0.00098517897892419,-0.00098517851798764,0.00098518357079981,-0.00098517729121276,0.00098518480044169,-0.00098691882323938,0.00098693763182205,-0.00098693591061622,0.00098692054509517,0.69998400276509,125803,2834,0.0066165781179123,0.0066165781215586,0.0035870430713107,18.602178987907,-9.1182568096744e-05,-9.1182568096744e-05,-9.1182568096744e-05,3519629.2951286,0.016963378249487
20619200,0.98721529862757,0.016951210119244,0.0064081285942807,0.0064081285948713,0.0041349529300925,-0.0015940681404504,0.0015940682814662,8.8643031408591e-09,-8.7218261744914e-09,7.977353222629e-10,-6.63911580604e-10,-0.0016939809867484,0.0016939874717895,-0.0016939868537134,0.0016939816110098,-0.001693981467017,0.0016939869898797,-0.0016939873262301,0.0016939811244908,-0.0013917006895404,0.0013917175616951,-0.0013917179138395,0.0013917003340465,-7.905025961589e-10,6.6848554909827e-10,1.8336047025171e-09,-1.9722126186884e-09,-0.0015940682783739,0.0015940681452895,-0.001693983905182,0.0016939845536009,-0.0016939851641842,0.001693983282876,-0.0016939834270203,0.0016939850404434,-0.0016939846836844,0.0016939837705231,-0.0013917071036933,0.0013917111907858,-0.0013917107978516,0.0013917074121185,-0.0015914337749808,0.0015914309497543,-0.0015914323316682,0.0015914323885941,-8.5892414707745e-09,9.0768368311007e-09,-0.00086154621204563,0.00086154669674319,-1.5978809890826e-09,2.1678531644838e-09,-0.000985483124998,0.00098547644403848,-0.00098548187830598,0.00098547769512086,-0.00098547723233745,0.00098548233448532,-0.00098547598680354,0.00098548358289833,-0.00098703743697875,0.00098705646066619,-0.00098705471891576,0.0009870391794439,0.63099124196454,125803,2834,0.0066185817327377,0.0066185817363546,0.0035874117020162,18.565824151195,-9.1473406790436e-05,-9.1473406790436e-05,-9.1473406790436e-05,3511235.4288809,0.016967829832394
20819200,0.98750474699582,0.016955931057434,0.0064099233558085,0.0064099233563998,0.0041360843452256,-0.0015928457881946,0.0015928459314833,8.9502405999404e-09,-8.8074263819932e-09,7.8917790692136e-10,-6.4958286298355e-10,-0.0016928088571134,0.0016928153943517,-0.0016928147834344,0.0016928094766437,-0.0016928093303542,0.0016928149199737,-0.0016928152475536,0.0016928089974862,-0.0013904222061217,0.0013904392472847,-0.0013904395965416,0.0013904218590292,-7.9547375011709e-10,6.738420024885e-10,1.9009612662841e-09,-2.0395789352158e-09,-0.0015928459283328,0.0015928457956294,-0.0016928117793781,0.0016928124700522,-0.0016928130846613,0.0016928111554891,-0.0016928112988418,0.0016928129607276,-0.0016928125991702,0.0016928116455534,-0.0013904286341179,0.0013904328535674,-0.0013904324577263,0.0013904289467394,-0.001590207443466,0.0015902045620615,-0.0015902059820602,0.0015902060104333,-8.6958375661886e-09,9.1901719202621e-09,-0.00086030931767435,0.00086030980921627,-1.6733064937143e-09,2.2521800447967e-09,-0.0009841977275828,0.00098419092736185,-0.00098419642877444,0.0009841922317937,-0.00098419176329959,0.00098419689096822,-0.00098419046323385,0.00098419819205573,-0.00098581211794848,0.0009858314193192,-0.00098582961580453,0.00098581391796656,0.67642717477068,125803,2834,0.0066135227382554,0.0066135227471376,0.0035822743669512,17.74325998128,-9.8053920149759e-05,-9.8053920149759e-05,-9.8053920149759e-05,3507558.1071583,0.016952315572608
21019200,0.98777199108614,0.016960155000589,0.0064115335268548,0.0064115335274308,0.0041370879463031,-0.0015914973055368,0.0015914974473651,9.0610199357078e-09,-8.9182359920122e-09,7.9403009598444e-10,-6.5852533526774e-10,-0.0016914598883944,0.0016914665020756,-0.0016914658867633,0.0016914605105547,-0.0016914603656541,0.001691466023464,-0.0016914663561864,0.00169146002687,-0.0013890780443382,0.0013890953047925,-0.0013890956543034,0.0013890776918076,-7.8432266953965e-10,6.6141877160273e-10,1.9797464719372e-09,-2.1192655462195e-09,-0.0015914974445441,0.0015914973106296,-0.0016914628208815,0.0016914635700687,-0.0016914641765477,0.0016914622015687,-0.0016914623470094,0.0016914640526973,-0.0016914637003647,0.0016914626846493,-0.0013890845109238,0.0013890888804405,-0.0013890884908238,0.0013890848120372,-0.001588856976816,0.0015888540662435,-0.001588855544887,0.0015888554899301,-8.7794337558233e-09,9.2762473732161e-09,-0.00085888754042052,0.00085888803467284,-1.7375363103573e-09,2.3189952800277e-09,-0.00098281739666415,0.00098281049803032,-0.00098281605298961,0.00098281184612961,-0.00098281137407623,0.00098281651854088,-0.00098281003163756,0.00098281786375574,-0.00098436269005191,0.00098438220063768,-0.00098438035191922,0.00098436453780418,0.65601664888494,125803,2834,0.0066079406216284,0.006607940626336,0.0035763720373939,16.832746098525,-0.0001053380312118,-0.0001053380312118,-0.0001053380312118,3493238.9223845,0.016934960141519
21219200,0.98801890241473,0.016964080475749,0.0064130281021691,0.0064130281027433,0.0041380242708366,-0.0015900667058208,0.0015900668477734,9.1600885526413e-09,-9.0169055436075e-09,7.9270234513455e-10,-6.5744285639555e-10,-0.0016900479674175,0.0016900546461424,-0.0016900540314867,0.0016900485889375,-0.0016900484438551,0.0016900541684563,-0.0016900545000847,0.0016900481060838,-0.0013876308116908,0.0013876482674262,-0.0013876486156787,0.0013876304605544,-7.8240815308564e-10,6.5923530892045e-10,2.04539637228e-09,-2.1851206538066e-09,-0.0015900668449109,0.0015900667107454,-0.0016900509104765,0.0016900517042256,-0.0016900523092116,0.0016900502917794,-0.0016900504378414,0.0016900521855268,-0.0016900518344649,0.0016900507736404,-0.0013876373132409,0.0013876418101358,-0.0013876414219094,0.0013876376123929,-0.0015874244819295,0.0015874215315703,-0.0015874230551485,0.0015874229520925,-8.8743197456965e-09,9.3750726129082e-09,-0.0008574692626062,0.00085746976089355,-1.7995624800942e-09,2.3857612828952e-09,-0.00098137418390686,0.00098136718148963,-0.00098137279720902,0.00098136857255955,-0.0009813680965526,0.00098137326665977,-0.00098136671124308,0.00098137465484902,-0.00098292211985716,0.00098294186665212,-0.00098293997158633,0.0009829240150669,0.65967101896929,125803,2834,0.0066020196724226,0.0066020196766933,0.0035704815105704,15.919781325059,-0.00011264174939953,-0.00011264174939953,-0.00011264174939953,3483339.1595602,0.016916927416682
21419200,0.98825049808368,0.016967786000111,0.006414437271517,0.0064144372720909,0.0041389114565028,-0.0015890597813438,0.00158905992271,9.2578581094955e-09,-9.1141209540375e-09,7.9163857492612e-10,-6.5917698641907e-10,-0.0016890522923612,0.0016890590365554,-0.0016890584218549,0.0016890529143505,-0.0016890527692167,0.0016890585585898,-0.0016890588906557,0.0016890524309943,-0.0013866119154768,0.0013866295641888,-0.00138662991003,0.0013866115656283,-7.819711908463e-10,6.5869782127737e-10,2.085049843325e-09,-2.2245838980955e-09,-0.0015890599192856,0.0015890597850891,-0.0016890552558407,0.001689056076239,-0.0016890566810811,0.0016890546376663,-0.0016890547838141,0.0016890565572718,-0.0016890562065411,0.0016890551188485,-0.001386618477547,0.0013866230519634,-0.0013866226642775,0.0013866187773682,-0.0015864189851965,0.0015864160095672,-0.0015864175633325,0.001586417432899,-8.9711355402969e-09,9.4747249131282e-09,-0.00085643936401827,0.00085643986480395,-1.8377582621749e-09,2.4264626563316e-09,-0.00098034013573433,0.00098033304411676,-0.00098033872278213,0.00098033446159148,-0.00098033398299355,0.0009803391946803,-0.00098033257136378,0.0009803406090441,-0.00098188072941434,0.00098190069829415,-0.00098189877569319,0.00098188265607375,0.66373453938282,125803,2834,0.0065978519420164,0.0065978519426787,0.0035662047048626,15.231076221177,-0.00011815139023058,-0.00011815139023058,-0.00011815139023058,3475295.109056,0.016904101775184
21619200,0.98846820346836,0.016971298976408,0.0064157716193999,0.0064157716199825,0.0041397557370259,-0.0015880900055741,0.001588090147269,9.3549513951858e-09,-9.2117391615742e-09,7.9328616012293e-10,-6.5883694239542e-10,-0.0016880903852227,0.0016880971945717,-0.0016880965796121,0.0016880910075414,-0.0016880908624157,0.0016880967162554,-0.0016880970487385,0.0016880905239207,-0.0013856365624689,0.0013856543993795,-0.001385654748089,0.0013856362110915,-7.8312868542681e-10,6.5998573669955e-10,2.1093724337368e-09,-2.2490107954184e-09,-0.0015880901443142,0.0015880900101959,-0.0016880933730184,0.0016880942087959,-0.0016880948141904,0.0016880927538623,-0.0016880929000491,0.0016880946906724,-0.0016880943387583,0.0016880932360371,-0.0013856431928068,0.0013856478153533,-0.00138564742655,0.0013856434925082,-0.0015854499504637,0.0015854469561692,-0.0015854485232661,0.0015854483798271,-9.0688645629086e-09,9.5737382258395e-09,-0.00085544822118284,0.0008554487235041,-1.861543355279e-09,2.4524926980839e-09,-0.00097935428461553,0.00097934711221372,-0.00097935285506924,0.00097934854617131,-0.00097934806630319,0.0009793533283482,-0.00097934663805282,0.00097935475939966,-0.00098087402113502,0.00098089420006929,-0.00098089225844904,0.00098087596408402,0.66920855334979,125803,2834,0.0065938378631284,0.00659383786658,0.0035620890668242,14.566709441371,-0.00012346632446903,-0.00012346632446903,-0.00012346632446903,3466864.8781895,0.016891752786444
21819200,0.98867297900752,0.01697455641853,0.0064170101885664,0.0064170101891503,0.0041405360408137,-0.0015871092633423,0.0015871094050584,9.4509217767095e-09,-9.3078105283069e-09,7.933095751135e-10,-6.5866639107623e-10,-0.0016871127662061,0.0016871196396468,-0.0016871190246858,0.0016871133885055,-0.0016871132434698,0.0016871191612235,-0.0016871194937756,0.0016871129049624,-0.001384656856799,0.0013846748816399,-0.0013846752302332,0.001384656505312,-7.8572514081276e-10,6.6294649657264e-10,2.1242348815619e-09,-2.2635573243775e-09,-0.0015871094019671,0.0015871092681786,-0.0016871157818594,0.0016871166260142,-0.0016871172327311,0.0016871151611035,-0.001687115307129,0.0016871171095392,-0.001687116755514,0.0016871156451953,-0.0013846635653382,0.0013846682188129,-0.0013846678273298,0.0013846638669549,-0.0015844680062589,0.0015844649967829,-0.0015844665728559,0.0015844664252809,-9.1682458367151e-09,9.6737651777318e-09,-0.00085444851034998,0.00085444901340097,-1.8774701036947e-09,2.4693470247868e-09,-0.00097836953554503,0.00097836228658655,-0.00097836809517042,0.00097836373138584,-0.00097836325085416,0.00097836856912996,-0.00097836181162085,0.00097837001116296,-0.00097985235130615,0.00097987273708893,-0.00097987078353884,0.00097985430539242,0.65988854843977,125803,2834,0.0065897782813409,0.0065897782849552,0.0035579380743191,13.903023171654,-0.00012877581462677,-0.00012877581462677,-0.00012877581462677,3457534.2614444,0.016879275551859
22019200,0.98887741885033,0.016977757882043,0.0064182287228648,0.0064182287234495,0.0041413004357284,-0.0015878960912803,0.0015878962323926,9.5476888988344e-09,-9.4042248313867e-09,7.9480243439003e-10,-6.6241121655674e-10,-0.0016879033469927,0.0016879102863489,-0.0016879096698533,0.001687903970619,-0.0016879038260251,0.0016879098060833,-0.0016879101406363,0.0016879034854282,-0.0013854182099681,0.0013854364239924,-0.0013854367725562,0.0013854178578953,-7.8981444659316e-10,6.6758125407026e-10,2.0748286236641e-09,-2.2134844312502e-09,-0.0015878962289528,0.0015878960957212,-0.0016879064135721,0.001687907222443,-0.0016879078317788,0.0016879057906989,-0.0016879059360698,0.0016879077088511,-0.0016879073516607,0.0016879062778142,-0.0013854250628757,0.0013854296222829,-0.0013854292284322,0.0013854253692361,-0.0015852612823869,0.0015852582978137,-0.0015852598431583,0.0015852597379907,-9.2691573799066e-09,9.771514258388e-09,-0.00085504373820558,0.00085504423782286,-1.8310490355581e-09,2.4186668796858e-09,-0.00097902617853953,0.00097901889244102,-0.00097902477053285,0.00097902030481798,-0.00097901982757735,0.0009790252410415,-0.0009790184207017,0.00097902665082282,-0.00098049581427646,0.00098051635923497,-0.00098051444295044,0.00098049773471241,0.64982378755167,125803,2834,0.0065930335524491,0.006593033554515,0.0035604134837045,14.153209465492,-0.00012677432427607,-0.00012677432427607,-0.00012677432427607,3460986.2802474,0.016888413443413
22219200,0.989082719401,0.016980948120466,0.0064194439308319,0.0064194439314216,0.0041420602582127,-0.0015888614105786,0.0015888615514237,9.6455546208685e-09,-9.5030290946902e-09,7.9911068607001e-10,-6.6583915154156e-10,-0.0016888900558478,0.0016888970628257,-0.0016888964441558,0.0016888906814581,-0.001688890537343,0.0016888965799722,-0.0016888969175575,0.0016888901937207,-0.001386339117466,0.0013863575197561,-0.0013863578728276,0.0013863387612394,-7.9263249309201e-10,6.7084201926609e-10,2.0158705826244e-09,-2.1542551007134e-09,-0.0015888615482203,0.0015888614153507,-0.0016888931761328,0.0016888939441281,-0.001688894555333,0.0016888925518311,-0.0016888926965478,0.0016888944325565,-0.0016888940732209,0.0016888930409411,-0.0013863461188744,0.0013863505647524,-0.0013863501686669,0.0013863464275314,-0.0015862267309455,0.0015862237801779,-0.0015862252836925,0.0015862252241615,-9.3688054906543e-09,9.8670007520471e-09,-0.00085581233454515,0.00085581283005793,-1.7738086495031e-09,2.356771714559e-09,-0.00097984891031814,0.00097984159485036,-0.00097984754202784,0.0009798429675375,-0.00097984249433041,0.00097984800860891,-0.00097984112716664,0.00097984937864385,-0.00098131915030373,0.00098133984199083,-0.00098133796835972,0.00098132102551917,0.64497435216661,125803,2834,0.006597027668586,0.0065970276718327,0.0035636085510512,14.499489376349,-0.00012400408498921,-0.00012400408498921,-0.00012400408498921,3467904.0793292,0.016899786098073
22419200,0.98928882081678,0.016984285320527,0.0064207101840049,0.006420710184596,0.0041428649519264,-0.001589832956652,0.0015898330971693,9.7430053301103e-09,-9.6009215789067e-09,8.0179813332329e-10,-6.6871316127195e-10,-0.001689887158563,0.0016898942320396,-0.001689893611611,0.0016898877853329,-0.0016898876418186,0.001689893747277,-0.0016898940868933,0.001689887295984,-0.0013872620065986,0.001387280597911,-0.0013872809533624,0.0013872616477146,-7.9535133303332e-10,6.7404166565191e-10,1.9573690878443e-09,-2.0953265551238e-09,-0.0015898330938723,0.0015898329614236,-0.0016898903321947,0.0016898910596462,-0.0016898916723945,0.0016898897062207,-0.0016898898505011,0.001689891549905,-0.0016898911884871,0.0016898901976519,-0.0013872691579807,0.0013872734910728,-0.0013872730930958,0.0013872694692752,-0.0015872028933877,0.0015871999762013,-0.0015872014401243,0.0015872014259104,-9.4690983481487e-09,9.9631953372215e-09,-0.00085659363809863,0.00085659412946154,-1.7176621922057e-09,2.2957165536631e-09,-0.00098067377468001,0.0009806664286006,-0.0009806724453838,0.00098066776214216,-0.00098066729300943,0.00098067290789073,-0.00098066596498074,0.00098067423906558,-0.00098216185758159,0.00098218269821961,-0.00098218086738279,0.00098216368937979,0.67139353904158,125803,2834,0.0066010476640701,0.0066010476671235,0.003566856169072,14.848466084907,-0.00012121227132075,-0.00012121227132075,-0.00012121227132075,3475260.8056246,0.016911264843834
22619200,0.98949548180014,0.016987669156544,0.0064219931617868,0.0064219931623795,0.0041436828323772,-0.0015908435349487,0.0015908436752261,9.841171237621e-09,-9.6994819528373e-09,8.0421429633469e-10,-6.7108810436612e-10,-0.0016908960723065,0.0016909032126863,-0.0016909025910676,0.0016908967004528,-0.001690896557097,0.0016909027263589,-0.0016909030679442,0.0016908962093866,-0.0013882560138296,0.0013882747956925,-0.0013882751534437,0.0013882556529707,-7.967182675097e-10,6.7555619320134e-10,1.9040118338894e-09,-2.0418777846015e-09,-0.00159084367217,0.0015908435398663,-0.0016908992971492,0.0016908999883667,-0.0016909006024129,0.0016908986709204,-0.0016908988146044,0.0016909004797623,-0.0016909001174007,0.0016908991630225,-0.0013882633118975,0.0013882675413803,-0.0013882671427943,0.0013882636247166,-0.0015882204434393,0.0015882175592493,-0.0015882189867819,0.0015882190110707,-9.5683158318491e-09,1.0059078240565e-08,-0.00085733933647751,0.0008573398244546,-1.6657764024372e-09,2.2399155596236e-09,-0.00098153528474538,0.00098152790630495,-0.00098153399138394,0.00098152920403167,-0.00098152873815965,0.00098153445066135,-0.00098152744597109,0.00098153574577099,-0.00098295835198162,0.00098297934408052,-0.00098297755253102,0.00098296014432412,0.67880267658035,125803,2834,0.0066052280783818,0.006605228082236,0.0035699588330644,15.186652343092,-0.00011850678125526,-0.00011850678125526,-0.00011850678125526,3476611.3532706,0.016922923019421
22819200,0.98969970246233,0.016991003499505,0.0064232580690015,0.006423258069594,0.0041444873609091,-0.0015914286059621,0.0015914287462634,9.9388545023467e-09,-9.7973429500157e-09,8.0444029366593e-10,-6.7098173120399e-10,-0.0016914759169914,0.0016914831225836,-0.0016914825008849,0.0016914765451285,-0.0016914764018014,0.0016914826361649,-0.0016914829778651,0.0016914760540045,-0.0013888336252165,0.0013888525982376,-0.0013888529563475,0.0013888332640743,-7.9678791891131e-10,6.7565119186009e-10,1.8721658416648e-09,-2.0100304791471e-09,-0.0015914287432472,0.0015914286109613,-0.0016914791848338,0.0016914798548974,-0.0016914804691024,0.0016914785587445,-0.0016914787022232,0.001691480346306,-0.0016914799840582,0.0016914790508431,-0.0013888410491786,0.0013888452163449,-0.0013888448177942,0.0013888413623646,-0.0015888099775714,0.0015888071144486,-0.0015888085201191,0.0015888085657336,-9.6674541895068e-09,1.015622290695e-08,-0.00085768617638575,0.00085768666235243,-1.6351685486185e-09,2.2069461324852e-09,-0.00098199893179298,0.00098199150717123,-0.00098199765962415,0.00098199278372823,-0.00098199231978732,0.00098199811700101,-0.00098199104877764,0.00098199939088767,-0.00098333988185432,0.00098336104279942,-0.00098335927400153,0.00098334165053,0.67691802819753,125803,2834,0.0066076473268022,0.0066076473309102,0.0035714051310238,15.303382475522,-0.00011757294019582,-0.00011757294019582,-0.00011757294019582,3474048.0016602,0.016929315006988
23019200,0.98990140869142,0.016994075863625,0.0064244315863641,0.0064244315869557,0.0041452126903052,-0.0015919797436309,0.001591979883956,1.0036912716383e-08,-9.8953101445969e-09,8.0394140837712e-10,-6.7057940825938e-10,-0.0016920265455922,0.0016920338163605,-0.0016920331951295,0.0016920271737984,-0.0016920270301789,0.0016920333302356,-0.0016920336718246,0.0016920266826415,-0.0013893681596083,0.0013893873251389,-0.0013893876824146,0.0013893677993002,-7.9613405241589e-10,6.7480234895147e-10,1.8466726892846e-09,-1.9847044078265e-09,-0.001591979881128,0.0015919797486952,-0.0016920298540595,0.0016920305076831,-0.001692031122045,0.0016920292290532,-0.0016920293722199,0.00169203099879,-0.0016920306372723,0.0016920297200858,-0.0013893757055727,0.0013893798223821,-0.0013893794243722,0.0013893760185847,-0.0015893600864431,0.0015893572415486,-0.0015893586299945,0.0015893586905736,-9.7660677658786e-09,1.025345584408e-08,-0.00085800731700744,0.00085800780158825,-1.6107284821851e-09,2.1808621076054e-09,-0.00098242830187133,0.00098242082765372,-0.00098242704665739,0.0009824220875515,-0.00098242162480864,0.00098242750285052,-0.00098242037047225,0.00098242875957477,-0.00098369431240957,0.00098371564690185,-0.00098371389675325,0.00098369606294485,0.63260002901024,125803,2834,0.0066099262225473,0.0066099262271785,0.0035727444043457,15.414621401712,-0.00011668302878631,-0.00011668302878631,-0.00011668302878631,3472201.7142977,0.016935312760148
23219200,0.99010059823512,0.01699724017388,0.0064256349084538,0.0064256349090439,0.0041459703563819,-0.0015924394469736,0.0015924395873692,1.0134282775853e-08,-9.9924627808859e-09,8.0243667028701e-10,-6.6923340861404e-10,-0.0016925293981696,0.0016925367328999,-0.001692536112197,0.0016925300251598,-0.0016925298817463,0.0016925362476886,-0.0016925365879485,0.0016925295353137,-0.001389760359412,0.0013897797169478,-0.0013897800731353,0.0013897600000318,-7.9556991282644e-10,6.7427942531464e-10,1.8268946807548e-09,-1.9648637889842e-09,-0.0015924395842912,0.001592439451878,-0.0016925327451555,0.0016925333859871,-0.0016925339997257,0.0016925321200544,-0.0016925322634471,0.0016925338765397,-0.0016925335154867,0.0016925326112787,-0.0013897680209088,0.0013897720984493,-0.0013897717014605,0.0013897683337978,-0.0015898224634945,0.0015898196328726,-0.0015898210091849,0.0015898210821925,-9.8653910567085e-09,1.0351426425028e-08,-0.00085835795948705,0.00085835844260471,-1.5921110395491e-09,2.1604221205127e-09,-0.00098276466305579,0.00098275713452684,-0.00098276342077623,0.0009827583812403,-0.00098275792001234,0.00098276387539421,-0.00098275667882931,0.00098276511942003,-0.0009841020802913,0.00098412359333342,-0.00098412185755427,0.00098410381680162,0.659000099002,125803,2834,0.0066118285261141,0.006611828529896,0.0035742015113437,15.525647686533,-0.00011579481850773,-0.00011579481850773,-0.00011579481850773,3479293.6605084,0.01694066356973
23419200,0.99029811860039,0.017000346221953,0.0064268173022924,0.0064268173028828,0.0041467116167783,-0.0015930876091822,0.0015930877492744,1.0235537020958e-08,-1.0093729493316e-08,8.0389002559388e-10,-6.7155645494069e-10,-0.0016931922444778,0.0016931996476018,-0.0016931990259791,0.0016931928724801,-0.0016931927290816,0.0016931991614277,-0.001693199502952,0.0016931923813102,-0.0013903732910982,0.0013903928463835,-0.0013903932038821,0.0013903729305852,-7.9152882769058e-10,6.6967504997583e-10,1.8143774330962e-09,-1.9528016194863e-09,-0.001593087746405,0.0015930876134827,-0.0016931956288325,0.0016931962636289,-0.0016931968753282,0.0016931950061906,-0.0016931951498441,0.0016931967516846,-0.00169319639387,0.0016931954944121,-0.0013903810657588,0.001390385116035,-0.0013903847233111,0.0013903813757367,-0.0015904745689288,0.0015904717550781,-0.0015904731250427,0.0015904731975083,-9.9603808824064e-09,1.044575709782e-08,-0.00085881234031143,0.00085881282259753,-1.5765339998894e-09,2.1437319621439e-09,-0.00098328153516684,0.00098327395323999,-0.00098328030344149,0.00098327518933965,-0.00098327472881535,0.00098328075732887,-0.00098327349853424,0.00098328199048456,-0.00098460158171805,0.00098462326822128,-0.00098462154456754,0.00098460330787348,0.6525636833024,125803,2834,0.006614509741768,0.0066145097447297,0.003576092266893,15.704245383265,-0.00011436603693388,-0.00011436603693388,-0.00011436603693388,3481176.1985261,0.016948040131862
23619200,0.99049814282579,0.01700356152504,0.0064280386674684,0.0064280386680613,0.0041474841895107,-0.001594388635305,0.0015943887752971,1.0333308536223e-08,-1.0191048591167e-08,8.0208262692632e-10,-6.7083570490028e-10,-0.001694510589933,0.0016945180573894,-0.0016945174362701,0.0016945112172377,-0.0016945110738069,0.0016945175718215,-0.0016945179126524,0.0016945107267375,-0.0013916265023158,0.0013916462513296,-0.0013916466057707,0.0013916261436912,-7.9138141337046e-10,6.6947604145396e-10,1.7917602361423e-09,-1.9301000381253e-09,-0.0015943887722021,0.0015943886392684,-0.0016945140141547,0.0016945146341064,-0.0016945152456227,0.0016945133918038,-0.0016945135353594,0.0016945151217944,-0.0016945147645541,0.0016945138797785,-0.0013916343971904,0.0013916384035442,-0.0013916380105772,0.0013916347078864,-0.0015917848061231,0.0015917820076352,-0.0015917833637169,0.0015917834495932,-1.0059593886928e-08,1.0543486854449e-08,-0.00085985728074739,0.00085985776147131,-1.5553658342738e-09,2.1204830351437e-09,-0.00098440053291846,0.00098439289875517,-0.0009843993160182,0.00098439412014779,-0.00098439366092355,0.00098439976854369,-0.00098439244542632,0.00098440098679908,-0.00098572275938508,0.0009857446224372,-0.00098574291563365,0.00098572446968722,0.66669033964937,125803,2834,0.0066198927000675,0.0066198927018608,0.003580436514275,16.218485662915,-0.00011025211469668,-0.00011025211469668,-0.00011025211469668,3488122.6920296,0.016963406946077
23819200,0.99070064380804,0.017006987252594,0.0064293342412817,0.0064293342418797,0.0041483187694327,-0.001595752104463,0.001595752245116,1.0427991098089e-08,-1.0285774870756e-08,7.9984985931231e-10,-6.6662386156921e-10,-0.001695877478022,0.0016958850069793,-0.0016958843876028,0.0016958781035116,-0.0016958779598638,0.0016958845234379,-0.0016958848616843,0.0016958776154333,-0.0013929609103751,0.0013929808453459,-0.0013929811991738,0.0013929605532541,-7.9295690512262e-10,6.7129763834644e-10,1.7784157675015e-09,-1.9166858116119e-09,-0.0015957522419983,0.001595752109251,-0.0016958809373526,0.0016958815476274,-0.0016958821600811,0.001695880314036,-0.0016958804575133,0.0016958820363005,-0.0016958816777013,0.001695880803392,-0.0013929689091515,0.001392972889745,-0.0013929724955938,0.0013929692206467,-0.0015931611374271,0.0015931583441948,-0.0015931596890802,0.0015931597884043,-1.0161155330436e-08,1.0644483139053e-08,-0.00086091398911457,0.0008609144694092,-1.545303275099e-09,2.1101130818366e-09,-0.00098557580554982,0.00098556811036806,-0.00098557459562648,0.00098556932472676,-0.00098556886620543,0.00098557504754728,-0.00098556765737473,0.00098557625920699,-0.00098685440436662,0.0009868764583814,-0.00098687475793215,0.00098685610603208,0.70079154435513,125803,2834,0.0066255333295644,0.0066255333330218,0.0035848315361824,16.741066257401,-0.0001060714699408,-0.0001060714699408,-0.0001060714699408,3492042.3022991,0.016979349985092
24019200,0.99090548162729,0.017010492203456,0.0064306591460277,0.0064306591466265,0.0041491739108022,-0.0015971896559084,0.001597189796613,1.0526651319381e-08,-1.0384444869102e-08,7.9976298578976e-10,-6.6638950337575e-10,-0.0016972851749684,0.001697292769692,-0.0016972921503691,0.0016972858003816,-0.0016972856566503,0.0016972922863046,-0.0016972926243942,0.0016972853123696,-0.0013944081028182,0.0013944282313446,-0.0013944285851481,0.0013944077456106,-7.9164354148027e-10,6.6980434724992e-10,1.7723684318401e-09,-1.9108076615567e-09,-0.0015971897935334,0.0015971896606201,-0.0016972886687741,0.0016972892758467,-0.0016972898875592,0.0016972880462454,-0.0016972881897963,0.0016972897636263,-0.0016972894061282,0.0016972885346048,-0.0013944162043665,0.001394420172304,-0.0013944197792407,0.0013944165146652,-0.0015946133604414,0.0015946105738652,-0.001594611914804,0.0015946120150345,-1.0258455273615e-08,1.0741760917519e-08,-0.00086194358835219,0.00086194406858199,-1.5386734401874e-09,2.1033625698827e-09,-0.00098681653754178,0.00098680878182703,-0.00098681533201302,0.00098680999175446,-0.00098680953327129,0.00098681578390764,-0.00098680832895414,0.00098681699108096,-0.00098794941590664,0.0009879716556318,-0.00098796995950533,0.00098795111301635,0.7086620014477,125803,2834,0.0066314790115949,0.0066314790149743,0.0035891178691658,17.263969944437,-0.00010188824044451,-0.00010188824044451,-0.00010188824044451,3489276.8378594,0.016995803768247
24219200,0.99111127793415,0.017013868286865,0.0064319409067473,0.0064319409073469,0.004149986472771,-0.0015984441643793,0.0015984443056168,1.0622751637288e-08,-1.0480381102845e-08,7.9703324659319e-10,-6.6239742150758e-10,-0.0016985081574375,0.0016985158142218,-0.0016985151966878,0.00169850878077,-0.0016985086368523,0.0016985153329504,-0.0016985156684151,0.0016985082953584,-0.0013956742339142,0.0013956945520139,-0.0013956949041811,0.0013956738791085,-7.9293719254836e-10,6.7129855795231e-10,1.780026726519e-09,-1.9183595268855e-09,-0.0015984443024795,0.0015984441697413,-0.0016985116799044,0.0016985122912617,-0.0016985129034694,0.0016985110562464,-0.0016985111998522,0.0016985127797427,-0.0016985124211203,0.0016985115459781,-0.0013956824216867,0.0013956864051652,-0.0013956860109356,0.0013956827329929,-0.0015958761793662,0.0015958733848182,-0.0015958747295702,0.0015958748283562,-1.0358064526705e-08,1.0842061962479e-08,-0.00086278221288308,0.00086278269395009,-1.5475460905329e-09,2.1133486521595e-09,-0.00098788039914031,0.0009878725712972,-0.00098787918732998,0.00098787378731821,-0.00098787332816105,0.0009878796399087,-0.00098787211749226,0.00098788085364957,-0.00098884739440505,0.00098886983692652,-0.00098886813316562,0.00098884909764061,0.68010062894078,125803,2834,0.006636666750941,0.0066366667555484,0.0035926118290894,17.691921084185,-9.8464631326521e-05,-9.8464631326521e-05,-9.8464631326521e-05,3484840.2677894,0.017009910462455
24419200,0.99131488276738,0.017017204900553,0.0064332079863533,0.006433207986951,0.0041507889272486,-0.0015991689320726,0.0015991690740345,1.0716577096985e-08,-1.0573729175538e-08,7.9244740604041e-10,-6.5665555044721e-10,-0.001699234567508,0.0016992422844429,-0.001699241669916,0.0016992351886005,-0.001699235043874,0.0016992418064332,-0.0016992421380932,0.0016992347063512,-0.0013963764775675,0.001396396981807,-0.0013963973303909,0.0013963761269921,-7.9517837666996e-10,6.7379351362398e-10,1.8076100039636e-09,-1.9457346837881e-09,-0.0015991690705478,0.0015991689380643,-0.0016992381113225,0.0016992387399676,-0.0016992393536867,0.0016992374869148,-0.0016992376302148,0.0016992392299963,-0.0016992388694173,0.0016992379777302,-0.0013963847304114,0.0013963887689459,-0.0013963883725833,0.0013963850437284,-0.0015966061656986,0.0015966033479257,-0.0015966047096846,0.0015966047961093,-1.0459207200182e-08,1.094566344976e-08,-0.00086321890994261,0.00086321939350236,-1.5778207111015e-09,2.1466132669814e-09,-0.00098844359918545,0.00098843568473624,-0.0009884423666672,0.00098843692201886,-0.0009884364605869,0.0009884428215822,-0.00098843522830644,0.00098844405620933,-0.00098934411460261,0.00098936678196867,-0.00098936505429539,0.00098934584120896,0.67934589195188,125803,2834,0.0066396635173221,0.0066396635225122,0.0035944327182079,17.884615574907,-9.6923075400742e-05,-9.6923075400742e-05,-9.6923075400742e-05,3483975.8816585,0.017017858637634
24619200,0.99151618419417,0.017020653633104,0.0064345123543713,0.006434512354966,0.0041516289237668,-0.0015998786885693,0.0015998788299257,1.0818250791805e-08,-1.067553880397e-08,7.9512467007536e-10,-6.6080650752067e-10,-0.0016999445599575,0.001699952346342,-0.0016999517299549,0.0016999451826636,-0.0016999450383805,0.0016999518663384,-0.0016999522004701,0.0016999446981373,-0.0013970658414906,0.0013970865444594,-0.0013970868946363,0.0013970654881947,-7.8995980538784e-10,6.6789973882618e-10,1.8431976114786e-09,-1.9818571602308e-09,-0.0015998788267459,0.0015998786936362,-0.0016999481255886,0.0016999487808713,-0.0016999493912739,0.0016999475037122,-0.0016999476478536,0.0016999492673887,-0.0016999489109226,0.0016999479909981,-0.0013970741616987,0.0013970782670597,-0.0013970778746115,0.0013970744698356,-0.0015973275445372,0.0015973247136416,-0.0015973261015454,0.0015973261511,-1.0552408391848e-08,1.10407656466e-08,-0.00086365396114841,0.00086365444661419,-1.6083536690299e-09,2.1792155651469e-09,-0.00098898939948099,0.00098898140279155,-0.00098898814554373,0.00098898266111972,-0.00098898219760616,0.00098898860248086,-0.00098898094468796,0.00098898985824956,-0.00098984079841823,0.00098986367202087,-0.00098986192202844,0.00098984254883315,0.70944457855412,125803,2834,0.0066425984228785,0.0066425984267859,0.0035962461056675,18.071447788352,-9.542841769318e-05,-9.542841769318e-05,-9.542841769318e-05,3483321.6043503,0.01702567316975
24819200,0.99171514596425,0.017023824449506,0.0064357201666975,0.0064357201672924,0.0041523841155159,-0.0016006302619046,0.0016006304033093,1.091638119193e-08,-1.0773571778483e-08,7.9442897656361e-10,-6.6012121275008e-10,-0.0017006718133987,0.0017006796646512,-0.001700679048699,0.0017006724357358,-0.0017006722913768,0.0017006791851431,-0.0017006795187412,0.0017006719516583,-0.0013978242335751,0.0013978451293486,-0.0013978454789209,0.0013978238809164,-7.891775102276e-10,6.670111736832e-10,1.8777058400298e-09,-2.016447001193e-09,-0.0016006304001264,0.0016006302669236,-0.0017006753999478,0.0017006760785398,-0.0017006766883126,0.0017006747783478,-0.0017006749227377,0.0017006765644944,-0.0017006762085174,0.0017006752650917,-0.0013978326168802,0.001397836789397,-0.0013978363973008,0.0013978329241819,-0.0015980838090977,0.0015980809568418,-0.0015980823679544,0.0015980823927781,-1.0649146605395e-08,1.1139819158818e-08,-0.00086405643924747,0.00086405692707031,-1.6412920770691e-09,2.2149111710843e-09,-0.00098957800845766,0.00098956992586429,-0.00098957673163249,0.00098957120708218,-0.0009895707412765,0.00098957719084754,-0.00098956946549267,0.00098957846948773,-0.00099028538318107,0.000990308473478,-0.00099030669842527,0.00099028715885656,0.66112226929872,125803,2834,0.0066457052629644,0.0066457052667662,0.0035979270209834,18.25805278421,-9.3935577726318e-05,-9.3935577726318e-05,-9.3935577726318e-05,3477370.9744258,0.017033703402045
25019200,0.99191400162503,0.017026957033134,0.0064369145365018,0.0064369145370971,0.0041531279595353,-0.0016016407341493,0.0016016408754961,1.101360262447e-08,-1.0870469811138e-08,7.9352094189169e-10,-6.5995337117164e-10,-0.0017017059312219,0.0017017138469651,-0.0017017132313073,0.0017017065533255,-0.0017017064089034,0.0017017133677712,-0.0017017137009654,0.0017017060696134,-0.0013987781300204,0.0013987992171614,-0.0013987995654993,0.0013987777783977,-7.8989993104049e-10,6.6783368995307e-10,1.9001537780087e-09,-2.0387354249293e-09,-0.0016016408720805,0.0016016407389815,-0.0017017095430982,0.0017017102361473,-0.0017017108462492,0.0017017089210022,-0.0017017090654381,0.0017017107225859,-0.0017017103659395,0.0017017094082964,-0.0013987865879223,0.0013987908048915,-0.0013987904122783,0.0013987868960579,-0.0015990983564872,0.0015990954878858,-0.0015990969150122,0.0015990969266865,-1.0747301245842e-08,1.1239513541988e-08,-0.00086480315858437,0.00086480364790283,-1.6635868626552e-09,2.2388459239335e-09,-0.00099039852690963,0.00099039036442593,-0.00099039723469542,0.00099039166104182,-0.00099039119378295,0.00099039769531777,-0.0009903899025703,0.00099039898940025,-0.00099111319826626,0.00099113649928317,-0.00099113470790686,0.00099111499165985,0.65362536842891,125803,2834,0.0066498851922528,0.0066498851951836,0.0036010334245235,18.629364158944,-9.0965086728451e-05,-9.0965086728451e-05,-9.0965086728451e-05,3483508.0484255,0.017045365468942
25219200,0.99211595379319,0.017030242719828,0.0064381633072524,0.0064381633078503,0.0041539161047254,-0.0016031771915684,0.0016031773323475,1.1113968405012e-08,-1.0971020052221e-08,7.9634280215638e-10,-6.6407747212436e-10,-0.0017032711944163,0.0017032791790042,-0.0017032785615208,0.0017032718185315,-0.0017032716743656,0.0017032786976093,-0.0017032790335599,0.0017032713322378,-0.0014002468098878,0.0014002680924615,-0.0014002684424073,0.0014002464560227,-7.8874153001708e-10,6.6650349425266e-10,1.9074253668807e-09,-2.0460856553921e-09,-0.0016031773290577,0.0016031771958161,-0.0017032748382387,0.0017032755367571,-0.0017032761462869,0.00170327421698,-0.0017032743614257,0.0017032760225337,-0.0017032756668535,0.0017032747031472,-0.0014002553595694,0.0014002595904619,-0.0014002591986647,0.001400255666939,-0.0016006443890013,0.0016006415182109,-0.0016006429513823,0.0016006429548673,-1.0842721042346e-08,1.1335270432857e-08,-0.0008660370017326,0.00086603749130684,-1.6680712974584e-09,2.2434888263543e-09,-0.00099170477338087,0.0009916965443241,-0.00099170347806029,0.00099169784416492,-0.0009916973764764,0.00099170393908305,-0.00099169608228752,0.00099170523599214,-0.0009924491062756,0.00099247259748418,-0.00099247080331076,0.00099245090375082,0.67454672948319,125803,2834,0.0066562419848409,0.0066562419868203,0.0036061628153773,19.269976162166,-8.5840190702668e-05,-8.5840190702668e-05,-8.5840190702668e-05,3494022.2178996,0.017063513113596
25419200,0.99232088706055,0.017033846929321,0.0064395239099136,0.0064395239105162,0.0041547991088908,-0.0016047922713467,0.0016047924122146,1.1210844488926e-08,-1.1068323057269e-08,7.9725256559902e-10,-6.6402521477961e-10,-0.0017048927069063,0.0017049007563199,-0.0017049001386222,0.0017048933311542,-0.0017048931871018,0.0017049002746129,-0.0017049006108981,0.0017048928447319,-0.0014018233190431,0.0014018447901131,-0.0014018451416163,0.0014018229640753,-7.905715232297e-10,6.6862646638951e-10,1.911913177485e-09,-2.0504195333334e-09,-0.0016047924089712,0.0016047922759607,-0.0017048963820135,0.0017048970823207,-0.0017048976928294,0.0017048957595138,-0.0017048959038181,0.0017048975693411,-0.0017048972120664,0.0017048962471693,-0.0014018319566084,0.0014018361973104,-0.0014018358038624,0.0014018322651242,-0.0016022767757385,0.0016022738982373,-0.001602275332566,0.0016022753376628,-1.0941583266007e-08,1.1434375647879e-08,-0.00086728562660702,0.00086728611653071,-1.673178791167e-09,2.2491417107683e-09,-0.00099308478334702,0.00099307648498341,-0.00099308348443658,0.00099307778832848,-0.00099307732042747,0.0009930839457455,-0.00099307602262761,0.00099308524636877,-0.00099379646553685,0.00099382015431456,-0.00099381835541994,0.00099379826588852,0.72789189266615,125803,2834,0.006662923192117,0.0066629231949541,0.0036113560847375,19.917325032639,-8.0661399738889e-05,-8.0661399738889e-05,-8.0661399738889e-05,3499853.0543823,0.017082386268847
25619200,0.99252858609264,0.017037522730822,0.006440911789499,0.0064409117901038,0.0041556991512191,-0.0016065176554769,0.0016065177963557,1.1307960706504e-08,-1.1165579321628e-08,7.9798971002095e-10,-6.6442153067243e-10,-0.0017065733279246,0.001706581442459,-0.0017065808244503,0.0017065739524588,-0.0017065738085171,0.0017065809603603,-0.0017065812970782,0.0017065734657119,-0.0014035696924522,0.0014035913532063,-0.0014035917056726,0.0014035693369003,-7.9204031712376e-10,6.7029161371824e-10,1.9160352632417e-09,-2.0543824876465e-09,-0.0016065177931816,0.0016065176603616,-0.0017065770344981,0.0017065777366798,-0.0017065783479629,0.0017065764110816,-0.0017065765552646,0.0017065782247069,-0.0017065778661542,0.0017065768998496,-0.0014035784200043,0.001403582669783,-0.001403582275041,0.001403578729553,-0.0016040209437373,0.0016040180605734,-0.0016040194969229,0.0016040195027009,-1.1040375416377e-08,1.1533294239219e-08,-0.00086849354669457,0.00086849403682974,-1.6775905343967e-09,2.2539161251347e-09,-0.00099456754225299,0.00099455917512727,-0.00099456624030946,0.00099456048147893,-0.00099456001342871,0.00099456670177454,-0.0009945587125586,0.00099456800549757,-0.00099508607940483,0.00099510996467054,-0.00099510816243123,0.00099508788260563,0.7324347305771,125803,2834,0.0066700584916122,0.0066700584951536,0.0036163863445704,20.564925523124,-7.5480595815005e-05,-7.5480595815005e-05,-7.5480595815005e-05,3495346.4623207,0.01710201859657
25819200,0.99273366988153,0.017041058113215,0.0064422505554816,0.0064422505560868,0.0041565570016462,-0.0016074329787598,0.0016074331193633,1.1404379876023e-08,-1.1263072954029e-08,8.0279253382739e-10,-6.6812961868701e-10,-0.0017074495180913,0.0017074576994295,-0.0017074570792175,0.001707450144951,-0.0017074500014307,0.0017074572145694,-0.0017074575546974,0.0017074496553045,-0.0014045085041943,0.0014045303499284,-0.0014045307075554,0.0014045081441549,-7.8786279745e-10,6.6550942783096e-10,1.9408520451538e-09,-2.0799259704761e-09,-0.0016074331170618,0.0016074329836452,-0.0017074532481546,0.0017074539693616,-0.0017074545780788,0.0017074526269913,-0.0017074527717635,0.0017074544544187,-0.001707454099265,0.0017074531126991,-0.0014045172993857,0.0014045215948242,-0.0014045212029906,0.0014045176043536,-0.0016049464041577,0.001604943512475,-0.0016049449635656,0.0016049449431523,-1.1138658860451e-08,1.1633060873799e-08,-0.00086896484879636,0.00086896534064576,-1.7029712996439e-09,2.281593456387e-09,-0.00099529296688548,0.00099528451757887,-0.00099529164720408,0.00099528584163871,-0.00099528537197631,0.00099529211039361,-0.00099528405342688,0.00099529343173519,-0.00099561541453629,0.00099563951243357,-0.00099563768975108,0.00099561723541091,0.71386317331644,125803,2834,0.0066738414598853,0.0066738414652395,0.0036183568628936,20.804642932678,-7.3562856538575e-05,-7.3562856538575e-05,-7.3562856538575e-05,3486372.0428447,0.01711171973125
26019200,0.99293159562923,0.017044338384675,0.0064434974535451,0.0064434974541467,0.0041573434769834,-0.0016075585676812,0.0016075587090186,1.1503105467671e-08,-1.1361024092336e-08,7.9709725969645e-10,-6.6175013075246e-10,-0.0017075602465485,0.0017075684903329,-0.0017075678734499,0.0017075608702266,-0.0017075607259996,0.0017075680094954,-0.0017075683448392,0.0017075603846574,-0.001404636219828,0.0014046582631773,-0.001404658615854,0.0014046358646673,-7.9115977831773e-10,6.6931303036467e-10,1.983619502188e-09,-2.1221925011119e-09,-0.0016075587060447,0.0016075585731072,-0.0017075639948094,0.001707564742433,-0.0017075653528713,0.0017075633715691,-0.001707563516149,0.0017075652298382,-0.0017075648716288,0.0017075638597222,-0.0014046450710013,0.0014046494526586,-0.0014046490574916,0.0014046453785163,-0.0016050754811573,0.0016050725545693,-0.0016050740337905,0.0016050739926423,-1.1234986799285e-08,1.1731932169437e-08,-0.00086879018395381,0.000868790678394,-1.7427745439376e-09,2.3244569394774e-09,-0.000995280899459,0.00099527236010468,-0.00099527955232036,0.00099527371166911,-0.0009952732395656,0.00099528001794275,-0.00099527189342092,0.00099528136688495,-0.00099548060542342,0.00099550492446695,-0.00099550307174851,0.00099548245651708,0.68688289914732,125803,2834,0.0066743575517275,0.0066743575568094,0.0036176408553351,20.675906468722,-7.4592748250223e-05,-7.4592748250223e-05,-7.4592748250223e-05,3477665.3882371,0.017112042293486
26219200,0.99312254366203,0.017047684401715,0.0064447624543565,0.0064447624549554,0.0041581594924028,-0.0016076005349758,0.0016076006763773,1.1601239889026e-08,-1.1458682963278e-08,7.9564638272563e-10,-6.6080021771282e-10,-0.0017076104332765,0.0017076187414986,-0.0017076181251066,0.0017076110560853,-0.0017076109119525,0.0017076182614638,-0.0017076185957059,0.0017076105714994,-0.0014046536818941,0.0014046759189792,-0.001404676270058,0.0014046533280982,-7.9003545278275e-10,6.6806496274642e-10,2.0208842016856e-09,-2.1594955421876e-09,-0.0016076006733288,0.001607600540293,-0.0017076142013361,0.0017076149743233,-0.0017076155835796,0.0017076135781768,-0.0017076137233129,0.0017076154607855,-0.0017076151033262,0.0017076140659336,-0.0014046625951031,0.0014046670490628,-0.0014046666545575,0.0014046629013124,-0.0016051283280925,0.0016051253787692,-0.0016051268840824,0.0016051268153656,-1.1332071856696e-08,1.1830994265099e-08,-0.00086862692781545,0.00086862742433683,-1.77852401729e-09,2.3626441201904e-09,-0.00099518837499105,0.00099517974747656,-0.00099518700311088,0.00099518112358785,-0.0009951806494456,0.00099518747067768,-0.00099517927877168,0.00099518884449099,-0.00099536945543982,0.00099539399282402,-0.00099539211409373,0.00099537133367781,0.7252465941798,125803,2834,0.0066745290706074,0.0066745290753047,0.0036169684316915,20.537891503614,-7.5696867971089e-05,-7.5696867971089e-05,-7.5696867971089e-05,3474448.2568315,0.017111707447657
26419200,0.99330679577546,0.017051003086048,0.0064460142796622,0.0064460142802599,0.0041589745261255,-0.0016077062739485,0.0016077064153043,1.1699169230469e-08,-1.1556502825654e-08,7.9517572139813e-10,-6.607391105796e-10,-0.0017076880503597,0.0017076964238353,-0.0017076958078394,0.0017076886733318,-0.0017076885288995,0.001707695944006,-0.001707696278246,0.0017076881886918,-0.0014047805343416,0.001404802963718,-0.0014048033141993,0.0014047801812488,-7.8838483720792e-10,6.6615631867688e-10,2.0533437566503e-09,-2.1921552270596e-09,-0.0016077064122844,0.0016077062790216,-0.0017076918399824,0.0017076926355441,-0.0017076932440047,0.0017076912180216,-0.001707691363286,0.0017076931209701,-0.0017076927647956,0.0017076917042545,-0.0014047895132312,0.0014047940296682,-0.0014047936365302,0.0014047898182409,-0.0016052481904572,0.0016052452229125,-0.0016052467505856,0.0016052466565919,-1.1429124178824e-08,1.193010313095e-08,-0.00086844719271426,0.00086844769128292,-1.8100682557014e-09,2.3965441484125e-09,-0.00099516359040253,0.00099515487778949,-0.00099516219677471,0.00099515627581809,-0.00099515579964277,0.00099516266640923,-0.00099515440707474,0.00099516406182207,-0.00099522083029191,0.00099524558366668,-0.00099524368143114,0.00099522273289945,0.7450275381495,125803,2834,0.0066749633137846,0.0066749633180354,0.0036162306644048,20.399516007389,-7.680387194089e-05,-7.680387194089e-05,-7.680387194089e-05,3464381.873839,0.01711184111629
26619200,0.99348866861911,0.017054249834692,0.0064472401402939,0.0064472401408914,0.0041597695535069,-0.0016085578729815,0.0016085580142278,1.1800728266264e-08,-1.1657366477868e-08,7.9269391586265e-10,-6.5978598810861e-10,-0.0017084922181757,0.001708500658205,-0.0017085000430866,0.0017084928401698,-0.0017084926955251,0.0017085001795794,-0.0017085005124482,0.0017084923565907,-0.0014056651350418,0.0014056877660493,-0.0014056881133871,0.0014056647842465,-7.9024787582278e-10,6.683101961351e-10,2.0573007088102e-09,-2.1956799422974e-09,-0.0016085580105973,0.0016085578776359,-0.0017084960409264,0.0017084968378771,-0.0017084974474144,0.0017084954179159,-0.0017084955628526,0.0017084973247219,-0.0017084969669648,0.0017084959054185,-0.0014056742119393,0.0014056787378524,-0.0014056783435033,0.0014056745193491,-0.0016061157615273,0.0016061127881726,-0.0016061143206727,0.0016061142281551,-1.1523969932979e-08,1.202494533238e-08,-0.00086888654171682,0.00086888704002429,-1.8099015704387e-09,2.3958368749135e-09,-0.00099583286025566,0.00099582408435718,-0.0009958314668085,0.00099582548219991,-0.00099582500612631,0.00099583193620965,-0.00099582361398342,0.00099583333127572,-0.0009957138037882,0.00099573874238363,-0.0009957368416727,0.00099571570760909,0.73848438372392,125803,2834,0.0066784829543379,0.0066784829564535,0.0036180673331208,20.629564136861,-7.496348690511e-05,-7.496348690511e-05,-7.496348690511e-05,3455974.3473132,0.017120870103736
26819200,0.99367035881201,0.017057416024197,0.0064484384401066,0.0064484384407081,0.0041605391433823,-0.001609787902243,0.001609788042828,1.1898543593131e-08,-1.1755162387152e-08,7.9247231880875e-10,-6.6156725428038e-10,-0.0017096871178306,0.0017096956228583,-0.0017096950063922,0.0017096877389613,-0.0017096875955752,0.0017096951431173,-0.0017096954768081,0.0017096872555999,-0.0014069083872788,0.001406931211803,-0.0014069315566933,0.0014069080356184,-7.9111001119102e-10,6.6954611900719e-10,2.0413811061344e-09,-2.1792011480111e-09,-0.0016097880384914,0.0016097879058106,-0.0017096909794989,0.0017096917651763,-0.0017096923737351,0.0017096903544733,-0.0017096904999977,0.0017096922515217,-0.0017096918937726,0.0017096908440649,-0.0014069175756527,0.0014069220721987,-0.0014069216757054,0.0014069178842953,-0.0016073575798907,0.0016073546156349,-0.0016073561391973,0.0016073560566177,-1.1623631416536e-08,1.2121898408942e-08,-0.0008696747502327,0.00086967524596181,-1.7952341449413e-09,2.377626799581e-09,-0.00099685179883965,0.00099684296563449,-0.00099685041579442,0.00099684435209033,-0.00099684387817428,0.00099685088288444,-0.00099684249755268,0.00099685226793275,-0.00099657634723031,0.00099660146466872,-0.00099659957650061,0.00099657823714259,0.72121903512183,125803,2834,0.0066835685225766,0.0066835685209824,0.0036213531558053,21.063936357119,-7.1488509143047e-05,-7.1488509143047e-05,-7.1488509143047e-05,3452455.9567747,0.017134558730105
27019200,0.99385176911725,0.017060492457793,0.006449605926839,0.0064496059274497,0.0041612806035043,-0.0016109866953163,0.0016109868363145,1.1993625648322e-08,-1.1851032472446e-08,7.9627119587331e-10,-6.6266980453941e-10,-0.0017108736027403,0.0017108821731532,-0.0017108815561978,0.0017108742262871,-0.0017108740822295,0.0017108816922396,-0.0017108820277051,0.0017108737407208,-0.0014080933935093,0.0014081163993414,-0.001408116750349,0.0014080930392855,-7.9071402587634e-10,6.6886219809122e-10,2.0180395053511e-09,-2.1564250171923e-09,-0.0016109868330224,0.0016109867001107,-0.0017108775034429,0.0017108782739988,-0.0017108788838369,0.0017108768801699,-0.0017108770249896,0.0017108787609922,-0.0017108784030742,0.0017108773681824,-0.0014081026943459,0.001408107143365,-0.0014081067486469,0.0014081030020065,-0.0016085633344475,0.0016085603861377,-0.0016085618906017,0.001608561825315,-1.1724389109664e-08,1.2222503703166e-08,-0.00087047674805129,0.00087047724362293,-1.7752573649664e-09,2.3581271838939e-09,-0.0009978387363123,0.00099782984903674,-0.00099783736698417,0.00099783122268755,-0.00099783074944901,0.00099783783364621,-0.00099782938133847,0.00099783920475878,-0.00099746082561698,0.00099748612663999,-0.00099748425195622,0.00099746270128182,0.7022850412449,125803,2834,0.0066885254584944,0.0066885254616048,0.0036246944664155,21.503501845761,-6.7971985233911e-05,-6.7971985233911e-05,-6.7971985233911e-05,3452991.6894702,0.017148042104723
27219200,0.99403274263796,0.017063470257023,0.0064507393335204,0.0064507393341316,0.0041619915893714,-0.0016121419731123,0.0016121421139012,1.209148836933e-08,-1.1949224934381e-08,7.969746794412e-10,-6.6341809438555e-10,-0.00171203838308,0.001712047019244,-0.0017120464019487,0.0017120390069078,-0.0017120388630382,0.0017120465378643,-0.0017120468739444,0.0017120385208218,-0.0014092082806627,0.001409231477627,-0.0014092318295051,0.0014092079253637,-7.9169961582606e-10,6.699883355798e-10,1.9959258877761e-09,-2.134215534004e-09,-0.0016121421106225,0.0016121419778371,-0.0017120423241823,0.0017120430795243,-0.0017120436901077,0.0017120417005222,-0.0017120418450613,0.0017120435672662,-0.0017120432085805,0.0017120421891173,-0.0014092176977026,0.0014092221041511,-0.0014092217086684,0.0014092180062726,-0.0016097225655812,0.0016097196300595,-0.0016097211193421,0.001609721071013,-1.1823124572848e-08,1.2319913002615e-08,-0.00087128965779807,0.00087129015192059,-1.753678402154e-09,2.334885569742e-09,-0.00099878264219043,0.00099877370311191,-0.00099878128783632,0.00099877506183217,-0.00099877458996829,0.00099878175306668,-0.00099877323682078,0.00099878310917438,-0.00099836209784239,0.00099838757440006,-0.00099838571567294,0.000998363956976,0.68191770948403,125803,2834,0.0066933031510342,0.00669330315403,0.0036280788479678,21.943269537449,-6.4453843700406e-05,-6.4453843700406e-05,-6.4453843700406e-05,3457313.421803,0.017161204541507
27419200,0.99421170125907,0.017066504311041,0.0064518908031655,0.0064518908037773,0.0041627227040981,-0.0016130011410545,0.0016130012818951,1.2189406400178e-08,-1.2047480484976e-08,7.9944848451521e-10,-6.6519086664034e-10,-0.0017129283451106,0.0017129370480105,-0.0017129364296138,0.0017129289704004,-0.0017129288265936,0.0017129365652645,-0.0017129369029212,0.0017129284827666,-0.001410006403695,0.001410029790673,-0.0014100301448669,0.0014100060465356,-7.9043352932767e-10,6.6853611486154e-10,1.9805409820076e-09,-2.1190930122881e-09,-0.0016130012790067,0.0016130011460325,-0.001712932323847,0.0017129330698726,-0.0017129336799571,0.0017129317012148,-0.0017129318458345,0.0017129335568462,-0.0017129331991987,0.0017129321887303,-0.0014100159307889,0.0014100203060213,-0.0014100199115018,0.001410016237874,-0.0016105878657904,0.0016105849428309,-0.001610586420773,0.0016105863795951,-1.1921812599582e-08,1.2417283154494e-08,-0.00087189641813266,0.00087189691111176,-1.7390558944773e-09,2.3190636548424e-09,-0.00099945005556704,0.00099944106032999,-0.0009994487115017,0.00099944240889692,-0.000999441938199,0.00099944917571003,-0.00099944059511007,0.00099945052154245,-0.00099905623396731,0.00099908189084975,-0.00099908004318029,0.00099905808113417,0.70214876765958,125803,2834,0.0066968565969537,0.0066968566012822,0.003630604131268,22.251717624687,-6.1986259002501e-05,-6.1986259002501e-05,-6.1986259002501e-05,3463662.2159188,0.017171002301513
27619200,0.99438811889707,0.017069540254595,0.0064530415113317,0.0064530415119417,0.0041634572313218,-0.0016138172079892,0.0016138173489112,1.2286639320073e-08,-1.2144512893938e-08,7.9836142637115e-10,-6.6418255944343e-10,-0.0017137547292063,0.0017137634961034,-0.001713762878224,0.0017137553536149,-0.0017137552097995,0.0017137630140946,-0.0017137633507863,0.0017137548670127,-0.0014107870588124,0.0014108106370152,-0.001410810990647,0.001410786702593,-7.9159492296554e-10,6.6986984298954e-10,1.967666734571e-09,-2.106049355829e-09,-0.0016138173458754,0.0016138172130658,-0.0017137587446876,0.0017137594812952,-0.0017137600920005,0.0017137581210802,-0.0017137582655996,0.0017137599690845,-0.0017137596104414,0.0017137586098353,-0.00141079669409,0.0014108010447246,-0.0014108006499191,0.0014107970024383,-0.0016114131902406,0.0016114102735462,-0.0016114117434082,0.0016114117140837,-1.2021119238306e-08,1.2515909602024e-08,-0.00087242689925565,0.00087242739147247,-1.7273079091699e-09,2.3064231644796e-09,-0.0010000832742095,0.0010000742201462,-0.0010000819380901,0.0010000755604723,-0.0010000750905874,0.0010000824014258,-0.001000073755711,0.0010000837394142,-0.00099966043830222,0.000999686279803,-0.00099968444131513,0.00099966227693621,0.71252805497473,125803,2834,0.0067002310968931,0.0067002311011186,0.0036328141958857,22.518784846803,-5.9849721225573e-05,-5.9849721225573e-05,-5.9849721225573e-05,3465202.1242298,0.017180115752895
27819200,0.99456192601207,0.017072579751663,0.0064541920102205,0.0064541920108294,0.0041641957306127,-0.0016146476311159,0.0016146477720091,1.2384353722789e-08,-1.2242045918077e-08,7.9765207527663e-10,-6.6387758458373e-10,-0.0017145854400615,0.0017145942719063,-0.0017145936542301,0.0017145860642646,-0.0017145859203687,0.0017145937901372,-0.0017145941265729,0.0017145855778728,-0.0014115935443761,0.0014116173148652,-0.0014116176674107,0.0014115931889547,-7.9202634437414e-10,6.703533843629e-10,1.9557591574657e-09,-2.0940364860603e-09,-0.0016146477688296,0.0016146476360829,-0.0017145894921706,0.0017145902206938,-0.0017145908316628,0.0017145888684972,-0.0017145890128369,0.001714590708702,-0.0017145903498836,0.0017145893574014,-0.0014116032876047,0.0014116076154091,-0.0014116072202593,0.001411603596828,-0.0016122553201086,0.0016122524106063,-0.0016122538729562,0.0016122538522308,-1.2119956412965e-08,1.2614002455737e-08,-0.00087295141314259,0.00087295190455649,-1.7160257956138e-09,2.2941061233468e-09,-0.0010007343235401,0.001000725211002,-0.0010007329953327,0.0010007265435391,-0.0010007260743364,0.0010007334579588,-0.0010007247472995,0.0010007347879654,-0.0010002569317243,0.0010002829574075,-0.0010002811276926,0.001000258762011,0.72383354805739,125803,2834,0.0067036645861825,0.0067036645898831,0.0036350006238864,22.784778877649,-5.7721768978809e-05,-5.7721768978809e-05,-5.7721768978809e-05,3464652.8442573,0.01718932538261
28019200,0.99473306698165,0.017075624594877,0.0064553429552162,0.006455342955825,0.0041649386838353,-0.001615494845996,0.0016154949868281,1.2482386161906e-08,-1.2340108090345e-08,7.9774620316579e-10,-6.641183607576e-10,-0.0017154228718134,0.0017154317691279,-0.0017154311513504,0.0017154234960807,-0.0017154233522453,0.0017154312872239,-0.0017154316238185,0.0017154230095675,-0.0014124288862917,0.0014124528488392,-0.0014124532013241,0.0014124285306977,-7.9164686731985e-10,6.6993590070739e-10,1.9449744661979e-09,-2.0832786355398e-09,-0.0016154949836432,0.0016154948508598,-0.001715426960117,0.0017154276817384,-0.001715428292535,0.0017154263367381,-0.0017154264810696,0.0017154281694703,-0.0017154278110226,0.0017154268253587,-0.0014124387362283,0.0014124430426293,-0.0014124426478075,0.0014124390452573,-0.0016131158652796,0.0016131129636576,-0.0016131144189446,0.0016131144045151,-1.2218344230194e-08,1.271170494664e-08,-0.00087346888195856,0.00087346937266306,-1.7055783902234e-09,2.2827803840692e-09,-0.0010014040673244,0.0010013948959968,-0.0010014027463836,0.0010013962212843,-0.0010013957527479,0.0010014032083412,-0.0010013944329559,0.0010014045310861,-0.0010008449675288,0.0010008711771591,-0.0010008693553786,0.0010008467899305,0.73612508097949,125803,2834,0.0067071670898645,0.0067071670933407,0.0036371590186905,23.050730922464,-5.5594152620287e-05,-5.5594152620287e-05,-5.5594152620287e-05,3462146.7668177,0.017198647124656
28219200,0.99490082828326,0.017078664731411,0.0064564905373594,0.0064564905379686,0.0041656836560825,-0.0016162281345235,0.0016162282755923,1.2581332095882e-08,-1.2439185548832e-08,7.975325944561e-10,-6.6299625186078e-10,-0.0017161369484529,0.0017161459114575,-0.0017161452941116,0.0017161375725453,-0.0017161374284529,0.0017161454300458,-0.001716145766235,0.0017161370862379,-0.0014131636535613,0.0014131878102028,-0.001413188162762,0.0014131632982321,-7.9164984022903e-10,6.6991133110388e-10,1.9403498664893e-09,-2.0787640967757e-09,-0.0016162282725892,0.0016162281397784,-0.0017161410708161,0.0017161417894171,-0.0017161424003183,0.0017161404476904,-0.0017161405918284,0.0017161422772326,-0.0017161419188304,0.001716140935986,-0.0014131736042535,0.0014131779018246,-0.0014131775067429,0.0014131739131143,-0.0016138632568337,0.0016138603584311,-0.0016138618093156,0.0016138617976636,-1.2315601937614e-08,1.2808573390199e-08,-0.00087386149530473,0.00087386198572051,-1.6997616420387e-09,2.2767706621961e-09,-0.0010019699008148,0.0010019606685295,-0.0010019685839186,0.0010019619900083,-0.0010019615216995,0.0010019690457202,-0.0010019602058119,0.0010019703642285,-0.0010013018125933,0.0010013282075409,-0.0010013263896688,0.0010013036299566,0.74948915570232,125803,2834,0.0067101977251433,0.0067101977298065,0.0036387998886464,23.250643530955,-5.3994851752361e-05,-5.3994851752361e-05,-5.3994851752361e-05,3457020.62733,0.017206482664309
28419200,0.99506511742567,0.017081701048781,0.0064576350439386,0.0064576350445461,0.0041664309602967,-0.0016169578436645,0.0016169579845662,1.2675772713786e-08,-1.2533610679032e-08,7.9747530579446e-10,-6.6345565129703e-10,-0.0017168366255165,0.0017168456515998,-0.0017168450339462,0.0017168372494788,-0.001716837105799,0.0017168451697247,-0.0017168455062104,0.0017168367632883,-0.0014139081409337,0.0014139324823385,-0.0014139328344263,0.0014139077857973,-7.9071200670273e-10,6.6888080222623e-10,1.9351157343192e-09,-2.0735789094039e-09,-0.0016169579815397,0.0016169578486322,-0.0017168407809678,0.0017168414968151,-0.0017168421068511,0.0017168401581464,-0.0017168403026612,0.0017168419835335,-0.001716841626114,0.0017168406461367,-0.0014139181898739,0.0014139224761858,-0.0014139220819002,0.0014139184985495,-0.0016146086283153,0.0016146057349362,-0.0016146071830156,0.0016146071730989,-1.2417460109268e-08,1.2910075168036e-08,-0.00087422507007601,0.00087422556019193,-1.6987811306084e-09,2.2753024601709e-09,-0.0010025320325911,0.0010025227331588,-0.0010025307165719,0.0010025240536432,-0.0010025235856351,0.0010025311779998,-0.0010025222704486,0.0010025324959821,-0.0010017278631257,0.0010017544567739,-0.0010017526398414,0.0010017296795621,0.76402415114844,125803,2834,0.006713213058074,0.0067132130620937,0.0036403213627266,23.441280615101,-5.2469755079195e-05,-5.2469755079195e-05,-5.2469755079195e-05,3450018.9379496,0.017214165786071
28619200,0.99522593934518,0.017084693020603,0.0064587625651864,0.0064587625657936,0.0041671678896234,-0.0016177002096781,0.0016177003506347,1.2774801183416e-08,-1.2632466083127e-08,7.9687496466389e-10,-6.6299567617249e-10,-0.0017175388336391,0.0017175479254513,-0.0017175473082331,0.0017175394573657,-0.0017175393134617,0.0017175474441642,-0.0017175477800343,0.0017175389715312,-0.0014146777924603,0.0014147023286199,-0.0014147026804326,0.0014146774376264,-7.9051087919998e-10,6.6865213226823e-10,1.9337107932953e-09,-2.0721588191947e-09,-0.0016177003475074,0.0016177002145934,-0.0017175430224486,0.001717543737404,-0.0017175443475857,0.0017175423998351,-0.0017175425442471,0.0017175442242939,-0.0017175438668251,0.0017175428876391,-0.0014146879405158,0.0014146922239876,-0.0014146918301228,0.0014146882487475,-0.0016153662946952,0.0016153634026426,-0.0016153648503441,0.001615364840912,-1.2514406401896e-08,1.3007279106317e-08,-0.0008745704147597,0.00087457090499372,-1.6959400304242e-09,2.2725822210113e-09,-0.0010031041490953,0.0010030947867038,-0.0010031028348169,0.001003096105368,-0.0010030956373038,0.0010031032963149,-0.0010030943240532,0.001003104612457,-0.0010021335126417,0.0010021602940585,-0.0010021584792692,0.0010021353278623,0.76896077984699,125803,2834,0.0067162802228439,0.0067162802265457,0.0036417684242383,23.631664167113,-5.0946686663098e-05,-5.0946686663098e-05,-5.0946686663098e-05,3441388.6189486,0.017221878876487
28819200,0.99538332420074,0.017087546591621,0.0064598406525912,0.0064598406531986,0.0041678652858315,-0.0016184365090655,0.0016184366500082,1.28730650177e-08,-1.273066906821e-08,7.9600181451449e-10,-6.6226294026295e-10,-0.0017182358194001,0.0017182449757195,-0.0017182443586377,0.0017182364420509,-0.0017182362985792,0.0017182444948523,-0.0017182448299555,0.0017182359572708,-0.0014154399468944,0.0014154646763846,-0.0014154650267547,0.0014154395920955,-7.9061139359992e-10,6.6887355871727e-10,1.9328421166816e-09,-2.0711599776829e-09,-0.0016184366466742,0.0016184365138333,-0.001718240041052,0.0017182407551206,-0.0017182413647844,0.0017182394175567,-0.0017182395623805,0.0017182412417572,-0.0017182408842565,0.0017182399062852,-0.0014154501921638,0.0014154544741334,-0.0014154540792121,0.0014154504998618,-0.0016161144233893,0.0016161115312001,-0.0016161129779616,0.0016161129681554,-1.2612572526868e-08,1.3104810669088e-08,-0.00087490358053793,0.00087490407027046,-1.6948824824264e-09,2.2708152627756e-09,-0.0010036683314929,0.001003658903895,-0.0010036670177285,0.0010036602213684,-0.001003659753741,0.001003667478756,-0.0010036584416504,0.0010036687946588,-0.0010025270293006,0.0010025540005697,-0.0010025521867943,0.0010025288423244,0.74978433391153,125803,2834,0.0067193221239467,0.0067193221269158,0.0036431651731881,23.824257216288,-4.9405942269692e-05,-4.9405942269692e-05,-4.9405942269692e-05,3433127.3668462,0.017229489497275
29019200,0.99553840610798,0.017090211028888,0.0064608523758611,0.0064608523764695,0.0041685062765576,-0.0016193599224524,0.0016193600631459,1.2967661091032e-08,-1.282475695142e-08,7.9483799524484e-10,-6.6275961009003e-10,-0.0017191422904959,0.0017191515103141,-0.0017191508936292,0.0017191429135598,-0.0017191427697845,0.0017191510294964,-0.0017191513646018,0.0017191424286033,-0.0014163579575835,0.0014163828728992,-0.0014163832219668,0.0014163576046734,-7.9088843301891e-10,6.6914837608454e-10,1.9241077898891e-09,-2.0622264776099e-09,-0.0016193600594105,0.0016193599266279,-0.0017191465471631,0.0017191472556498,-0.0017191478660692,0.0017191459244704,-0.0017191460688954,0.0017191477425672,-0.0017191473849064,0.0017191464126689,-0.0014163683060986,0.0014163725705518,-0.0014163721768464,0.0014163686159838,-0.0016170451979579,0.001617042311372,-0.0016170437551695,0.001617043753843,-1.2714066608562e-08,1.3206817833663e-08,-0.00087545294298967,0.00087545343285988,-1.6902376115152e-09,2.2660208531331e-09,-0.0010044037163564,0.0010043942247141,-0.0010044024062792,0.0010043955392348,-0.0010043950715328,0.0010044028672893,-0.0010043937621718,0.0010044041795477,-0.0010031528327933,0.0010031800018213,-0.0010031781920509,0.0010031546454859,0.7113025227339,125803,2834,0.0067231390131536,0.0067231390140637,0.0036454579942133,24.139925090461,-4.6880599276308e-05,-4.6880599276308e-05,-4.6880599276308e-05,3430781.5867999,0.017239588131119
29219200,0.99569113930822,0.017092774230024,0.0064618277515094,0.0064618277521221,0.0041691187263923,-0.0016202088898132,0.0016202090307677,1.306785367757e-08,-1.2925376861021e-08,7.9616547798528e-10,-6.6253836473127e-10,-0.001720014416062,0.0017200237030293,-0.0017200230861303,0.0017200150394355,-0.0017200148955215,0.0017200232220883,-0.0017200235575216,0.0017200145540396,-0.0014171545122472,0.0014171796232227,-0.0014171799742617,0.0014171541579414,-7.9051554864556e-10,6.6868015144432e-10,1.9203226765535e-09,-2.0587146879846e-09,-0.0016202090275124,0.0016202088946224,-0.0017200187069137,0.0017200194130595,-0.0017200200233379,0.0017200180843961,-0.0017200182287433,0.0017200198999431,-0.0017200195425108,0.0017200185722358,-0.0014171649610717,0.0014171692182278,-0.0014171688244903,0.0014171652695322,-0.0016178979578121,0.0016178950745045,-0.0016178965136457,0.0016178965132102,-1.2809997804457e-08,1.3302177894243e-08,-0.00087603319106187,0.00087603368054181,-1.6836962468677e-09,2.2593593790235e-09,-0.0010050671417092,0.0010050575902607,-0.0010050658359354,0.0010050589003899,-0.0010050584330656,0.0010050662966857,-0.0010050571282923,0.0010050676043976,-0.0010038217574271,0.0010038491074819,-0.0010038473019829,0.0010038235637443,0.69516966038461,125803,2834,0.0067266495119624,0.0067266495151793,0.0036478746842524,24.458654908551,-4.4330760731592e-05,-4.4330760731592e-05,-4.4330760731592e-05,3435826.7027773,0.017249188907631
29419200,0.99584145229239,0.017095132042989,0.0064627309784794,0.0064627309790926,0.0041696700854173,-0.0016210181377819,0.0016210182787467,1.3166176583931e-08,-1.3023751283162e-08,7.9632031084347e-10,-6.6258893548049e-10,-0.0017208650821775,0.0017208744346838,-0.0017208738177079,0.0017208657055822,-0.0017208655616757,0.0017208739536861,-0.0017208742891911,0.0017208652201201,-0.0014178893681456,0.0014179146717295,-0.0014179150229527,0.0014178890136983,-7.905956729037e-10,6.6877487417078e-10,1.9169696695925e-09,-2.0553599069966e-09,-0.0016210182755083,0.0016210181426274,-0.0017208694069202,0.0017208701107373,-0.0017208707210436,0.0017208687843306,-0.0017208689286569,0.0017208705976767,-0.0017208702402073,0.0017208692722487,-0.0014178999163073,0.0014179041669941,-0.0014179037731974,0.00141790022483,-0.001618706320326,0.0016187034391766,-0.0016187048759022,0.0016187048778289,-1.2907932472453e-08,1.3399783670189e-08,-0.00087662540999234,0.00087662589916892,-1.679983635973e-09,2.2553031198576e-09,-0.0010056958780521,0.0010056862636944,-0.0010056945748466,0.0010056875712487,-0.001005687104195,0.0010056950353357,-0.0010056858020398,0.0010056963404398,-0.0010044998716171,0.0010045274099192,-0.0010045256072603,0.0010045016748718,0.65089856676717,125803,2834,0.0067299965480558,0.0067299965513832,0.0036503387660816,24.777503769005,-4.1779969847963e-05,-4.1779969847963e-05,-4.1779969847963e-05,3443610.5999365,0.017258505258684
29619200,0.99598919559732,0.017097416556598,0.0064636070877133,0.0064636070883268,0.004170202380558,-0.0016217222239311,0.0016217223649272,1.3264446549028e-08,-1.3122092192444e-08,7.9669473022875e-10,-6.6273230321835e-10,-0.0017216531421992,0.0017216625603483,-0.0017216619432306,0.0017216537657347,-0.0017216536218315,0.0017216620791992,-0.0017216624148829,0.0017216532801148,-0.001418468887934,0.0014184943837562,-0.0014184947354689,0.0014184685332949,-7.9056497190042e-10,6.6872840359824e-10,1.9159061276533e-09,-2.0543473649401e-09,-0.0016217223617861,0.0016217222288836,-0.0017216575000257,0.0017216582031286,-0.0017216588134263,0.001721656877428,-0.0017216570217552,0.0017216586900591,-0.00172165833262,0.0017216573653313,-0.0014184795331076,0.0014184837816643,-0.0014184833879927,0.0014184798416265,-0.0016194091080129,0.0016194062276669,-0.0016194076633626,0.0016194076659548,-1.3005836235519e-08,1.3497501768998e-08,-0.00087723629033316,0.00087723677936368,-1.6785354036272e-09,2.2537397571807e-09,-0.0010062258522751,0.0010062161735594,-0.0010062245500657,0.0010062174801121,-0.0010062170132047,0.0010062250104141,-0.001006215712057,0.0010062263145045,-0.0010052097916278,0.001005237520117,-0.0010052357184944,0.0010052115935222,0.64191385388405,125803,2834,0.0067329104458082,0.0067329104495583,0.0036528751964676,25.087137151848,-3.9302902785217e-05,-3.9302902785217e-05,-3.9302902785217e-05,3458912.3713698,0.017267013332993
29819200,0.99613382358098,0.017099782900335,0.0064645091189429,0.0064645091195562,0.0041707646618357,-0.0016223061531571,0.0016223062941612,1.3362592226745e-08,-1.3220331046608e-08,7.9708259061517e-10,-6.629372421929e-10,-0.0017223258702183,0.0017223353540217,-0.0017223347368282,0.001722326494001,-0.0017223263500779,0.0017223348727415,-0.0017223352086061,0.0017223260081256,-0.0014189254991067,0.0014189511869806,-0.0014189515391898,0.0014189251439277,-7.9038822241764e-10,6.6853194959426e-10,1.9201339128652e-09,-2.0586171481041e-09,-0.0016223062910643,0.0016223061581326,-0.0017223302593583,0.0017223309653761,-0.001722331575685,0.0017223296369457,-0.0017223297812863,0.0017223314522822,-0.0017223310949041,0.0017223301246287,-0.0014189362359783,0.0014189404926597,-0.0014189400990203,0.0014189365439594,-0.0016199980152365,0.0016199951323973,-0.0016199965706688,0.0016199965701305,-1.3103618575259e-08,1.3595528299178e-08,-0.00087777089028723,0.0008777713795717,-1.6822591163557e-09,2.257794275943e-09,-0.0010066522094074,0.0010066424630799,-0.0010066509046314,0.0010066437722332,-0.0010066433051163,0.0010066513652193,-0.0010066420013682,0.0010066526718668,-0.0010058404678376,0.0010058683905071,-0.001005866586022,0.001005842272455,0.67837702865062,125803,2834,0.0067353277188267,0.0067353277227172,0.0036550934817399,25.339460543728,-3.7284315650172e-05,-3.7284315650172e-05,-3.7284315650172e-05,3473741.2470686,0.017274187241947
30019200,0.99627530693556,0.017102133546676,0.0064654038282098,0.0064654038288226,0.0041713258896437,-0.0016229673906989,0.0016229675316445,1.3460202326823e-08,-1.3317828432601e-08,7.9668609678661e-10,-6.629304366361e-10,-0.0017230346607756,0.0017230442095222,-0.0017230435923914,0.0017230352844181,-0.0017230351404859,0.0017230437283286,-0.0017230440640915,0.001723034798684,-0.001419507597519,0.001419533477106,-0.0014195338287169,0.0014195072428156,-7.9071948135673e-10,6.6890156684453e-10,1.9255761568305e-09,-2.0639857223735e-09,-0.0016229675284511,0.0016229673955639,-0.0017230390808305,0.0017230397902528,-0.0017230404006598,0.0017230384581651,-0.0017230386024935,0.0017230402773265,-0.0017230399197301,0.0017230389461149,-0.0014195184251766,0.0014195226928426,-0.0014195222989676,0.0014195187337091,-0.0016206686266906,0.001620665739616,-0.0016206671819821,0.001620667178431,-1.3201979556721e-08,1.3694245736928e-08,-0.00087828998711044,0.00087829047672401,-1.6878166168517e-09,2.2636768138182e-09,-0.0010071679256846,0.0010071581101605,-0.0010071666170706,0.0010071594231411,-0.0010071589556575,0.0010071670779902,-0.0010071576481081,0.0010071683884622,-0.0010064381736477,0.001006466293375,-0.0010064644848945,0.0010064399826901,0.6887308950262,125803,2834,0.006738063243935,0.006738063247396,0.0036572518572018,25.590353483657,-3.5277172130741e-05,-3.5277172130741e-05,-3.5277172130741e-05,3479658.4149722,0.017281948498385
30219200,0.99641363178688,0.017104333620881,0.0064662448405833,0.0064662448411964,0.0041718439391015,-0.0016236450934396,0.0016236452343672,1.3558068360789e-08,-1.3415705871689e-08,7.9676981564082e-10,-6.630375610694e-10,-0.0017237487032264,0.0017237583172865,-0.0017237577001234,0.001723749326928,-0.0017237491830026,0.001723757836036,-0.00172375817188,0.0017237488411226,-0.0014201178815055,0.0014201439528459,-0.0014201443045392,0.0014201175267373,-7.9079363103269e-10,6.6898757456471e-10,1.93161605387e-09,-2.0700167432844e-09,-0.0016236452311807,0.0016236450983049,-0.0017237531539746,0.0017237538673621,-0.0017237544777903,0.0017237525312479,-0.0017237526755867,0.0017237543544935,-0.0017237539968029,0.0017237530192427,-0.0014201287991377,0.0014201330787084,-0.0014201326847192,0.0014201291076842,-0.0016213529228386,0.001621350031598,-0.0016213514779735,0.0016213514705814,-1.3300002774312e-08,1.3792656898711e-08,-0.0008788001278819,0.00087880061789,-1.6935928078618e-09,2.2699242381668e-09,-0.0010077064340394,0.0010076965494055,-0.0010077051214198,0.0010076978663958,-0.0010076973985286,0.0010077055827184,-0.0010076960869731,0.0010077068971935,-0.001007019003437,0.0010070473196977,-0.0010070455068404,0.0010070208168891,0.66008312110577,125803,2834,0.0067408664321079,0.0067408664355837,0.0036593743400971,25.841190720158,-3.3270474238736e-05,-3.3270474238736e-05,-3.3270474238736e-05,3483012.8322699,0.017289811270879
30419200,0.9965490788729,0.01710637135783,0.0064670280849893,0.0064670280856027,0.0041723151872382,-0.0016243313716012,0.0016243315124368,1.3656167627218e-08,-1.3513759888912e-08,7.9693284777795e-10,-6.6356364429204e-10,-0.0017244992439768,0.0017245089236786,-0.0017245083063477,0.0017244998679526,-0.0017244997240498,0.0017245084422072,-0.0017245087783299,0.0017244993818233,-0.0014207016754829,0.0014207279391964,-0.0014207282907392,0.0014207013205327,-7.9073254136953e-10,6.6892322315835e-10,1.935855812327e-09,-2.074232919961e-09,-0.0016243315092066,0.0016243313763298,-0.0017245037261967,0.001724504442474,-0.0017245050529028,0.0017245031036026,-0.0017245032479515,0.0017245049296017,-0.0017245045719455,0.0017245035914501,-0.0014207126855132,0.0014207169734392,-0.0014207165793863,0.001420712993924,-0.0016220420358602,0.0016220391419471,-0.0016220405915388,0.0016220405809537,-1.3397928519228e-08,1.3890786071197e-08,-0.00087938797657638,0.00087938846677433,-1.6974918709577e-09,2.2739905472278e-09,-0.0010082516330337,0.0010082416806307,-0.0010082503177988,0.0010082430003023,-0.0010082425322195,0.0010082507793122,-0.0010082412180121,0.0010082520963803,-0.001007688801,0.0010077173118509,-0.001007715496374,0.0010076906175917,0.6252652691383,125803,2834,0.0067437063144075,0.0067437063175094,0.0036618164423287,26.129093245774,-3.0967254033811e-05,-3.0967254033811e-05,-3.0967254033811e-05,3492284.2711288,0.017298073488423
30619200,0.99668243211259,0.017108502458356,0.0064678418419977,0.006467841842612,0.0041728187737459,-0.001625163931778,0.0016251640725512,1.3753987627884e-08,-1.3611499988489e-08,7.9693183251485e-10,-6.638638299451e-10,-0.0017254258721643,0.0017254356171219,-0.0017254349996709,0.0017254264961526,-0.0017254263522764,0.0017254351355188,-0.0017254354717699,0.0017254260099887,-0.0014213950983471,0.0014214215538023,-0.0014214219051957,0.0014213947436297,-7.9114427232084e-10,6.6937834126216e-10,1.933919598808e-09,-2.0722360512581e-09,-0.0016251640692883,0.0016251639364578,-0.001725430387881,0.0017254311025853,-0.0017254317132166,0.0017254297649739,-0.00172542990928,0.0017254315899534,-0.0017254312320198,0.0017254302531976,-0.0014214062063773,0.0014214104907994,-0.0014214100966231,0.0014214065154992,-0.0016228832215657,0.0016228803281623,-0.0016228817768673,0.001622881768621,-1.3496349565862e-08,1.3989043381033e-08,-0.00088019349319351,0.00088019398319211,-1.6957687637408e-09,2.2720116866421e-09,-0.0010089312198398,0.0010089212028856,-0.0010089299057971,0.0010089225213136,-0.0010089220534128,0.0010089303670917,-0.0010089207404456,0.0010089316829729,-0.0010085986777284,0.0010086273796941,-0.0010086255657752,0.0010086004931401,0.66318229775146,125803,2834,0.0067471529341723,0.006747152937104,0.0036651589908677,26.523191568928,-2.7814467448572e-05,-2.7814467448572e-05,-2.7814467448572e-05,3508907.1678609,0.017308485657541
30819200,0.99681361362933,0.017110693053635,0.0064686748281447,0.0064686748287602,0.00417334339673,-0.0016260953469944,0.0016260954878145,1.3851691655152e-08,-1.3709320399378e-08,7.9727944177798e-10,-6.6390892656743e-10,-0.0017264070218222,0.0017264168320677,-0.0017264162144857,0.0017264076458898,-0.0017264075020391,0.0017264163503548,-0.0017264166866868,0.0017264071596563,-0.0014222414758831,0.0014222681224684,-0.0014222684743607,0.0014222411206468,-7.91465416216e-10,6.6978460736009e-10,1.9322171800282e-09,-2.0704892062591e-09,-0.0016260954845112,0.0016260953517392,-0.0017264115708047,0.0017264122841562,-0.0017264128949516,0.0017264109476359,-0.0017264110919282,0.0017264127717714,-0.0017264124135221,0.0017264114361928,-0.001422252680497,0.0014222569617443,-0.0014222565672596,0.0014222529896713,-0.0016238287830325,0.0016238258901011,-0.0016238273372099,0.001623827331007,-1.3594777295446e-08,1.4087302798716e-08,-0.00088098938737702,0.00088098987721922,-1.694206026145e-09,2.2702913730705e-09,-0.0010097189111328,0.0010097088294929,-0.0010097175981656,0.0010097101467943,-0.0010097096791096,0.0010097180592871,-0.001009708367252,0.0010097193741296,-0.0010094806334095,0.0010095095264397,-0.001009507713487,0.0010094824473393,0.6923632771146,125803,2834,0.0067510067065638,0.0067510067095481,0.0036684666169718,26.919950234724,-2.4640398122205e-05,-2.4640398122205e-05,-2.4640398122205e-05,3515944.465244,0.017319691637311
31019200,0.99694252805013,0.017112908713471,0.0064695152684189,0.0064695152690353,0.0041738781760173,-0.0016270928328095,0.0016270929736365,1.3949548157526e-08,-1.3807256389619e-08,7.9761998666868e-10,-6.6406462557564e-10,-0.0017274202850391,0.0017274301607064,-0.0017274295430402,0.0017274209092973,-0.001727420765425,0.0017274296788326,-0.0017274300154086,0.001727420422848,-0.0014231938584202,0.0014232206964562,-0.0014232210487997,0.0014231935030183,-7.9165902524255e-10,6.6998249165918e-10,1.930980286255e-09,-2.0692689552869e-09,-0.0016270929704363,0.0016270928376747,-0.0017274248670851,0.0017274255795193,-0.0017274261904909,0.0017274242439043,-0.0017274243881082,0.0017274260672954,-0.001727425708889,0.0017274247324952,-0.0014232051597958,0.001423209438757,-0.0014232090441266,0.0014232054691369,-0.0016248423458078,0.0016248394533293,-0.0016248408992289,0.0016248408942475,-1.3693025498469e-08,1.4185477366139e-08,-0.0008817671484913,0.00088176763829279,-1.69296807339e-09,2.2690662189531e-09,-0.0010105739130024,0.0010105637666971,-0.0010105726008786,0.0010105650831951,-0.0010105646155393,0.0010105730619766,-0.0010105633044819,0.0010105743759444,-0.0010103325142511,0.0010103615985078,-0.0010103597864092,0.0010103343270998,0.7121583164803,125803,2834,0.0067551324765882,0.006755132480035,0.0036717025694165,27.316812671185,-2.1465498630524e-05,-2.1465498630524e-05,-2.1465498630524e-05,3516472.3489235,0.017331378782756
31219200,0.99707019068744,0.017115207977417,0.0064703840495207,0.0064703840501374,0.0041744398777585,-0.0016284319284436,0.0016284320686916,1.4047590880918e-08,-1.3905323961663e-08,7.9965716178732e-10,-6.6771497529526e-10,-0.0017287513817776,0.0017287613245435,-0.0017287607054916,0.0017287520079151,-0.0017287518643457,0.0017287608408835,-0.0017287611796701,0.0017287515191687,-0.0014245121543876,0.0014245391836639,-0.0014245395368926,0.0014245117969352,-7.8949141199106e-10,6.6753013717413e-10,1.9220637705942e-09,-2.0605052309171e-09,-0.001628432065543,0.0016284319325364,-0.0017287559998386,0.0017287567078489,-0.0017287573179623,0.0017287553785418,-0.0017287555228634,0.001728757194377,-0.001728756837681,0.0017287558650661,-0.0014245235622345,0.0014245278223019,-0.0014245274294754,0.001424523869597,-0.0016262013815855,0.0016261984993604,-0.0016261999411024,0.0016261999363573,-1.3791354123693e-08,1.4283370125847e-08,-0.00088279466939157,0.00088279515861549,-1.6842050701158e-09,2.2593905969412e-09,-0.0010117445985041,0.0010117343925392,-0.001011743292688,0.0010117357030353,-0.0010117352358308,0.0010117437533216,-0.0010117339308941,0.0010117450608841,-0.0010114411545315,0.0010114704240668,-0.0010114686196592,0.0010114429620868,0.74546029131472,125803,2834,0.0067606707037108,0.0067606707056628,0.0036759786748516,27.866115084516,-1.7071079323872e-05,-1.7071079323872e-05,-1.7071079323872e-05,3515135.0592781,0.017346998485967
31419200,0.99719655743408,0.017117380768118,0.006471208958958,0.006471208959577,0.0041749628495827,-0.0016298630845956,0.0016298632254247,1.4146064001279e-08,-1.4003655806633e-08,7.9687638179706e-10,-6.6348657452882e-10,-0.0017301456194123,0.0017301556256902,-0.0017301550083999,0.0017301462432984,-0.0017301460993704,0.0017301551442678,-0.0017301554803728,0.0017301457572261,-0.0014259572806966,0.0014259845044942,-0.0014259848560303,0.0014259569259446,-7.9307419348072e-10,6.7161980606177e-10,1.9142913293859e-09,-2.0523465435086e-09,-0.001629863222058,0.0016298630895148,-0.0017301502727424,0.001730150973225,-0.001730151585124,0.0017301496489205,-0.0017301497927875,0.0017301514620631,-0.0017301511024985,0.0017301501384219,-0.0014259687909263,0.0014259730382948,-0.001425972642567,0.0014259691018365,-0.0016276477340974,0.0016276448501063,-0.0016276462848607,0.0016276462941943,-1.3889352759042e-08,1.438083407042e-08,-0.00088381345735042,0.00088381394612219,-1.6760597215039e-09,2.2508974306405e-09,-0.0010129986542848,0.001012988388081,-0.0010129973538729,0.0010129896929642,-0.0010129892262533,0.0010129978140084,-0.0010129879268686,0.001012999116217,-0.0010125287502721,0.0010125582050373,-0.0010125564057672,0.0010125305506265,0.71242629649466,125803,2834,0.0067665882582218,0.0067665882614349,0.0036802224289308,28.434175137228,-1.2526598902179e-05,-1.2526598902179e-05,-1.2526598902179e-05,3508598.4476796,0.017363358021589
31619200,0.99732144403721,0.01711943005716,0.0064719906145723,0.0064719906151918,0.0041754488273963,-0.0016312144813184,0.0016312146221186,1.4243458795934e-08,-1.4101168889382e-08,7.9767747520656e-10,-6.6426312251169e-10,-0.0017314967125379,0.0017315067842331,-0.0017315061664724,0.0017314973368628,-0.0017314971930002,0.0017315063022714,-0.0017315066389461,0.001731496850323,-0.0014272794963127,0.0014273069103263,-0.0014273072626406,0.0014272791408744,-7.9246341966885e-10,6.7094320507303e-10,1.9072699746945e-09,-2.045389159302e-09,-0.0016312146188129,0.0016312144862047,-0.0017315014006776,0.0017315020968696,-0.0017315027084199,0.0017315007772056,-0.0017315009211475,0.0017315025852763,-0.0017315022262313,0.001731501266362,-0.0014272911086079,0.0014272953416479,-0.0014272949465685,0.0014272914190163,-0.0016290082273613,0.0016290053491595,-0.0016290067792193,0.0016290067919813,-1.3988253615171e-08,1.4479352038234e-08,-0.00088483667703138,0.00088483716542116,-1.6698118809539e-09,2.24419779366e-09,-0.0010141683907404,0.0010141580626279,-0.0010141670946073,0.0010141593631499,-0.0010141588968512,0.0010141675543676,-0.0010141576018048,0.0010141688523167,-0.0010136393488134,0.0010136689920139,-0.0010136671973482,0.0010136411444013,0.68057766501543,125803,2834,0.0067721769849994,0.0067721769882712,0.0036844811338785,29.002757045778,-7.9779436337786e-06,-7.9779436337786e-06,-7.9779436337786e-06,3509845.2446722,0.017379063361407
31819200,0.99744255949224,0.017121350128525,0.0064727255264589,0.0064727255270787,0.0041758990749872,-0.0016318924409248,0.0016318925821185,1.4340192315204e-08,-1.4198295951275e-08,7.9726754090625e-10,-6.6194726184788e-10,-0.0017322106835756,0.0017322208189669,-0.0017322202019765,0.0017322113069601,-0.0017322111630364,0.0017322203379351,-0.0017322206735104,0.0017322108215296,-0.0014278938253381,0.0014279214284948,-0.0014279217818168,0.0014278934697716,-7.9292834040702e-10,6.7147012095968e-10,1.9202400008451e-09,-2.0584809629777e-09,-0.0016318925790389,0.001631892446449,-0.0017322153989773,0.0017322161034382,-0.0017322167150675,0.0017322147748807,-0.0017322149189276,0.001732216592098,-0.0017322162325439,0.0017322152645934,-0.0014279055173356,0.0014279097759297,-0.0014279093801363,0.0014279058272085,-0.0016296893100839,0.0016296864220737,-0.0016296878582368,0.001629687863683,-1.4087058978619e-08,1.4578935580614e-08,-0.0008853421956469,0.00088534268503089,-1.6831860637954e-09,2.2590379253768e-09,-0.0010147073601015,0.0010146969573019,-0.0010147060545282,0.0010146982671174,-0.0010146977999993,0.0010147065151783,-0.0010146964955422,0.0010147078226805,-0.0010142188048812,0.0010142486520476,-0.0010142468459743,0.001014220609098,0.65805652799712,125803,2834,0.0067749808972807,0.0067749809023457,0.003686584858775,29.265421467309,-5.8766282615307e-06,-5.8766282615307e-06,-5.8766282615307e-06,3514120.3989878,0.017386909328312
32019200,0.99755830844363,0.017123355562661,0.0064734863562539,0.0064734863568716,0.0041763828495357,-0.0016320399205509,0.001632040061528,1.4438684105347e-08,-1.4296524588929e-08,7.9699677264862e-10,-6.6280862782786e-10,-0.0017324129632796,0.0017324231645975,-0.0017324225475339,0.0017324135870451,-0.0017324134430677,0.001732422683387,-0.0017324230192628,0.0017324131011955,-0.0014279629934764,0.0014279907903232,-0.0014279911426487,0.0014279626382897,-7.9126970637127e-10,6.6957634890928e-10,1.9483887584322e-09,-2.0867370407334e-09,-0.0016320400583565,0.0016320399255726,-0.0017324177021522,0.0017324184264025,-0.0017324190370786,0.0017324170791641,-0.0017324172234512,0.0017324189139467,-0.0017324185556893,0.0017324175674388,-0.0014279747565829,0.0014279790693553,-0.0014279786747326,0.0014279750651699,-0.0016298453094647,0.0016298424060985,-0.0016298438627823,0.0016298438454291,-1.4183816124603e-08,1.4677592821791e-08,-0.0008854437416992,0.00088544423289505,-1.7097231458006e-09,2.2875348596202e-09,-0.0010147511566222,0.0010147406722119,-0.00101474983277,0.0010147420004569,-0.0010147415314772,0.0010147502952261,-0.0010147402086686,0.0010147516209184,-0.0010143837193857,0.0010144137780958,-0.0010144119525117,0.0010143855448071,0.71766338559482,125803,2834,0.0067755913180394,0.0067755913218721,0.0036870067351766,29.280953402185,-5.7523727825165e-06,-5.7523727825165e-06,-5.7523727825165e-06,3519446.9359178,0.017388580242745
32219200,0.99766888400674,0.017125314164303,0.0064742280662983,0.0064742280669157,0.0041768580310895,-0.0016322905042969,0.0016322906452689,1.4536782735501e-08,-1.4394426459623e-08,7.9634244722605e-10,-6.6248830531938e-10,-0.0017326541919934,0.0017326644583734,-0.0017326638416095,0.0017326548155157,-0.0017326546714767,0.0017326639774982,-0.0017326643130107,0.0017326543299753,-0.0014282106722173,0.0014282386619322,-0.0014282390134485,0.0014282103177615,-7.9049815364756e-10,6.6869328750821e-10,1.9736182958225e-09,-2.112030005003e-09,-0.0016322906420807,0.0016322905092078,-0.0017326589549709,0.0017326596964304,-0.001732660306531,0.0017326583323211,-0.001732658476813,0.0017326601834217,-0.0017326598257013,0.0017326588200563,-0.0014282225080078,0.001428226869743,-0.001428226475634,0.0014282228159613,-0.0016301100605038,0.0016301071418828,-0.0016301086160608,0.0016301085801455,-1.4281083019087e-08,1.4776465975372e-08,-0.00088550100713549,0.00088550149994244,-1.7339384343361e-09,2.3136170892377e-09,-0.001014906596162,0.0010148960311503,-0.0010149052555337,0.0010148973761672,-0.0010148969056001,0.0010149057195466,-0.0010148955660302,0.0010149070620075,-0.0010144747826717,0.0010145050516917,-0.0010145032080503,0.0010144766268418,0.73340851772091,125803,2834,0.0067766259160349,0.0067766259196015,0.0036872511664751,29.29019737671,-5.6784209863227e-06,-5.6784209863227e-06,-5.6784209863227e-06,3512163.9126055,0.017390934762069
32419200,0.99777451263895,0.017127231423259,0.0064749526721129,0.0064749526727305,0.004177326078416,-0.0016325594715711,0.0016325596125963,1.4634716064176e-08,-1.4492297756075e-08,7.9582438675832e-10,-6.6189182701197e-10,-0.0017328986224189,0.0017329089537416,-0.0017329083373686,0.0017328992456839,-0.0017328991015654,0.0017329084732584,-0.0017329088083859,0.0017328987604747,-0.0014284952480085,0.001428523430027,-0.0014285237811565,0.0014284948940554,-7.8997045276846e-10,6.6809595403173e-10,1.9966900266209e-09,-2.1351680509934e-09,-0.0016325596094528,0.0016325594765187,-0.0017329034100807,0.0017329041671836,-0.0017329047768998,0.0017329027876887,-0.0017329029323263,0.0017329046538262,-0.001732904296421,0.0017329032750085,-0.0014285071577589,0.0014285115643742,-0.0014285111704864,0.0014285074650769,-0.0016303927802999,0.0016303898473534,-0.0016303913368971,0.0016303912843835,-1.4378564282302e-08,1.4875307551977e-08,-0.00088554065035812,0.00088554114459815,-1.755994977114e-09,2.3373920389937e-09,-0.0010150820954202,0.0010150714510993,-0.001015080739541,0.0010150728114015,-0.0010150723394317,0.0010150812049663,-0.0010150709845786,0.0010150825626742,-0.0010145454772382,0.0010145759548971,-0.0010145740946946,0.0010145473380469,0.75109425438624,125803,2834,0.0067777358658641,0.0067777358695986,0.0036874242056399,29.299194829494,-5.6064413640439e-06,-5.6064413640439e-06,-5.6064413640439e-06,3502689.1494457,0.017393370171037
32619200,0.99787515557363,0.017128922707603,0.0064755965898138,0.0064755965904314,0.0041777295273577,-0.0016327504860363,0.0016327506271845,1.4731062512976e-08,-1.4588791755073e-08,7.9594827091492e-10,-6.6135648095466e-10,-0.0017330525594196,0.0017330629547063,-0.001733062338412,0.0017330531822641,-0.0017330530383206,0.0017330624743491,-0.001733062809155,0.0017330526975885,-0.0014287180279835,0.001428746398232,-0.0014287467501626,0.0014287176737233,-7.8938550969689e-10,6.6744618231311e-10,2.016593958211e-09,-2.1552036915912e-09,-0.0016327506241821,0.0016327504911718,-0.0017330573722363,0.0017330581428103,-0.0017330587518978,0.0017330567496264,-0.0017330568946604,0.0017330586289148,-0.0017330582718121,0.0017330572370596,-0.0014287300121484,0.001428734457004,-0.0014287340635821,0.0014287303184556,-0.0016305913465193,0.0016305884011787,-0.001630589903427,0.0016305898368545,-1.4477585965264e-08,1.4975539140206e-08,-0.00088547125238063,0.00088547174791679,-1.7766842937681e-09,2.3597587546204e-09,-0.0010151876409153,0.0010151769168766,-0.0010151862705477,0.0010151782912877,-0.0010151778182552,0.0010151867370462,-0.001015176449098,0.0010151881094797,-0.0010144962704199,0.0010145269585575,-0.0010145250823463,0.0010144981462827,0.69653886291702,125803,2834,0.0067785225024307,0.0067785225068469,0.0036871461156723,29.262951256453,-5.8963899483732e-06,-5.8963899483732e-06,-5.8963899483732e-06,3490586.9878453,0.017394689051248
32819200,0.9979709367654,0.017130409334156,0.0064761669391447,0.0064761669397618,0.0041780754552492,-0.0016327712165314,0.001632771357644,1.4830390218171e-08,-1.4687977434019e-08,7.9547641338867e-10,-6.6130897258248e-10,-0.0017330923005151,0.0017331027621345,-0.0017331021460896,0.00173309292364,-0.0017330927794169,0.0017331022820096,-0.0017331026167582,0.0017330924386785,-0.0014287040358176,0.0014287326015735,-0.0014287329524769,0.0014287036819448,-7.8923036108363e-10,6.6726824457619e-10,2.0334643328643e-09,-2.172034301968e-09,-0.0016327713544972,0.0016327712214793,-0.0017330971409675,0.0017330979229691,-0.0017330985321177,0.001733096518894,-0.0017330966637751,0.0017330984091258,-0.0017330980521146,0.0017330970056357,-0.0014287161014838,0.0014287205796969,-0.0014287201859197,0.0014287164075838,-0.0016306130759673,0.0016306101199474,-0.0016306116337981,0.0016306115550523,-1.4573860605601e-08,1.5072787911323e-08,-0.00088538609819023,0.00088538659466193,-1.7914266287105e-09,2.375530598408e-09,-0.001015128987879,0.0010151181902344,-0.0010151276075176,0.0010151195750566,-0.0010151191009818,0.0010151280750694,-0.0010151177215993,0.0010151294572574,-0.001014451774133,0.0010144826626563,-0.0010144807756324,0.0010144536615595,0.6444613533233,125803,2834,0.0067786069343147,0.0067786069380441,0.0036867961808852,29.204512006072,-6.3639039514253e-06,-6.3639039514253e-06,-6.3639039514253e-06,3489688.3403488,0.017394504993683
33019200,0.99806210164136,0.017131938757187,0.0064767488204086,0.0064767488210257,0.0041784411157525,-0.0016326868910187,0.0016326870321085,1.4928123894474e-08,-1.4785661806828e-08,7.9527731947085e-10,-6.6120629824852e-10,-0.0017330760763001,0.0017330866028889,-0.0017330859869337,0.0017330766992626,-0.0017330765550582,0.0017330861228512,-0.0017330864574894,0.0017330762144662,-0.0014285300742237,0.0014285588315388,-0.0014285591823747,0.0014285297207013,-7.8927556158514e-10,6.6729066665856e-10,2.0451444755857e-09,-2.1837349729801e-09,-0.0016326870289893,0.0016326868959549,-0.0017330809454794,0.0017330817351534,-0.0017330823442097,0.001733080323204,-0.0017330804681855,0.0017330822212666,-0.0017330818642182,0.0017330808100637,-0.0014285422244895,0.0014285467255655,-0.0014285463318544,0.0014285425307437,-0.0016305326301473,0.0016305296662563,-0.0016305311881084,0.0016305311018268,-1.4671856047293e-08,1.5171505062964e-08,-0.00088534764168338,0.00088534813888669,-1.8027914131142e-09,2.3877926105279e-09,-0.001014966975163,0.0010149561047391,-0.0010149655868814,0.0010149574974096,-0.0010149570226181,0.001014966055098,-0.001014955635385,0.0010149674452255,-0.0010144694016178,0.0010145004912227,-0.0010144985956585,0.0010144712976505,0.69524135138863,125803,2834,0.0067782593172731,0.0067782593210347,0.0036866333159922,29.145501755745,-6.8359859540414e-06,-6.8359859540414e-06,-6.8359859540414e-06,3498844.0260185,0.017393631060445
33219200,0.99814888556644,0.017133467319687,0.0064773277402096,0.0064773277408268,0.0041788118386507,-0.0016327082459273,0.0016327083870213,1.5026030984538e-08,-1.4883559867874e-08,7.9534246101023e-10,-6.6131477816983e-10,-0.0017331113109942,0.0017331219029338,-0.001733121286926,0.0017331119340419,-0.0017331117898126,0.0017331214228437,-0.0017331217575442,0.0017331114491855,-0.0014285275993349,0.0014285565485404,-0.0014285568993555,0.0014285272457649,-7.8934842230047e-10,6.6738932467105e-10,2.0523965496935e-09,-2.1909565143412e-09,-0.001632708383869,0.0016327082508555,-0.0017331162105091,0.0017331170049347,-0.001733117614005,0.0017331155881646,-0.0017331157331626,0.0017331174911227,-0.0017331171339607,0.0017331160750875,-0.0014285398384584,0.001428544353833,-0.0014285439599764,0.001428540144723,-0.0016305637776069,0.0016305608087709,-0.0016305623354823,0.0016305622445539,-1.4769851529113e-08,1.5269796440494e-08,-0.00088528925378684,0.00088528975130175,-1.8097622805579e-09,2.3951429997607e-09,-0.0010149228074412,0.0010149118670978,-0.0010149214143832,0.0010149132645434,-0.0010149127894631,0.0010149218829104,-0.0010149113974517,0.0010149232778105,-0.0010144405276793,0.0010144718143691,-0.0010144699137487,0.0010144424288443,0.72922790473031,125803,2834,0.0067783468673007,0.0067783468709767,0.0036863933330132,29.08646907184,-7.3082474252785e-06,-7.3082474252785e-06,-7.3082474252785e-06,3496806.5871369,0.017393565111983
33419200,0.99823284701794,0.017134974318011,0.0064778976072285,0.0064778976078459,0.0041791791029366,-0.001633349018094,0.0016333491587144,1.5122285982014e-08,-1.4979576690744e-08,7.963374934362e-10,-6.6404988373187e-10,-0.0017337292674232,0.0017337399246106,-0.0017337393075789,0.0017337298915348,-0.0017337297476189,0.0017337394431923,-0.0017337397793821,0.0017337294053918,-0.0014291789883276,0.0014292081258341,-0.0014292084765347,0.0014291786341344,-7.8875890460395e-10,6.6671726215545e-10,2.0358399638744e-09,-2.1743284292664e-09,-0.001633349155453,0.0016333490223934,-0.0017337342051739,0.0017337349890751,-0.0017337355979679,0.0017337335834212,-0.0017337337284467,0.0017337354748261,-0.001733735118266,0.0017337340698647,-0.0014291913398232,0.0014291958222674,-0.0014291954293228,0.0014291916462472,-0.0016312182602569,0.0016312153035577,-0.0016312168214052,0.0016312167400521,-1.4870350086198e-08,1.5369332581234e-08,-0.00088570220659964,0.00088570270296941,-1.7957054361503e-09,2.3795110031439e-09,-0.001015461332181,0.0010154503340325,-0.001015459949069,0.0010154517215643,-0.0010154512475534,0.0010154604164496,-0.001015449865403,0.0010154618014856,-0.0010148917945738,0.0010149232663997,-0.0010149213777324,0.0010148936862062,0.74278652280029,125803,2834,0.0067809956708952,0.0067809956730397,0.0036881157071726,29.311570770124,-5.5074338390114e-06,-5.5074338390114e-06,-5.5074338390114e-06,3491668.8677749,0.01740070798186
33619200,0.99831437676664,0.017136438244266,0.0064784513299389,0.0064784513305578,0.0041795355837691,-0.0016341585225979,0.0016341586633636,1.5224784122766e-08,-1.5082086382908e-08,7.9518136263756e-10,-6.6251287433352e-10,-0.0017345061959747,0.0017345169206965,-0.0017345163041805,0.0017345068192639,-0.0017345066751616,0.0017345164401615,-0.0017345167754659,0.0017345063338044,-0.0014300109421839,0.0014300402821647,-0.0014300406312704,0.0014300105886769,-7.9144787134022e-10,6.6982048048167e-10,2.0151065287796e-09,-2.1532188090221e-09,-0.0016341586597992,0.0016341585271089,-0.0017345111751638,0.0017345119435871,-0.0017345125538562,0.0017345105518692,-0.0017345106963226,0.0017345124311768,-0.0017345120726521,0.0017345110400722,-0.0014300234129345,0.0014300278575798,-0.0014300274616465,0.0014300237217614,-0.0016320380711092,0.0016320351234197,-0.0016320366261995,0.001632036563407,-1.4965026249655e-08,1.5461877963801e-08,-0.0008862291321862,0.00088622962649614,-1.7712076678969e-09,2.3525615483982e-09,-0.0010161557053084,0.0010161446598322,-0.0010161543392282,0.0010161460304238,-0.0010161455581329,0.0010161548049143,-0.0010161441932932,0.0010161561725871,-0.0010154593777276,0.0010154910129909,-0.0010154891428519,0.0010154612493059,0.74303041878804,125803,2834,0.0067843418665797,0.0067843418685378,0.0036903133652464,29.613212365511,-3.0943010759129e-06,-3.0943010759129e-06,-3.0943010759129e-06,3485932.1804527,0.017409753833472
33819200,0.998393485666,0.017137862989099,0.0064789902276623,0.0064789902282827,0.0041798825331539,-0.0016349613812479,0.0016349615215349,1.5311769070789e-08,-1.5169860224242e-08,7.9971027304716e-10,-6.6687136941978e-10,-0.0017352794589864,0.0017352902443595,-0.0017352896255011,0.0017352800842501,-0.0017352799411373,0.0017352897605299,-0.0017352900992806,0.0017352795967362,-0.0014308331453822,0.0014308626506934,-0.0014308630058885,0.0014308327883758,-7.8861752851113e-10,6.6659762110923e-10,1.9854503025445e-09,-2.1240145331963e-09,-0.0016349615186178,0.001634961385554,-0.0017352844771662,0.0017352852277967,-0.0017352858363879,0.0017352838550957,-0.0017352840002065,0.0017352857128864,-0.0017352853568832,0.0017352843423264,-0.0014308457285999,0.0014308501113918,-0.0014308497200347,0.0014308460360843,-0.0016328499843035,0.0016328470611472,-0.0016328485449194,0.0016328484987114,-1.5076285938048e-08,1.5568302902474e-08,-0.00088674695388355,0.00088674744337031,-1.7546956964035e-09,2.3311236521513e-09,-0.0010168421945399,0.0010168310843266,-0.0010168408413266,0.0010168324416458,-0.0010168319749276,0.0010168413014071,-0.0010168306225181,0.0010168426571018,-0.0010160245051472,0.0010160563369849,-0.0010160544839194,0.0010160263593449,0.74517768545229,125803,2834,0.0067876603510695,0.0067876603539435,0.0036924736132306,29.916868073416,-6.6505541266902e-07,-6.6505541266902e-07,-6.6505541266902e-07,3481052.3019629,0.017418705292442
34019200,0.99847017807979,0.017139204636699,0.0064794991615042,0.0064794991621251,0.0041802063130692,-0.0016357554096108,0.0016357555503763,1.5419132504616e-08,-1.5276857574782e-08,7.9725685346803e-10,-6.6375907849813e-10,-0.0017360454344092,0.0017360562898848,-0.0017360556727181,0.0017360460586161,-0.001736045914546,0.0017360558083362,-0.0017360561449131,0.0017360455723181,-0.0014316448592372,0.0014316745780181,-0.0014316749302783,0.0014316445041312,-7.9229854552917e-10,6.7079330096224e-10,1.9662772516027e-09,-2.1043870158771e-09,-0.0016357555470812,0.0016357554144949,-0.0017360504949503,0.0017360512304601,-0.0017360518417584,0.0017360498714431,-0.001736050015424,0.0017360517188137,-0.0017360513596936,0.0017360503604478,-0.0014316575660641,0.0014316619151133,-0.0014316615195738,0.001431657875902,-0.0016336512707408,0.0016336483536884,-0.0016336498228897,0.0016336497957722,-1.5166471932453e-08,1.5655827726886e-08,-0.00088725326877499,0.00088725375567183,-1.7278963761099e-09,2.3014203329919e-09,-0.0010175182824588,0.0010175071291516,-0.0010175169479058,0.0010175084680813,-0.0010175080035153,0.0010175174059087,-0.0010175066701506,0.001017518742197,-0.0010165802161122,0.0010166121992168,-0.0010166103676621,0.0010165820484654,0.72426544589876,125803,2834,0.0067909421889903,0.0067909421922794,0.0036945862479132,30.220603254467,1.764826035737e-06,1.764826035737e-06,1.764826035737e-06,3476626.2083648,0.017427533825565
34219200,0.99854574259234,0.017140492415053,0.0064799888805832,0.0064799888812043,0.004180514653265,-0.0016371038838976,0.0016371040240358,1.5512339927722e-08,-1.5369167861648e-08,7.9805042893073e-10,-6.6796812167945e-10,-0.0017373849218628,0.0017373958409971,-0.0017373952232964,0.0017373855483733,-0.0017373854039816,0.0017373953582455,-0.0017373956961354,0.0017373850602904,-0.0014329793100535,0.0014330092091562,-0.0014330095624918,0.0014329789548494,-7.9112649351103e-10,6.6950160242803e-10,1.9244332081096e-09,-2.0623079167764e-09,-0.0016371040201992,0.001637103887592,-0.001737390028533,0.0017373907368743,-0.001737391349494,0.001737389407335,-0.0017373895507875,0.0017373912255283,-0.001737390866627,0.0017373898948165,-0.0014329921532644,0.0014329964171347,-0.0014329960260782,0.0014329924639641,-0.0016350078792606,0.0016350049919313,-0.0016350064390415,0.0016350064417716,-1.5270387027156e-08,1.5759107810897e-08,-0.00088830065889672,0.00088830114418223,-1.6925526233869e-09,2.2638049153441e-09,-0.0010187041033908,0.0010186929037022,-0.0010187027935002,0.0010186942184447,-0.0010186937559129,0.0010187032493126,-0.0010186924463118,0.0010187045612229,-0.0010177109117396,0.001017743073582,-0.0010177412712325,0.0010177127237077,0.7059434814745,125803,2834,0.0067965187226139,0.0067965187223115,0.0036989447010656,30.831737506641,6.6539000531275e-06,6.6539000531275e-06,6.6539000531275e-06,3480323.4405086,0.017443316550296
34419200,0.99862018572396,0.017141766081823,0.0064804731052668,0.0064804731058912,0.0041808198706647,-0.0016384822555388,0.0016384823959548,1.5611948592275e-08,-1.5469741927415e-08,7.989338858829e-10,-6.6630795321999e-10,-0.0017387752432694,0.0017387862285913,-0.0017387856103195,0.0017387758687515,-0.0017387757249767,0.001738785745532,-0.001738786083772,0.0017387753810364,-0.0014343207007482,0.0014343507957954,-0.0014343511493345,0.0014343203442544,-7.9229083329419e-10,6.7077918206567e-10,1.889931360388e-09,-2.0280035698977e-09,-0.0016384823926985,0.00163848226012,-0.0017387803938701,0.0017387810788678,-0.0017387816908255,0.0017387797711073,-0.001738779914699,0.0017387815672856,-0.0017387812084666,0.0017387802599353,-0.0014343336712538,0.0014343378700883,-0.0014343374757081,0.0014343339819902,-0.0016363921562066,0.0016363892896825,-0.0016363907088192,0.0016363907331162,-1.5368883315498e-08,1.5852787898859e-08,-0.0008894159718655,0.00088941645306134,-1.6579162172039e-09,2.2247932367234e-09,-0.0010199140398259,0.0010199027969412,-0.0010199127543317,0.0010199040869279,-0.0010199036279879,0.0010199132067055,-0.0010199023433499,0.0010199144941435,-0.0010189178090754,0.0010189501290285,-0.0010189483523045,0.0010189195877947,0.70867957956087,125803,2834,0.0068022196837402,0.0068022196864797,0.0037035832549769,31.47550387102,1.1804030968162e-05,1.1804030968162e-05,1.1804030968162e-05,3488021.4785652,0.017459637491799
34619200,0.99869337321736,0.017143067835729,0.0064809663126224,0.0064809663132473,0.0041811352098591,-0.0016398695172491,0.0016398696575346,1.570977075764e-08,-1.5567804623961e-08,7.9907465493545e-10,-6.6640181858776e-10,-0.0017401721204482,0.0017401831710647,-0.0017401825526239,0.0017401727457273,-0.0017401726021586,0.0017401826878265,-0.0017401830262369,0.0017401722580294,-0.0014356742285682,0.0014357045150267,-0.0014357048688336,0.0014356738714178,-7.9266370760902e-10,6.7121029081425e-10,1.8580391734328e-09,-1.9960805124708e-09,-0.0016398696541992,0.001639869521662,-0.0017401773143853,0.001740177977981,-0.0017401785901886,0.0017401766914181,-0.0017401768348064,0.0017401784664932,-0.0017401781076029,0.0017401771805635,-0.0014356873247702,0.0014356914613744,-0.001435691067,0.0014356876362854,-0.0016377875804477,0.0016377847347009,-0.001637786132563,0.0016377861792006,-1.5468269105105e-08,1.5949972146241e-08,-0.00089053499515659,0.00089053547399241,-1.6273769938676e-09,2.1915261662439e-09,-0.0010211329714463,0.0010211216819693,-0.0010211317072324,0.0010211229506892,-0.0010211224940728,0.0010211321571825,-0.0010211212306874,0.0010211334233419,-0.0010201272392048,0.0010201597280542,-0.0010201579744518,0.0010201289942212,0.73613738140376,125803,2834,0.0068079573134862,0.0068079573157176,0.0037082374795489,32.120195934908,1.6961567479268e-05,1.6961567479268e-05,1.6961567479268e-05,3494892.1853331,0.017476049305243
34819200,0.99876629549668,0.017144375988051,0.0064814617498273,0.0064814617504528,0.0041814524877705,-0.0016418694052538,0.0016418695440801,1.5803019702831e-08,-1.5659668943157e-08,7.9637880946815e-10,-6.7071398373643e-10,-0.0017421527836951,0.0017421638964981,-0.0017421632776402,0.001742153409563,-0.0017421532664721,0.001742163412349,-0.0017421637514361,0.0017421529213685,-0.0014376656638694,0.0014376961337318,-0.0014376964812422,0.0014376653089887,-7.9221966076258e-10,6.7087688814848e-10,1.8145344430001e-09,-1.9517080575483e-09,-0.0016418695390698,0.0016418694066968,-0.0017421580251721,0.0017421586599892,-0.0017421592726532,0.0017421574032731,-0.0017421575466238,0.0017421591481558,-0.0017421587898155,0.0017421578920863,-0.001437678900118,0.0014376829495952,-0.0014376825562299,0.0014376792144359,-0.0016398001113998,0.0016397972935939,-0.001639798670299,0.0016397987457048,-1.5572987121626e-08,1.6052955006773e-08,-0.00089212955846888,0.00089213003464114,-1.591579024993e-09,2.1511344207989e-09,-0.00102292381759,0.0010229124807752,-0.0010229225783701,0.0010229137244276,-0.0010229132702162,0.0010229230256072,-0.0010229120316043,0.0010229242673034,-0.0010218259072452,0.0010218585758551,-0.0010218568524893,0.0010218276402904,0.74236046707521,125803,2834,0.0068162281443193,0.0068162281369326,0.0037148710119272,33.050508710883,2.4404069687061e-05,2.4404069687061e-05,2.4404069687061e-05,3499714.5553554,0.017499630978469
35019200,0.99883910518411,0.017145644253944,0.006481943633707,0.0064819436343401,0.0041817569858971,-0.0016440782841765,0.0016440784219561,1.5881533389821e-08,-1.57405679811e-08,7.9671306313928e-10,-6.698852428186e-10,-0.0017443399513367,0.0017443511199241,-0.0017443504962765,0.0017443405742662,-0.0017443404363314,0.0017443506295629,-0.0017443509743288,0.0017443400862796,-0.0014398665689565,0.0014398971954181,-0.0014398975354912,0.0014398662180362,-7.9274673501376e-10,6.7128584708636e-10,1.766246152349e-09,-1.9039035480756e-09,-0.0016440784179666,0.0016440782852515,-0.0017443452344101,0.0017443458417926,-0.0017443464464237,0.0017443446092741,-0.0017443447555196,0.0017443463214609,-0.0017443459694556,0.0017443451001809,-0.0014398799222427,0.0014398838817254,-0.0014398834823383,0.0014398802459075,-0.0016420194691431,0.0016420166856566,-0.0016420180258266,0.0016420181263753,-1.5695715920329e-08,1.6163329961776e-08,-0.0008938825382027,0.00089388300511838,-1.5690663650408e-09,2.1172020108979e-09,-0.0010249042911107,0.0010248928924673,-0.0010249030736802,0.0010248941158888,-0.0010248936688456,0.0010249035134512,-0.0010248924487034,0.0010249047355491,-0.00102369499078,0.0010237278684581,-0.0010237261608735,0.0010236966871549,0.72136487567985,125803,2834,0.0068253629350046,0.0068253629289845,0.0037221642413715,34.08240768518,3.2659261481436e-05,3.2659261481436e-05,3.2659261481436e-05,3504865.0970583,0.017525642945924
35219200,0.99891152457967,0.017146871252664,0.0064824112431424,0.0064824112437797,0.0041820487657423,-0.0016462485037746,0.0016462486437199,1.5994713304194e-08,-1.5852689655036e-08,7.9884449531961e-10,-6.6742763630856e-10,-0.0017465117476589,0.0017465229897651,-0.0017465223705695,0.0017465123728593,-0.0017465122300519,0.0017465225054243,-0.0017465228445709,0.0017465118852429,-0.0014420007893172,0.001442031634416,-0.001442031985914,0.0014420004328174,-7.9276815541821e-10,6.7138121609421e-10,1.7443749307728e-09,-1.8822087838651e-09,-0.0016462486400811,0.001646248507581,-0.0017465170746633,0.0017465176637344,-0.0017465182759507,0.0017465164519525,-0.0017465165953394,0.0017465181514381,-0.0017465177935161,0.0017465169416611,-0.0014420142762826,0.0014420181898427,-0.0014420177950908,0.0014420145899446,-0.0016441974356404,0.0016441946641027,-0.001644195987348,0.0016441961090587,-1.5775941910788e-08,1.6249774894943e-08,-0.00089564288003801,0.00089564335116006,-1.5277135949351e-09,2.0822615038771e-09,-0.0010268435396713,0.0010268321105364,-0.0010268423457473,0.0010268333093575,-0.0010268328603458,0.0010268427880394,-0.0010268316660458,0.0010268439846847,-0.0010255852831303,0.001025618291003,-0.0010256166142203,0.0010255869614438,0.7021422860197,125803,2834,0.0068343384057885,0.0068343384061396,0.0037294861513866,35.116957612439,4.0935660899516e-05,4.0935660899516e-05,4.0935660899516e-05,3514178.7367033,0.017551360199567
35419200,0.99898242056348,0.017148036376256,0.0064828567348314,0.0064828567354695,0.0041823229059552,-0.0016479427758518,0.0016479429162066,1.6102048053544e-08,-1.5961512423987e-08,7.9549955826984e-10,-6.5981032177699e-10,-0.0017482300523305,0.0017482413592031,-0.001748240738882,0.0017482306675408,-0.0017482305292718,0.0017482408764651,-0.0017482412113008,0.0017482301878714,-0.0014436390371989,0.0014436701035435,-0.0014436704507219,0.0014436386759043,-7.9743545207079e-10,6.7652678209107e-10,1.7446019616177e-09,-1.8825568668417e-09,-0.0016479429129322,0.0016479427806187,-0.0017482354127159,0.0017482359982349,-0.001748236605248,0.0017482347778866,-0.0017482349255571,0.0017482364843576,-0.0017482361253291,0.0017482352788363,-0.0014436526237036,0.0014436565474342,-0.001443656141625,0.0014436529311279,-0.0016458960675736,0.0016458932869736,-0.0016458946043422,0.0016458947210082,-1.5868873386195e-08,1.6333149424203e-08,-0.00089702677190899,0.00089702723591744,-1.5219572618809e-09,2.0685604429407e-09,-0.0010283366029692,0.0010283251129771,-0.0010283354119595,0.0010283263019454,-0.0010283258593748,0.0010283358481593,-0.0010283246753,0.0010283370431911,-0.0010270886380704,0.0010271217941041,-0.0010271201248106,0.0010270902898186,0.68162296874506,125803,2834,0.0068413456549743,0.0068413456580691,0.0037352415866443,35.929322715131,4.7434581721045e-05,4.7434581721045e-05,4.7434581721045e-05,3524352.2307266,0.017571478065924
35619200,0.99905099053195,0.017149121954857,0.0064832734239138,0.0064832734245494,0.0041825751063936,-0.0016492635542089,0.0016492636950451,1.619854991589e-08,-1.6056643415448e-08,7.964386432285e-10,-6.6196243991362e-10,-0.0017495949134413,0.0017496062880359,-0.0017496056705105,0.0017495955362157,-0.0017495953927386,0.0017496058062468,-0.001749606142915,0.0017495950508698,-0.0014448834981542,0.001444914746092,-0.0014449150957852,0.0014448831435323,-7.9487195656029e-10,6.7367761408995e-10,1.760285293277e-09,-1.8980997509768e-09,-0.0016492636916339,0.0016492635593042,-0.0017496003017096,0.0017496008994216,-0.0017496015117804,0.0017495996771335,-0.0017495998200959,0.0017496013881583,-0.0017496010291554,0.0017496001681938,-0.0014448971664757,0.0014449011149447,-0.0014449007167034,0.0014448974806051,-0.00164722001149,0.0016472172270071,-0.001647218556166,0.0016472186685222,-1.5965397182964e-08,1.6438075015092e-08,-0.00089813358526457,0.00089813405580684,-1.5359385202759e-09,2.0903592624079e-09,-0.001029479748715,0.0010294681871111,-0.0010294785487772,0.0010294693918096,-0.0010294689427841,0.001029478991212,-0.0010294677435663,0.0010294801928985,-0.0010283065730281,0.0010283399524916,-0.0010283382699212,0.0010283082523334,0.65729898643365,125803,2834,0.0068468087817387,0.006846808785233,0.0037398430067842,36.57385625189,5.2590850015116e-05,5.2590850015116e-05,5.2590850015116e-05,3535951.685547,0.017587278974056
35819200,0.99911712122254,0.017150232365455,0.0064836970556436,0.0064836970562778,0.0041828382535337,-0.0016505309298164,0.0016505310702837,1.6296140798144e-08,-1.6154035449659e-08,7.9718748629304e-10,-6.6420187391221e-10,-0.0017509262875784,0.0017509377279006,-0.0017509371097915,0.0017509269109624,-0.0017509267678909,0.0017509372453289,-0.0017509375825657,0.0017509264250989,-0.0014460508828746,0.0014460823209326,-0.0014460826718006,0.0014460505273383,-7.9225267845979e-10,6.7075571918375e-10,1.7840868805313e-09,-1.922118324759e-09,-0.0016505310668704,0.0016505309342597,-0.001750931700446,0.0017509323154655,-0.0017509329265665,0.0017509310770655,-0.001750931220781,0.0017509328026621,-0.0017509324452302,0.001750931566836,-0.0014460646262071,0.0014460686183585,-0.0014460682235566,0.0014460649379604,-0.0016484942135412,0.0016484914175546,-0.0016484927656309,0.0016484928583733,-1.60634422837e-08,1.6537800684835e-08,-0.00089925790100875,0.00089925837299136,-1.5592053550213e-09,2.1151863514409e-09,-0.0010305709971836,0.0010305593548851,-0.001030569780957,0.0010305605751076,-0.0010305601249773,0.0010305702244292,-0.0010305589098549,0.001030571442902,-0.001029548800546,0.0010295823916816,-0.0010295806922222,0.001029550499177,0.69619234622664,125803,2834,0.0068520522160953,0.0068520522182297,0.003744513849989,37.214085901186,5.7712687209489e-05,5.7712687209489e-05,5.7712687209489e-05,3551367.8210031,0.01760270312563
36019200,0.99918072744933,0.017151362514506,0.0064841260172337,0.0064841260178678,0.0041831104794048,-0.001651882467955,0.0016518826084716,1.6394512111497e-08,-1.6252267839491e-08,7.9658503234465e-10,-6.6363955203193e-10,-0.0017522996080874,0.0017523111136154,-0.0017523104959455,0.001752300231251,-0.0017523000880081,0.0017523106315202,-0.0017523109682851,0.0017522997457215,-0.0014473522500631,0.0014473838812734,-0.0014473842317039,0.0014473518950352,-7.9169243733948e-10,6.7011396491e-10,1.8120308024898e-09,-1.9501224701119e-09,-0.0016518826050491,0.0016518824723676,-0.0017523050442602,0.0017523056781176,-0.0017523062889014,0.0017523044211774,-0.0017523045650052,0.0017523061650196,-0.0017523058078767,0.0017523049104611,-0.001447366063129,0.0014473701096318,-0.0014473697151966,0.0014473663742074,-0.0016498575370976,0.0016498547236251,-0.0016498560905557,0.0016498561636349,-1.6160537109036e-08,1.6636685674937e-08,-0.00090036531389197,0.00090036578762356,-1.585744672927e-09,2.1438385862028e-09,-0.0010317539774857,0.0010317422531196,-0.0010317527428504,0.0010317434917733,-0.0010317430399493,0.0010317531879963,-0.0010317418064299,0.0010317544248302,-0.001030755257924,0.0010307890609777,-0.001030787341463,0.0010307569769242,0.73586309336901,125803,2834,0.0068576420759488,0.0068576420779997,0.0037491192373967,37.854145558543,6.2833164468342e-05,6.2833164468342e-05,6.2833164468342e-05,3557863.5409357,0.017618766772052
36219200,0.99923967094999,0.017152377302562,0.0064845125231937,0.0064845125238281,0.0041833522555407,-0.0016519952256729,0.0016519953662728,1.6482605457717e-08,-1.6341252367134e-08,7.9940777852346e-10,-6.6474586588186e-10,-0.0017524025430608,0.0017524141090788,-0.0017524134907138,0.0017524031675895,-0.0017524030246887,0.0017524136255142,-0.0017524139637483,0.0017524026810607,-0.0014474718422007,0.0014475036420585,-0.0014475039967845,0.0014474714844017,-7.8722945326882e-10,6.650509989788e-10,1.8769458526685e-09,-2.0157880083027e-09,-0.0016519953635044,0.0016519952302181,-0.0017524079860627,0.0017524086661242,-0.0017524092743357,0.0017524073654416,-0.001752407510392,0.001752409149718,-0.0017524087957716,0.0017524078517705,-0.0014474856762423,0.0014474898453044,-0.001447489454118,0.0014474859821098,-0.001649974789117,0.0016499719400351,-0.0016499733483208,0.0016499733700653,-1.626570426336e-08,1.6746661926385e-08,-0.00090028129858655,0.00090028177735159,-1.6569375838615e-09,2.2213338360141e-09,-0.0010317985042426,0.0010317866638501,-0.0010317972205268,0.0010317879516237,-0.001031787495529,0.0010317976701024,-0.0010317862120136,0.001031798956786,-0.0010307026386362,0.0010307367074436,-0.0010307349322744,0.0010307044106924,0.71361054629163,125803,2834,0.0068581053541771,0.0068581053578634,0.0037487793053708,37.827180328987,6.2617442631895e-05,6.2617442631895e-05,6.2617442631895e-05,3548746.6632427,0.017619364848177
36419200,0.9992934449905,0.017153290898529,0.0064848608647303,0.0064848608653638,0.0041835691684354,-0.0016514482361232,0.0016514483769724,1.6589181368426e-08,-1.6447138618381e-08,7.9581039730334e-10,-6.6165913864985e-10,-0.001751865756632,0.0017518773916414,-0.0017518767751142,0.0017518663794012,-0.0017518662357957,0.0017518769106363,-0.0017518772463191,0.0017518658946926,-0.0014469121638322,0.0014469441769567,-0.0014469445274434,0.0014469118091896,-7.8816905050594e-10,6.6609396171006e-10,1.963154428208e-09,-2.1017932352697e-09,-0.001651448373844,0.0016514482406919,-0.0017518712064132,0.0017518719429147,-0.0017518725510981,0.001751870584776,-0.0017518707297306,0.0017518724274107,-0.001751872072385,0.0017518710714963,-0.0014469260205291,0.0014469303607714,-0.0014469299672987,0.0014469263264505,-0.0016494317904294,0.0016494288828261,-0.0016494303494196,0.0016494303137653,-1.6353130765191e-08,1.6838553064468e-08,-0.00089967841865954,0.00089967890199265,-1.73193388841e-09,2.3016951504521e-09,-0.0010312274320162,0.0010312154843022,-0.0010312260961777,0.0010312168241662,-0.0010312163631749,0.0010312265505868,-0.0010312150283015,0.0010312278887261,-0.0010301216527318,0.0010301559521809,-0.0010301541212399,0.0010301234815725,0.70434019492866,125803,2834,0.006855840465231,0.0068558404682179,0.0037462804477693,37.496725027695,5.997380022156e-05,5.997380022156e-05,5.997380022156e-05,3540868.3325641,0.017612212664915
36619200,0.99934254419257,0.017154079599354,0.0064851631623128,0.0064851631629459,0.0041837532740948,-0.0016508527120225,0.0016508528532588,1.6690426208289e-08,-1.6548019215548e-08,7.9386616775704e-10,-6.588762014902e-10,-0.0017512873792314,0.0017512990803368,-0.0017512984649595,0.0017512880004921,-0.0017512878566945,0.0017512986007514,-0.0017512989349927,0.0017512875172795,-0.0014462952958858,0.0014463275098152,-0.0014463278593473,0.001446294944358,-7.8863983071216e-10,6.666086997277e-10,2.0405318432205e-09,-2.1791740644745e-09,-0.0016508528504109,0.0016508527173125,-0.0017512928364959,0.0017512936241462,-0.0017512942314822,0.0017512922137382,-0.0017512923590406,0.0017512941085055,-0.0017512937530944,0.0017512927009674,-0.00144630917739,0.001446313670409,-0.0014463132772068,0.0014463094846586,-0.0016488405031945,0.0016488375450632,-0.0016488390641914,0.0016488389785822,-1.6446530148846e-08,1.6935056563235e-08,-0.00089907241589475,0.00089907290288932,-1.8034590462571e-09,2.3778794784693e-09,-0.0010306141958654,0.0010306021398274,-0.0010306128109359,0.0010306035288721,-0.0010306030640381,0.0010306132691198,-0.0010306016802199,0.0010306146561034,-0.0010295340795152,0.0010295686166406,-0.0010295667332721,0.0010295359607719,0.66675280376532,125803,2834,0.0068533755586297,0.0068533755636851,0.0037437664958385,37.158375947952,5.7267007583615e-05,5.7267007583615e-05,5.7267007583615e-05,3535077.1960426,0.017604637784246
36819200,0.9993874308683,0.017154781671573,0.0064854328347816,0.0064854328354137,0.0041839160013779,-0.0016501755668709,0.0016501757079816,1.6785863114757e-08,-1.6643267464545e-08,7.9350095850216e-10,-6.5948258725965e-10,-0.0017506632892627,0.0017506750537059,-0.0017506744387092,0.0017506639111958,-0.0017506637670373,0.0017506745743585,-0.0017506749083333,0.0017506634277903,-0.0014455556137533,0.0014455880138424,-0.0014455883625619,0.001445555261787,-7.873834700343e-10,6.6518237924417e-10,2.106020145726e-09,-2.244731846505e-09,-0.0016501757047836,0.0016501755715339,-0.0017506687567837,0.0017506695883238,-0.001750670195503,0.0017506681350814,-0.0017506682807076,0.0017506700723724,-0.0017506697173062,0.0017506686211012,-0.0014455695259201,0.0014455741455462,-0.0014455737522054,0.0014455698305409,-0.0016481652496727,0.0016481622489127,-0.0016481638116103,0.0016481636795974,-1.654467069082e-08,1.7038521454277e-08,-0.0008984978167143,0.00089849830869651,-1.8686572498791e-09,2.448815422526e-09,-0.0010299255143856,0.0010299133498674,-0.0010299240839151,0.0010299147844269,-0.0010299143150268,0.0010299245466905,-0.0010299128855607,0.0010299259793345,-0.0010289853710408,0.0010290201564507,-0.001029018223254,0.0010289873035446,0.64957833208212,125803,2834,0.0068505749299533,0.0068505749329877,0.0037413777242471,36.819714046258,5.4557712370062e-05,5.4557712370062e-05,5.4557712370062e-05,3536801.638977,0.017596506337735
37019200,0.99942968556415,0.017155484326799,0.0064857008977764,0.0064857008984085,0.0041840825306137,-0.0016505169392394,0.001650517080054,1.6883825680539e-08,-1.6740225445133e-08,7.916825197601e-10,-6.6021268336748e-10,-0.0017510649964082,0.0017510768256444,-0.0017510762109856,0.0017510656180948,-0.0017510654738033,0.001751076346734,-0.0017510766801255,0.0017510651350963,-0.0014458111624227,0.0014458437562946,-0.0014458441023137,0.0014458108125047,-7.8845478460049e-10,6.6642688647292e-10,2.1215292187215e-09,-2.2598571518049e-09,-0.0016505170763139,0.0016505169432592,-0.001751070492393,0.0017510713334385,-0.0017510719413755,0.0017510698700632,-0.0017510700156001,0.0017510718184134,-0.0017510714622941,0.0017510703569161,-0.0014458251594613,0.0014458298100811,-0.0014458294169325,0.0014458254659538,-0.001648516408158,0.0016485133952203,-0.0016485149722716,0.0016485148332775,-1.6642796656711e-08,1.7137819603081e-08,-0.00089887565656358,0.00089887614934439,-1.8841694004899e-09,2.4649840886165e-09,-0.0010301890856663,0.0010301768454383,-0.001030187644525,0.0010301782905802,-0.001030177820356,0.0010301881079258,-0.001030176380371,0.001030189551231,-0.0010294329890316,0.0010294679796055,-0.0010294660369432,0.0010294349360906,0.68961815102151,125803,2834,0.0068519886883157,0.0068519886888877,0.0037429440537443,37.015989088405,5.6127912707238e-05,5.6127912707238e-05,5.6127912707238e-05,3547376.2987589,0.017600976606201
37219200,0.99946970248803,0.017156193161957,0.0064859697369161,0.0064859697375496,0.004184253687491,-0.0016512071983836,0.0016512073394229,1.6981394914571e-08,-1.6838153650141e-08,7.9150860860238e-10,-6.5876893782585e-10,-0.0017517744431246,0.0017517863370562,-0.0017517857225777,0.0017517750642402,-0.0017517749200376,0.0017517858584621,-0.0017517861914326,0.0017517745817764,-0.0014464639430018,0.0014464967287083,-0.0014464970743126,0.00144646359243,-7.907587704506e-10,6.6903738820435e-10,2.1147631819453e-09,-2.2528933383094e-09,-0.0016512073356312,0.0016512072028398,-0.0017517799740568,0.0017517808093133,-0.0017517814181485,0.0017517793501734,-0.0017517794955469,0.0017517812955447,-0.0017517809378268,0.0017517798387808,-0.0014464780396401,0.0014464826792738,-0.0014464822826161,0.0014464783468934,-0.001649217994521,0.0016492149813022,-0.0016492165510642,0.0016492164199513,-1.6742044150988e-08,1.7235471913429e-08,-0.00089946211169558,0.00089946260313256,-1.8782836670946e-09,2.4577493297024e-09,-0.0010307964144896,0.0010307841117595,-0.0010307949777189,0.0010307855524549,-0.0010307850834901,0.0010307954399633,-0.0010307836479563,0.0010307968789473,-0.0010300782499657,0.001030113426493,-0.0010301114883879,0.0010300801889639,0.7336254266876,125803,2834,0.006854843719563,0.0068548437209358,0.0037453827038005,37.342560469864,5.874048375891e-05,5.874048375891e-05,5.874048375891e-05,3550436.1106633,0.017609268990167
37419200,0.99950755644814,0.017156819745233,0.006486209008852,0.0064862090094862,0.0041844017268944,-0.0016519883574681,0.001651988498332,1.7079955420557e-08,-1.6937300190047e-08,7.9448019035201e-10,-6.6123428298184e-10,-0.0017525320317855,0.0017525439931085,-0.0017525433774232,0.001752532654575,-0.0017525325104396,0.0017525435129178,-0.0017525438479265,0.0017525321701958,-0.0014472588291709,0.0014472918050182,-0.0014472921541603,0.0014472584762089,-7.9002874810522e-10,6.6823196003619e-10,2.1001093481001e-09,-2.2383948580515e-09,-0.0016519884948608,0.0016519883619823,-0.0017525376007821,0.0017525384266901,-0.0017525390356046,0.0017525369777201,-0.0017525371228649,0.001752538912763,-0.0017525385554506,0.0017525374655175,-0.0014472730346436,0.0014472776445706,-0.0014472772491551,0.0014472733415724,-0.0016500082121914,0.0016500052103006,-0.0016500067693449,0.0016500066475036,-1.6839985129976e-08,1.7332243275601e-08,-0.00090001782731851,0.0009000183175159,-1.8632674042263e-09,2.441518258942e-09,-0.0010314961549618,0.0010314837964455,-0.0010314947286804,0.0010314852268269,-0.0010314847591938,0.0010314951896394,-0.0010314833339754,0.0010314966180307,-0.0010306737609215,0.0010307091167577,-0.0010307071898499,0.0010306756882159,0.68665558563661,125803,2834,0.0068580727088933,0.0068580727110529,0.0037476991933946,37.672606557246,6.1380852457971e-05,6.1380852457971e-05,6.1380852457971e-05,3544947.0695809,0.017618199164864
37619200,0.99954331562441,0.017157391857025,0.0064864281997267,0.0064864282003611,0.0041845354569372,-0.0016526687212956,0.0016526688620844,1.7178156407996e-08,-1.7035689433793e-08,7.9598554112928e-10,-6.6261384536657e-10,-0.0017532359782289,0.0017532480058723,-0.0017532473893931,0.001753236601818,-0.0017532364577917,0.0017532475247552,-0.0017532478608422,0.0017532361164877,-0.0014478970588359,0.0014479302260887,-0.0014479305767237,0.0014478967048101,-7.9051222457064e-10,6.6876696613824e-10,2.0798642067408e-09,-2.2181265328857e-09,-0.0016526688587662,0.0016526687259388,-0.0017532415870711,0.0017532423992222,-0.0017532430085365,0.0017532409638184,-0.0017532411088029,0.0017532428856938,-0.0017532425280341,0.0017532414519529,-0.0014479113794819,0.0014479159500613,-0.0014479155545404,0.0014479116869625,-0.0016506928428215,0.0016506898534629,-0.0016506913986437,0.0016506912914049,-1.693881065061e-08,1.7429274507245e-08,-0.00090059562175826,0.00090059611018836,-1.8435565481791e-09,2.4198693631897e-09,-0.0010320892075523,0.0010320767957882,-0.0010320877950477,0.0010320782123812,-0.001032077746492,0.001032088254287,-0.0010320763350678,0.0010320896688773,-0.0010313132076873,0.0010313487394288,-0.0010313468280615,0.0010313151192446,0.66415285420745,125803,2834,0.0068608868210886,0.0068608868238318,0.003750101651078,38.002790945537,6.4022327564294e-05,6.4022327564294e-05,6.4022327564294e-05,3549606.2600175,0.017626371548015
37819200,0.99957613990153,0.017157897580067,0.0064866226883023,0.0064866226889368,0.0041846522028283,-0.0016522652673236,0.001652265408821,1.7272559318934e-08,-1.7131175656637e-08,7.9553502095119e-10,-6.5828302649364e-10,-0.0017528835879945,0.0017528956777793,-0.0017528950621423,0.0017528842100399,-0.0017528840660571,0.0017528951976389,-0.0017528955325959,0.0017528837263181,-0.0014474358129936,0.0014474691650771,-0.0014474695167063,0.0014474354595179,-7.9408027727496e-10,6.7272932818478e-10,2.0826763092019e-09,-2.2209300388324e-09,-0.0016522654059112,0.0016522652733984,-0.0017528892268248,0.0017528900391267,-0.001752890649476,0.001752888601062,-0.0017528887458632,0.0017528905271746,-0.0017528901672431,0.001752889091866,-0.0014474502172091,0.0014474547963421,-0.0014474543963394,0.0014474505272609,-0.0016502880306508,0.0016502850325165,-0.00165028657309,0.0016502864702834,-1.7040483926446e-08,1.7529852839882e-08,-0.0009002714996359,0.00090027198766374,-1.8498300088104e-09,2.4263124832539e-09,-0.0010316755632176,0.0010316630800042,-0.001031674146856,0.0010316645006689,-0.0010316640351746,0.0010316746058823,-0.0010316626194777,0.0010316760244959,-0.0010310139467192,0.0010310496800073,-0.0010310477615092,0.0010310158573233,0.64016140861854,125803,2834,0.0068592183958013,0.0068592184023637,0.0037487536917137,37.804414538374,6.2435316306991e-05,6.2435316306991e-05,6.2435316306991e-05,3552270.1919944,0.017621603765862
38019200,0.99960622178619,0.017158380009739,0.0064868073530616,0.0064868073536947,0.0041847653029822,-0.00165172017741,0.001651720318224,1.7373155725959e-08,-1.7230966642326e-08,7.9656420292215e-10,-6.6271706903668e-10,-0.0017524064846054,0.0017524186425783,-0.0017524180259217,0.001752407108406,-0.0017524069644075,0.0017524181611951,-0.001752418497634,0.0017524066228185,-0.0014468107472738,0.0014468442961693,-0.0014468446476563,0.001446810392698,-7.9216319013478e-10,6.706405453061e-10,2.0826966258566e-09,-2.22081530833e-09,-0.0016517203149229,0.001651720182296,-0.001752412158004,0.0017524129710598,-0.0017524135812601,0.0017524115337886,-0.0017524116785865,0.0017524134586499,-0.0017524130996392,0.0017524120230602,-0.0014468252546854,0.0014468298320121,-0.0014468294349004,0.0014468255633132,-0.0016497462264676,0.0016497432319846,-0.0016497447779085,0.0016497446724066,-1.7136033404154e-08,1.7626093245921e-08,-0.00089989146326232,0.00089989195137455,-1.8470031161131e-09,2.4231556670178e-09,-0.0010311304631137,0.0010311179175121,-0.0010311290484256,0.0010311193363273,-0.00103111887078,0.0010311295073361,-0.0010311174571094,0.001031130924122,-0.0010306626514923,0.0010306985704074,-0.0010306966568318,0.0010306645643437,0.66569813139978,125803,2834,0.0068569653432851,0.006856965346569,0.0037471699864318,37.560224628422,6.0481797027376e-05,6.0481797027376e-05,6.0481797027376e-05,3558324.0644116,0.017615405604438
38219200,0.99963381438218,0.017158825929313,0.0064869778675973,0.0064869778682304,0.0041848701934848,-0.0016512292765714,0.0016512294173089,1.7471648155965e-08,-1.7329411517079e-08,7.9706911261515e-10,-6.6345204081909e-10,-0.0017519528060012,0.0017519650299253,-0.0017519644129821,0.0017519534301658,-0.0017519532861833,0.0017519645481925,-0.001751964885068,0.001751952944151,-0.0014462757058261,0.0014463094474095,-0.0014463097992539,0.0014462753509919,-7.9202913152429e-10,6.7048781990385e-10,2.0759762222698e-09,-2.2140978942667e-09,-0.0016512294140536,0.0016512292814138,-0.0017519585145913,0.0017519593232147,-0.0017519599334674,0.0017519578905391,-0.0017519580352788,0.0017519598108109,-0.0017519594518796,0.0017519583796735,-0.0014462903165863,0.0014462948806273,-0.0014462944838541,0.0014462906252882,-0.0016492617683164,0.0016492587786233,-0.0016492603203667,0.0016492602191519,-1.7233989527894e-08,1.7723381438686e-08,-0.00089950084044594,0.0008995013278491,-1.8400867334222e-09,2.4154489949376e-09,-0.0010306523218461,0.0010306397153018,-0.0010306509120164,0.0010306411292703,-0.0010306406644126,0.0010306513702224,-0.0010306392556159,0.0010306527821111,-0.0010302858009246,0.0010303219052906,-0.0010303199975171,0.001030287708507,0.67076171021264,125803,2834,0.0068549352258068,0.0068549352290931,0.0037455457198736,37.314689950636,5.8517519605089e-05,5.8517519605089e-05,5.8517519605089e-05,3557921.602492,0.017609620518527
38419200,0.99965931667039,0.017159264367405,0.0064871444798488,0.006487144480482,0.0041849754070745,-0.0016510016262279,0.0016510017664082,1.7572624300978e-08,-1.7430196416346e-08,7.9960550742415e-10,-6.6797829472162e-10,-0.0017517522197939,0.0017517645131653,-0.0017517638949986,0.0017517528468164,-0.0017517527023213,0.0017517640296967,-0.0017517643691358,0.0017517523577378,-0.0014460120612637,0.0014460459980022,-0.0014460463519982,0.0014460117054842,-7.8895618375368e-10,6.6705091803487e-10,2.0575995584641e-09,-2.1958796771699e-09,-0.0016510017631879,0.001651001630254,-0.0017517579687429,0.0017517587668165,-0.0017517593767671,0.0017517573479476,-0.0017517574920668,0.0017517592533458,-0.0017517588964644,0.0017517578336296,-0.0014460267907768,0.0014460313159421,-0.0014460309235861,0.0014460270990975,-0.0016490425867843,0.0016490396158711,-0.0016490411481967,0.0016490410545486,-1.7329343636599e-08,1.7818578510481e-08,-0.00089933296279605,0.0008993334494551,-1.8186324875681e-09,2.3929415406903e-09,-0.0010304251354456,0.0010304124791137,-0.0010304237404282,0.0010304138791211,-0.0010304134148798,0.0010304241979115,-0.0010304120204001,0.0010304255944233,-0.0010301371593033,0.0010301734363544,-0.0010301715452708,0.0010301390547368,0.71253731648712,125803,2834,0.0068539939030256,0.0068539939046923,0.0037448476310982,37.196796403172,5.7574371225375e-05,5.7574371225375e-05,5.7574371225375e-05,3557577.7991004,0.017606994033436
38619200,0.99968303942468,0.017159674389056,0.0064873002355932,0.0064873002362269,0.004185073917236,-0.0016510845493174,0.0016510846894704,1.766903911816e-08,-1.7526914967485e-08,7.9985784959762e-10,-6.6767356797199e-10,-0.0017518179157032,0.0017518302730692,-0.0017518296543236,0.0017518185418632,-0.0017518183981237,0.0017518297891756,-0.0017518301287295,0.0017518180533262,-0.0014461092145351,0.0014461433408707,-0.0014461436947741,0.0014461088575888,-7.8914242765229e-10,6.6720024370274e-10,2.0264370897119e-09,-2.1648324258811e-09,-0.0016510846864422,0.0016510845534476,-0.0017518237067447,0.0017518244841173,-0.0017518250932814,0.0017518230849168,-0.0017518232295509,0.0017518249699983,-0.0017518246135712,0.0017518235716518,-0.0014461240681674,0.0014461285329498,-0.0014461281396657,0.0014461243755534,-0.0016491356137589,0.0016491326628291,-0.0016491341734061,0.0016491340988371,-1.7430564882368e-08,1.7916521807822e-08,-0.00089933586415878,0.00089933634785203,-1.7907813801393e-09,2.3616746604409e-09,-0.0010304976436038,0.001030484937678,-0.0010304962680167,0.0010304863175024,-0.0010304858561384,0.0010304967226702,-0.0010304844816977,0.001030498100066,-0.0010301485359893,0.0010301849840763,-0.0010301831148668,0.0010301504068828,0.71625965419973,125803,2834,0.0068543354060968,0.0068543354083759,0.0037448644410033,37.19373502202,5.754988017616e-05,5.754988017616e-05,5.754988017616e-05,3550040.6283112,0.01760770678792
38819200,0.99970511043638,0.017160057094025,0.0064874455824989,0.0064874455831329,0.0041851659283927,-0.0016511742968683,0.0016511744372014,1.7765750417167e-08,-1.7623727123822e-08,7.9931814714399e-10,-6.6645852173787e-10,-0.0017518884809111,0.0017519009022341,-0.0017519002839403,0.0017518891065606,-0.0017518889627551,0.0017519004188946,-0.0017519007577661,0.0017518886186525,-0.0014462167767688,0.0014462510928041,-0.0014462514463761,0.0014462164198502,-7.8994202769565e-10,6.6811884146167e-10,1.9947705774572e-09,-2.1331083598053e-09,-0.0016511744341503,0.0016511743012537,-0.0017518943144258,0.0017518950702892,-0.0017518956800767,0.0017518936922948,-0.0017518938366907,0.0017518955567353,-0.0017518951997678,0.0017518941796157,-0.0014462317551608,0.0014462361583875,-0.001446235764201,0.0014462320628632,-0.0016492321444916,0.0016492292127987,-0.0016492307009152,0.0016492306489693,-1.7531022189371e-08,1.8014847775266e-08,-0.00089933477871642,0.00089933526029694,-1.7619119399596e-09,2.3304043296114e-09,-0.0010305728345382,0.0010305600802818,-0.0010305714790003,0.001030561440038,-0.0010305609807657,0.0010305719316149,-0.0010305596263332,0.0010305732890213,-0.0010301539745377,0.0010301905947468,-0.001030188747248,0.0010301558224627,0.71844599038802,125803,2834,0.0068547050294047,0.0068547050321668,0.0037448648522974,37.193613757627,5.7548910061019e-05,5.7548910061019e-05,5.7548910061019e-05,3542890.1811957,0.017608460119618
38880000,0.99971167078212,0.017160170965966,0.00648748882327,0.006487488823904,0.0041851933187919,-0.0016512020606237,0.0016512022010928,1.7795343156423e-08,-1.7653230527043e-08,7.9861368907646e-10,-6.654715204195e-10,-0.0017519099109926,0.0017519223516574,-0.0017519217337754,0.0017519105361139,-0.0017519103922606,0.0017519218688395,-0.0017519222070487,0.0017519100488385,-0.0014462505761456,0.0014462849507773,-0.0014462853039812,0.0014462502199088,-7.9062044520575e-10,6.6889517806946e-10,1.9854089726414e-09,-2.1236687603698e-09,-0.0016512021979893,0.0016512020651849,-0.0017519157573856,0.0017519165066853,-0.0017519171168341,0.0017519151348287,-0.0017519152791258,0.0017519169935474,-0.0017519166360629,0.0017519156227156,-0.0014462655925703,0.0014462699779478,-0.0014462695834931,0.0014462659010661,-0.001649260563873,0.001649257637262,-0.0016492591191697,0.0016492590752834,-1.7561408678029e-08,1.8044583649473e-08,-0.0008993308503626,0.00089933133128544,-1.7531462827131e-09,2.3209181083914e-09,-0.0010305947221851,0.0010305819534431,-0.0010305933727963,0.0010305833070527,-0.0010305828484676,0.0010305938247159,-0.0010305815001378,0.0010305951760255,-0.0010301540120605,0.0010301906842861,-0.0010301888434691,0.0010301558532506,0.71909629338165,125803,2834,0.0068548192777796,0.0068548192807972,0.003744850310809,37.193609100972,5.7548872807775e-05,5.7548872807775e-05,5.7548872807775e-05,3540609.5127073,0.017608678054337
