time,ASR_ext,ASR_strain,ASR_strain_xx,ASR_strain_yy,ASR_strain_zz,disp_x_101,disp_x_102,disp_x_103,disp_x_104,disp_x_105,disp_x_106,disp_x_p1_neg,disp_x_p1_pos,disp_x_p2_neg,disp_x_p2_pos,disp_x_p3_neg,disp_x_p3_pos,disp_x_p4_neg,disp_x_p4_pos,disp_x_p5_neg,disp_x_p5_pos,disp_x_p6_neg,disp_x_p6_pos,disp_y_101,disp_y_102,disp_y_103,disp_y_104,disp_y_105,disp_y_106,disp_y_p1_neg,disp_y_p1_pos,disp_y_p2_neg,disp_y_p2_pos,disp_y_p3_neg,disp_y_p3_pos,disp_y_p4_neg,disp_y_p4_pos,disp_y_p5_neg,disp_y_p5_pos,disp_y_p6_neg,disp_y_p6_pos,disp_y_p7_neg,disp_y_p7_pos,disp_y_p8_neg,disp_y_p8_pos,disp_z_101,disp_z_102,disp_z_103,disp_z_104,disp_z_105,disp_z_106,disp_z_p1_neg,disp_z_p1_pos,disp_z_p2_neg,disp_z_p2_pos,disp_z_p3_neg,disp_z_p3_pos,disp_z_p4_neg,disp_z_p4_pos,disp_z_p5_neg,disp_z_p5_pos,disp_z_p6_neg,disp_z_p6_pos,humidity,ndof,nelem,strain_xx,strain_yy,strain_zz,temp,thermal_strain_xx,thermal_strain_yy,thermal_strain_zz,vonmises,vstrain
2419200,0,0,0,0,0,0,0,0,0,0,0,0,0,0,0,0,0,0,0,0,0,0,0,0,0,0,0,0,0,0,0,0,0,0,0,0,0,0,0,0,0,0,0,0,0,0,0,0,0,0,0,0,0,0,0,0,0,0,0,0,0,0,0,0,0,0,0,0,0,0,0,0,0,0,0
2619200,0.019499497592428,0.00040003166361858,0.00013334388787286,0.00013334388787286,0.00013334388787286,-3.5103041963863e-05,3.5106340665348e-05,1.6300942265381e-09,1.6489265564513e-09,-3.2440240012476e-09,6.6799357717019e-09,-3.4381822032745e-05,3.4381836005516e-05,-3.4381784264378e-05,3.4381811169847e-05,-3.4378635744711e-05,3.4385133025981e-05,-3.437863187306e-05,3.4385141259774e-05,-3.553449284835e-05,3.5541040466347e-05,-3.5534467026702e-05,3.5541049932237e-05,3.2418489435599e-09,-6.6754565023072e-09,-9.1405171973074e-09,5.8637017128859e-09,-3.51063395456e-05,3.510304308339e-05,-3.4384296556899e-05,3.4379358758822e-05,-3.4379494427087e-05,3.4384391850625e-05,-3.4387463855526e-05,3.4376047548093e-05,-3.4382662146991e-05,3.4381080233367e-05,-3.5548274561735e-05,3.5526991738364e-05,-3.5533759167022e-05,3.5541920349166e-05,-3.573517627907e-05,3.5746538579191e-05,-3.5744839185524e-05,3.5736623971915e-05,-1.9131820259934e-09,-1.9320000539984e-09,-3.3895031774704e-05,3.3891157688942e-05,5.3847867660459e-09,-9.4892501247043e-09,-3.3378093375362e-05,3.3379222787325e-05,-3.3383019090902e-05,3.3374283523722e-05,-3.3378106670234e-05,3.3379223931204e-05,-3.3383032434813e-05,3.3374283967129e-05,-3.4864610413286e-05,3.4855790983121e-05,-3.4864561470526e-05,3.4855780556471e-05,0.81992964401734,125803,2834,0.00014625879659466,0.0001462587965947,0.00014121121627927,31.500576726381,1.200461381105e-05,1.200461381105e-05,1.200461381105e-05,452301.72668427,0.00043382310186311
2819200,0.041096026827738,0.00083771293285862,0.00027988079311825,0.00027988079311849,0.00027795134662188,-7.2896084274863e-05,7.2894647457308e-05,-6.200679993409e-10,-8.249995972514e-10,-9.1331274028668e-10,-5.2630904833308e-10,-7.2176235470376e-05,7.2174746338507e-05,-7.2176271960668e-05,7.2174648216016e-05,-7.2176093826609e-05,7.2174860882124e-05,-7.2176157767011e-05,7.2174786138174e-05,-7.3239505667963e-05,7.3238398126148e-05,-7.323968964064e-05,7.3238174263361e-05,9.1613465199098e-10,5.1863834976358e-10,-4.9095247370922e-09,6.3498589903915e-09,-7.2894649807521e-05,7.2896081924642e-05,-7.2176506514666e-05,7.2174370572796e-05,-7.2172887049238e-05,7.2178134649142e-05,-7.217663729376e-05,7.2174241223848e-05,-7.2173019916782e-05,7.2178003309531e-05,-7.3243750069936e-05,7.3234000540472e-05,-7.3232834523127e-05,7.324519013353e-05,-7.3681369367254e-05,7.3686945611206e-05,-7.3681785057527e-05,7.3686532211162e-05,-4.7198163857436e-10,-2.7922758858663e-10,-6.9844079257018e-05,6.9843295796952e-05,5.1269072877059e-09,-6.0727154094184e-09,-6.9776650455747e-05,6.9779562921829e-05,-6.9780374934192e-05,6.9775834741854e-05,-6.9776587301966e-05,6.9779630271479e-05,-6.9780313532037e-05,6.9775899852569e-05,-7.1476946804858e-05,7.1472640901306e-05,-7.1477124392279e-05,7.1472447726999e-05,0.82138487989603,125803,2834,0.00030368447026044,0.00030368447026071,0.00029097302959096,32.734019620463,2.1872156963706e-05,2.1872156963706e-05,2.1872156963706e-05,450621.76134021,0.0008987459342031
3019200,0.0625890497099,0.0012736541449306,0.00042699644719339,0.00042699644719921,0.00041966125053795,-0.00010799148536214,0.00010798982301901,-6.1976211258259e-10,-1.0411112692764e-09,6.2419712608494e-10,-2.3393302230344e-09,-0.00010716001399338,0.000107159470846,-0.00010716013121985,0.00010715930769958,-0.0001071609370519,0.00010715847062717,-0.00010716107229821,0.00010715832482284,-0.00010819745681091,0.00010819523065859,-0.00010819785371237,0.00010819480177275,-6.4175351895875e-10,2.3776407391471e-09,-3.0901101417822e-09,4.7709821411416e-09,-0.00010798981301143,0.00010799149537248,-0.00010716063422097,0.00010715873519036,-0.00010715808280563,0.0001071613513186,-0.00010715968416488,0.00010715974599756,-0.00010715713305145,0.00010716236174291,-0.00010819883200078,0.0001081937879979,-0.00010819118240786,0.00010820158274561,-0.00010900900694111,0.0001090103504703,-0.00010900608829298,0.00010901337815907,-6.6772141997774e-11,3.4877301788548e-10,-0.00010230004162308,0.00010230029995659,3.9854047030319e-09,-3.832764305692e-09,-0.00010264343275098,0.00010264618075838,-0.00010264604773824,0.00010264357698643,-0.00010264328837736,0.00010264631483231,-0.00010264590432207,0.00010264370985825,-0.00010490949027208,0.00010490756079883,-0.000104909903347,0.00010490716352213,0.82013322452841,125803,2834,0.00044985964465626,0.00044985964466213,0.0004261600386134,32.492053943836,1.9936431550691e-05,1.9936431550691e-05,1.9936431550691e-05,579194.57219937,0.0013267592904339
3219200,0.083867810253433,0.0016975170613508,0.00057110001345837,0.00057110001346729,0.00055531703442512,-0.00014228715485086,0.00014228599072149,-2.6165846792518e-10,-9.0218354328704e-10,1.1421616106512e-09,-2.3621785963815e-09,-0.00014155134323474,0.00014155154886188,-0.00014155153662834,0.00014155131574861,-0.00014155244314186,0.00014155036972633,-0.00014155264989152,0.0001415501495349,-0.00014198794307547,0.00014198624042405,-0.00014198855549734,0.00014198559803541,-1.1560953488968e-09,2.379902070594e-09,-2.2908526770614e-09,3.4581432918225e-09,-0.00014228598895608,0.00014228715662058,-0.00014155234049899,0.00014155045183215,-0.00014155046128067,0.00014155235813141,-0.00014155122688821,0.0001415516321691,-0.00014154934776103,0.00014155353811792,-0.0001419887246419,0.00014198541938407,-0.00014198311718035,0.00014199110808504,-0.0001433527191977,0.00014335232992077,-0.00014334929013125,0.00014335587898243,-5.0745571504091e-13,6.3505793373222e-10,-0.00013320120501894,0.00013320182087107,3.1373093996048e-09,-2.5946713271264e-09,-0.00013415644444833,0.00013415877968114,-0.0001341583715076,0.00013415687102504,-0.00013415622324721,0.00013415898340753,-0.00013415815131219,0.00013415707388233,-0.00013680925077743,0.00013680858318552,-0.00013680988169879,0.00013680797256041,0.80675911532657,125803,2834,0.00059268470196953,0.00059268470197859,0.00055485285502959,32.204498431295,1.7635987450358e-05,1.7635987450358e-05,1.7635987450358e-05,668074.98409993,0.0017417381220291
3419200,0.10490111139896,0.0021046314799272,0.00071072166228835,0.00071072166230507,0.0006831881553338,-0.00017550964544003,0.00017550878909574,2.0030474847449e-13,-8.6002619173137e-10,1.1939918854778e-09,-2.0995939905507e-09,-0.00017516676051686,0.00017516727994796,-0.00017516702755873,0.00017516697413945,-0.00017516780058712,0.00017516617199328,-0.00017516807897731,0.00017516587698613,-0.00017422695912614,0.00017422584035083,-0.00017422778541278,0.00017422498130232,-1.2050262533487e-09,2.1109359644352e-09,-1.7918536918103e-09,2.6517911350896e-09,-0.00017550878899252,0.00017550964555129,-0.00017516782886926,0.00017516612943986,-0.00017516637111175,0.00017516759875266,-0.00017516677990814,0.00017516723572881,-0.00017516532225895,0.0001751687045959,-0.00017422758220114,0.00017422518398354,-0.00017422324304437,0.00017422957678005,-0.00017638256725508,0.00017638164296504,-0.00017637934797897,0.00017638496933368,2.8843705482852e-12,8.5793498174875e-10,-0.00016223125514489,0.00016223209858573,2.6141759413265e-09,-1.8246731594658e-09,-0.00016404662750765,0.0001640486837832,-0.00016404812528985,0.00016404720570011,-0.00016404633259064,0.00016404896008636,-0.0001640478313013,0.00016404748108181,-0.0001667502288492,0.00016675043343474,-0.00016675107304896,0.00016674960623704,0.78589834586084,125803,2834,0.00073102064935284,0.00073102064936961,0.00067573812995801,31.915036317574,1.5320290540595e-05,1.5320290540595e-05,1.5320290540595e-05,778283.81609165,0.0021400669704456
3619200,0.12619965862421,0.00250570335637,0.00084921395651207,0.00084921395652934,0.00080727544332861,-0.00020917630468384,0.00020917572948538,2.4901750244359e-10,-8.294634071314e-10,9.8993254122568e-10,-1.6095491267981e-09,-0.00020955961506541,0.00020956026150631,-0.0002095599558076,0.00020955988388045,-0.00020956043465166,0.00020955938502105,-0.0002095607851281,0.0002095590166265,-0.00020635889088242,0.00020635849573276,-0.00020635992876845,0.00020635742073549,-1.0013736708761e-09,1.620790085021e-09,-1.8072541071284e-09,2.387314195395e-09,-0.00020917572964129,0.00020917630453623,-0.00020956073973601,0.00020955906719725,-0.00020955936143386,0.00020956045271173,-0.00020955991216062,0.00020955994274937,-0.00020955853388234,0.00020956132778179,-0.00020636000890654,0.00020635734474669,-0.00020635590901274,0.00020636148898019,-0.00020978636624897,0.00020978575974051,-0.00020978382690569,0.00020978839801336,-8.6158714938979e-11,9.8904894430719e-10,-0.00019101964810683,0.00019102053234808,2.5173143265418e-09,-1.6774120926342e-09,-0.00019370634947628,0.00019370828845344,-0.00019370776549262,0.00019370689170761,-0.00019370598145941,0.00019370863839461,-0.00019370739828492,0.00019370724065761,-0.00019651970237744,0.00019652024673237,-0.00019652076096292,0.00019651920281421,0.77011573280551,125803,2834,0.00087118642589407,0.00087118642591139,0.00079560265536017,31.993724504616,1.5949796036932e-05,1.5949796036932e-05,1.5949796036932e-05,956978.09858472,0.0025411998191395
3819200,0.14810511334896,0.0029146730530435,0.00099105765305258,0.00099105765306825,0.0009325577469227,-0.00024414320166453,0.00024414276847247,4.2911019370608e-10,-8.6810519566599e-10,8.336209668561e-10,-1.3058211937795e-09,-0.00024541894729958,0.00024541965750234,-0.00024541936239977,0.00024541920742971,-0.00024541962064392,0.00024541893411762,-0.00024542004364295,0.00024541849355353,-0.00023960912882828,0.00023960924077036,-0.00023961037787887,0.00023960795180794,-8.4039984319255e-10,1.3062258471836e-09,-2.0529253674826e-09,2.4855769116284e-09,-0.00024414277160472,0.00024414319853982,-0.0002454201594491,0.00024541838235545,-0.00024541866845399,0.00024541988165989,-0.00024541948430388,0.00024541909901828,-0.00024541799234075,0.00024542059896236,-0.00023961082162923,0.00023960751250309,-0.00023960638199588,0.0002396119959067,-0.00024449620590921,0.00024449603024048,-0.00024449412946197,0.00024449819605733,-2.354517900656e-10,1.0592726975786e-09,-0.00022052131514568,0.00022052211894421,2.6545641978533e-09,-1.8926586664361e-09,-0.00022403986808404,0.00022404176896393,-0.00022404140093825,0.00022404025429542,-0.0002240394279094,0.00022404219208433,-0.00022404096041627,0.00022404067741979,-0.00022726373521298,0.00022726430034004,-0.00022726500960712,0.00022726303898154,0.77140159016909,125803,2834,0.0010167442552099,0.0010167442552256,0.00091842227322154,32.324510553275,1.8596084426203e-05,1.8596084426203e-05,1.8596084426203e-05,1122074.5362384,0.00295627316557
4019200,0.17060886312762,0.003332957041439,0.0011367220018249,0.0011367220018416,0.0010595130377725,-0.00028005927092676,0.00028005895502566,5.9719904322916e-10,-9.1906945811775e-10,7.9542507129537e-10,-1.1471799165734e-09,-0.00028234644401673,0.00028234728020763,-0.00028234693252029,0.00028234675734931,-0.00028234705539265,0.00028234662175661,-0.00028234755152244,0.00028234610844284,-0.00027364847179144,0.00027364898087252,-0.00027364993409479,0.00027364747610053,-8.0444899831177e-10,1.1476268869815e-09,-2.320239439642e-09,2.6336107475812e-09,-0.00028005895924606,0.00028005926671469,-0.00028234781506182,0.00028234584692601,-0.00028234619012737,0.00028234748505775,-0.00028234720245102,0.00028234649819007,-0.00028234557634423,0.00028234813706676,-0.00027365065593981,0.00027364675538718,-0.00027364581246955,0.00027365164987355,-0.00028017178609283,0.00028017181868151,-0.00028016989867036,0.00028017378994962,-4.1007787113805e-10,1.1038571673845e-09,-0.00025038731977965,0.0002503879918647,2.7944152165577e-09,-2.1660781338513e-09,-0.00025471260093632,0.00025471443345963,-0.00025471427074582,0.00025471278173814,-0.00025471208782862,0.00025471492980672,-0.00025471375716576,0.00025471327798958,-0.00025862921641775,0.00025862972885399,-0.00025863070508664,0.00025862825255188,0.77299483230004,125803,2834,0.0011662308912184,0.0011662308912358,0.0010427438681885,32.661973913211,2.129579130569e-05,2.129579130569e-05,2.129579130569e-05,1266405.0045352,0.0033809098004689
4219200,0.19368473803238,0.0037612013407872,0.0012864206393291,0.0012864206393481,0.00118836006211,-0.00031696636321961,0.00031696612307371,7.4474257491967e-10,-9.9078677962928e-10,8.0836889878209e-10,-1.0831994537502e-09,-0.00032034605556834,0.0003203470237249,-0.00032034661669625,0.00032034642745678,-0.00032034665060951,0.0003203463818635,-0.00032034721989249,0.00032034579548704,-0.00030851469181976,0.00030851550877362,-0.00030851636719288,0.00030851378715676,-8.1894267271644e-10,1.0840761539798e-09,-2.5471424114363e-09,2.7835793333663e-09,-0.00031696612784301,0.00031696635845963,-0.0003203475828919,0.00032034543115705,-0.00032034583794672,0.00032034719587986,-0.00032034698600991,0.00032034606597871,-0.00032034524001739,0.00032034783138959,-0.00030851725747798,0.00030851289444581,-0.00030851204982271,0.0003085181631796,-0.00031687334276436,0.00031687347078768,-0.00031687150252979,0.0003168753930067,-5.922531263197e-10,1.1406941275774e-09,-0.00028065880302536,0.00028065932765279,2.9056545216156e-09,-2.4287887179026e-09,-0.0002857668643722,0.00028576860006446,-0.00028576865816635,0.00028576682463956,-0.00028576627802655,0.00028576916938598,-0.00028576807150856,0.00028576739367946,-0.00029067529547147,0.00029067575257956,-0.00029067699820179,0.00029067406196467,0.77488671277522,125803,2834,0.0013198186448747,0.0013198186448941,0.0011687384229725,32.999709438829,2.3997675510629e-05,2.3997675510629e-05,2.3997675510629e-05,1395914.8339357,0.0038156392972213
4419200,0.21770097461265,0.004206558714236,0.0014427812308578,0.0014427812308754,0.0013209962525027,-0.00035601466027994,0.00035601449509384,8.7313584872564e-10,-1.0443537234312e-09,8.0407853709969e-10,-1.0023585450757e-09,-0.00036054550636908,0.00036054658884971,-0.00036054613449823,0.00036054592360788,-0.0003605460803844,0.00036054596769683,-0.00036054670289317,0.00036054532792602,-0.00034536324714281,0.00034536432366302,-0.00034536507642696,0.00034536244330697,-7.979312466599e-10,9.6876809017818e-10,-2.7946731044916e-09,2.9391642129148e-09,-0.00035601450838478,0.00035601464699729,-0.00036054717466268,0.00036054485187946,-0.00036054530878435,0.00036054674457888,-0.00036054662888753,0.00036054543354731,-0.00036054474778648,0.00036054734211433,-0.00034536621506644,0.00034536129820851,-0.00034536059665313,0.00034536698919287,-0.00035575361751245,0.00035575389696475,-0.00035575188695258,0.00035575570541359,-7.9541848980821e-10,1.1938354450584e-09,-0.00031224873233455,0.0003122491047405,3.0437302124475e-09,-2.7246270249811e-09,-0.00031822729270307,0.00031822894198384,-0.00031822923768683,0.00031822701539726,-0.00031822662781154,0.00031822958899214,-0.00031822855810005,0.00031822767686542,-0.00032430372071671,0.0003243041564638,-0.00032430569637114,0.00032430219318004,0.7761206635519,125803,2834,0.0014822909937121,0.0014822909937294,0.0013002047584797,33.593257667937,2.8746061343497e-05,2.8746061343497e-05,2.8746061343497e-05,1520012.8682706,0.0042738974355748
4619200,0.24279510898126,0.0046717192368616,0.0016069896543895,0.0016069896544136,0.0014577399280586,-0.00039722114672212,0.00039722104787303,1.0309545876186e-09,-1.1359350805219e-09,7.764013865147e-10,-9.0659655605341e-10,-0.00040298664551846,0.00040298783204415,-0.00040298734916214,0.00040298708902057,-0.00040298717596707,0.00040298725475838,-0.00040298788551319,0.00040298652792088,-0.00038415082961172,0.00038415227546845,-0.00038415291993791,0.00038415013106693,-7.8394719762771e-10,8.9312790939804e-10,-3.0093157009636e-09,3.0935500605699e-09,-0.00039722105811104,0.00039722113649521,-0.00040298844112735,0.00040298596491828,-0.00040298645284087,0.00040298798606672,-0.00040298792103389,0.00040298651932121,-0.00040298592843575,0.00040298854644054,-0.00038415419385825,0.00038414884501712,-0.00038414823980684,0.00038415488438659,-0.00039686790978681,0.0003968683571782,-0.0003968662862126,0.00039687005841687,-9.4767754615523e-10,1.2306330379466e-09,-0.00034491249176733,0.00034491274716863,3.1526525175681e-09,-2.9556959587195e-09,-0.00035186157280957,0.00035186314825924,-0.00035186362406658,0.00035186111515421,-0.00035186083703397,0.00035186386578181,-0.00035186288759966,0.00035186183406396,-0.00035928632581165,0.00035928669933731,-0.00035928846745562,0.00035928456894405,0.77693644963511,125803,2834,0.0016537141874473,0.0016537141874704,0.0014361234103716,34.290849172947,3.4326793383578e-05,3.4326793383578e-05,3.4326793383578e-05,1638204.809262,0.0047548250903126
4819200,0.26893522495916,0.0051563907177174,0.0017791509982094,0.0017791509983069,0.001598088721201,-0.00044038437964364,0.00044038431543077,1.1505136124371e-09,-1.220904928619e-09,7.7557935802417e-10,-8.7057463205728e-10,-0.00044743923212934,0.00044744051233692,-0.00044744000655037,0.00044743969685305,-0.00044743975293122,0.00044743994424058,-0.00044744052791122,0.00044743915184713,-0.00042465269099935,0.00042465437316906,-0.00042465497005327,0.00042465203865647,-7.8046626051206e-10,8.5269716597984e-10,-3.1437153209134e-09,3.1916177538254e-09,-0.00044038432654509,0.00044038436857481,-0.00044744112048892,0.00044743854946269,-0.00044743906182294,0.00044744064611219,-0.00044744061777455,0.00044743908631589,-0.00044743854836,0.00044744119474694,-0.00042465631533109,0.00042465067786657,-0.00042465012704251,0.0004246569592289,-0.0004400345481005,0.00044003506816711,-0.00044003295611864,0.00044003673563293,-1.1042819590054e-09,1.3077892230399e-09,-0.00037835898318869,0.00037835915822247,3.2302779803069e-09,-3.1179061949561e-09,-0.00038637807202729,0.00038637957347705,-0.00038638020645806,0.00038637745722165,-0.00038637726235332,0.00038638036472287,-0.00038637938857049,0.00038637825749172,-0.0003953637978699,0.00039536425155718,-0.00039536617881746,0.00039536188126777,0.77792177892532,125803,2834,0.0018332456713228,0.0018332456714175,0.0015752819902885,34.991240552778,3.9929924422224e-05,3.9929924422224e-05,3.9929924422224e-05,1752864.5011411,0.0052555419088121
5019200,0.29607048184083,0.0056582802805865,0.0019585856410934,0.0019585856411939,0.0017411089982991,-0.00048531531545428,0.00048531527116036,1.2717805538447e-09,-1.3222678420368e-09,7.7937877410167e-10,-8.5431452492475e-10,-0.00049373422538015,0.00049373559478643,-0.0004937350724747,0.00049373470532975,-0.00049373474114123,0.00049373503091135,-0.00049373559053547,0.00049373416407107,-0.00046663571038085,0.00046663763754698,-0.0004666382101377,0.0004666350819675,-7.8544656069084e-10,8.3759590386381e-10,-3.2307582230161e-09,3.2586931235038e-09,-0.00048531528229524,0.00048531530436653,-0.0004937361906151,0.00049373355257389,-0.00049373408272959,0.00049373570170983,-0.00049373569124048,0.00049373408623943,-0.00049373357373061,0.00049373624606633,-0.00046663954111041,0.00046663373239802,-0.0004666332079953,0.00046664016512501,-0.00048502907246481,0.00048502963587603,-0.00048502749304717,0.00048503129089832,-1.2369240342139e-09,1.3909193494716e-09,-0.00041239268315927,0.00041239280814069,3.2782590672051e-09,-3.2191908906445e-09,-0.00042160179007314,0.00042160321838265,-0.00042160397280666,0.00042160105381094,-0.00042160090701366,0.00042160408281995,-0.00042160308390525,0.00042160192510412,-0.00043229220173891,0.0004322927651113,-0.0004322947916926,0.00043229018557985,0.7767732464021,125803,2834,0.0020200949022873,0.0020200949023854,0.0017168662590992,35.691746613451,4.5533972907609e-05,4.5533972907609e-05,4.5533972907609e-05,1870654.7353992,0.0057736681492535
5219200,0.32350239391534,0.0061660202641916,0.0021411963249646,0.0021411963250684,0.0018836276141586,-0.00053030199790858,0.00053030188746303,1.3355670188443e-09,-1.4517726730767e-09,8.8973851009926e-10,-1.0342373083631e-09,-0.00054010238143926,0.00054010384842559,-0.00054010329657377,0.0005401028909296,-0.00054010299362053,0.00054010318405361,-0.00054010390363035,0.00054010225649003,-0.00050849244645707,0.00050849439003936,-0.00050849512445246,0.00050849165646663,-8.8855399799117e-10,1.0041726945955e-09,-3.1093406350491e-09,3.1971157742038e-09,-0.00053030190153468,0.00053030198388524,-0.00054010437639235,0.00054010177353013,-0.00054010233140733,0.00054010385790771,-0.0005401037943806,0.00054010239331418,-0.00054010173254339,0.00054010449589513,-0.00050849612778582,0.00050849063685688,-0.00050848996234547,0.00050849689981837,-0.00053020739909859,0.00053020768692705,-0.00053020554548551,0.00053020962207239,-1.3481584777157e-09,1.5251311240411e-09,-0.00044556286037145,0.00044556300852398,3.2056951774031e-09,-3.122471514799e-09,-0.00045603175013118,0.00045603306689745,-0.00045603388025086,0.00045603095499944,-0.00045603078862385,0.00045603400912243,-0.00045603290561824,0.00045603191162713,-0.00046860179836228,0.00046860269270715,-0.00046860464090115,0.000468599862173,0.77855551250828,125803,2834,0.0022071401343964,0.0022071401344969,0.0018548421065044,36.022071941379,4.8176575531035e-05,4.8176575531035e-05,4.8176575531035e-05,1979139.0041882,0.0062888251160035
5419200,0.35102352117005,0.0066687837082072,0.0023231325356749,0.0023231325357759,0.0020225186367564,-0.00057502524303057,0.00057502507098574,1.4196980781982e-09,-1.5971549627181e-09,9.4335542034534e-10,-1.1514859030137e-09,-0.00058636137541435,0.00058636291299123,-0.00058636236632136,0.00058636188054905,-0.00058636204236773,0.00058636219111203,-0.00058636302804213,0.00058636118793441,-0.00054981248818254,0.00054981454080689,-0.00054981539280138,0.00054981158051172,-9.5007169707946e-10,1.1321268000225e-09,-2.9795108861484e-09,3.1311627664329e-09,-0.00057502508373601,0.00057502523032806,-0.00058636337146751,0.00058636083581099,-0.00058636138902779,0.00058636285451211,-0.00058636273016661,0.00058636151794277,-0.00058636073128038,0.00058636355469294,-0.0005498160653734,0.00054981089483109,-0.00054981009230445,0.00054981696161418,-0.00057502254931782,0.00057502265353664,-0.00057502051430728,0.00057502477620503,-1.4336992986626e-09,1.6490197991065e-09,-0.00047774437576402,0.00047774456249445,3.1290321835648e-09,-3.004822307396e-09,-0.00048966709089976,0.00048966830991126,-0.00048966915566183,0.00048966626299967,-0.00048966605792465,0.00048966932304842,-0.00048966811151911,0.00048966728937003,-0.00050386617126516,0.00050386737341528,-0.00050386921947915,0.00050386433877824,0.7695800229433,125803,2834,0.00239305454144,0.0023930545415394,0.001988690644486,36.275152876926,5.020122301541e-05,5.020122301541e-05,5.020122301541e-05,2093633.9409223,0.0067978140560851
5619200,0.37854916252462,0.0071474218934095,0.0024974086455698,0.002497408645681,0.0021526046021586,-0.00061820681104844,0.00061820660055639,1.5105870768664e-09,-1.726262217786e-09,9.6832673781226e-10,-1.2155230262824e-09,-0.00063158668568031,0.0006315882862088,-0.00063158774969222,0.00063158718147859,-0.00063158738044424,0.00063158753587865,-0.0006315884397553,0.0006315864591062,-0.00058921342499568,0.00058921562665471,-0.00058921654530975,0.00058921244946008,-9.7456545287086e-10,1.1962867334159e-09,-2.8856343313516e-09,3.0761273856469e-09,-0.00061820661300885,0.00061820679865126,-0.00063158868446679,0.000631586206911,-0.00063158674900274,0.00063158817602743,-0.00063158801432096,0.00063158691930282,-0.00063158606308347,0.00063158890530319,-0.00058921696975706,0.00058921201524297,-0.00058921114197575,0.00058921793177114,-0.00061765030258203,0.00061765031121761,-0.00061764818265359,0.00061765252065781,-1.5266710691194e-09,1.7747781382461e-09,-0.00050786679853009,0.00050786701804237,3.0724670780808e-09,-2.9127901918464e-09,-0.00052189152091697,0.00052189264911819,-0.00052189353588942,0.00052189065181001,-0.00052189041429487,0.00052189373545562,-0.00052189241946293,0.00052189175068666,-0.00053632647342555,0.0005363279715723,-0.00053632973553133,0.00053632472365902,0.73637047700553,125803,2834,0.0025725260927618,0.0025725260928767,0.0021139626601662,36.526080454151,5.2208643633211e-05,5.2208643633211e-05,5.2208643633211e-05,2252368.4058507,0.0072854429862195
5819200,0.40599233605982,0.0076036979967775,0.0026642119525282,0.002664211952634,0.0022752740916152,-0.00066025635640104,0.00066025613120178,1.6131270224003e-09,-1.843391749618e-09,9.8156663013675e-10,-1.243392065373e-09,-0.00067605623524781,0.0006760579071422,-0.00067605737232759,0.00067605672988708,-0.00067605694299567,0.00067605714377243,-0.00067605807569684,0.00067605599365421,-0.00062728279440055,0.00062728518338857,-0.00062728612950814,0.00062728179018227,-9.8760804616388e-10,1.2243764661005e-09,-2.8266342431536e-09,3.032102401921e-09,-0.00066025614346919,0.00066025634418703,-0.00067605825259975,0.0006760558101945,-0.00067605634956752,0.00067605774494928,-0.00067605756912584,0.00067605653642404,-0.00067605565071488,0.00067605848731494,-0.00062728636808374,0.00062728154391501,-0.00062728064036222,0.00062728735717054,-0.00065861403055799,0.00065861398074645,-0.00065861187124443,0.00065861623018156,-1.6269471700603e-09,1.8934656228367e-09,-0.00053628833954811,0.00053628857736857,3.0315767463617e-09,-2.8514335588565e-09,-0.00055315290222278,0.00055315394088209,-0.00055315488306353,0.00055315197760675,-0.00055315172227726,0.00055315510047433,-0.0005531536938622,0.00055315314936512,-0.00056668882114835,0.00056669058609689,-0.00056669229790729,0.00056668712409179,0.71317582997065,125803,2834,0.002747259946508,0.002747259946619,0.0022321517465189,36.776919159861,5.4215353278886e-05,5.4215353278886e-05,5.4215353278886e-05,2372427.1427496,0.0077566236164178
6019200,0.43287444383325,0.0080401604540285,0.0028244953268683,0.002824495326974,0.0023911698001862,-0.00070075812885681,0.00070075786723908,1.6872305268244e-09,-1.9535871782233e-09,1.0439670097303e-09,-1.3437277998322e-09,-0.00071902356608401,0.0007190253248278,-0.0007190247727135,0.00071902407840443,-0.00071902433441616,0.00071902449912965,-0.00071902552078086,0.00071902329572102,-0.00066366029952742,0.00066366275550384,-0.00066366379152733,0.00066365920584916,-1.0751889227165e-09,1.360001305403e-09,-2.7091370427176e-09,2.9603873292332e-09,-0.00070075787458492,0.00070075812154013,-0.00071902560520956,0.00071902320589248,-0.00071902377060147,0.00071902506886115,-0.00071902485748062,0.00071902399791653,-0.00071902299243462,0.00071902589372652,-0.00066366376647456,0.00066365922408123,-0.00066365819955859,0.00066366487379319,-0.00069791933255826,0.00069791902341429,-0.0006979169312364,0.0006979215191335,-1.7412141874927e-09,2.0332753912737e-09,-0.00056291081496584,0.00056291107844619,2.9460320367178e-09,-2.7374216613242e-09,-0.0005830679474481,0.00058306886844306,-0.00058306986991415,0.00058306696312578,-0.00058306669070924,0.00058307010437454,-0.00058306858848251,0.00058306822786345,-0.00059531469823641,0.00059531682811945,-0.00059531844741213,0.00059531309279517,0.70261522354057,125803,2834,0.0029155316076292,0.00291553160769,0.0023428521379892,36.775463919712,5.4203711357692e-05,5.4203711357692e-05,5.4203711357692e-05,2407630.6206239,0.0082074463304435
6219200,0.4591284377432,0.0084690171905018,0.0029823479854514,0.0029823479856071,0.0025043212194433,-0.00074050719141249,0.00074050690013122,1.7876329390996e-09,-2.083530547719e-09,1.0767606335841e-09,-1.4072496624006e-09,-0.00076103699010317,0.0007610388219926,-0.00076103827004242,0.00076103750304328,-0.00076103778502088,0.00076103796865462,-0.00076103904926368,0.00076103668719709,-0.00069947838455719,0.00069948101383158,-0.00069948211138418,0.00069947722942964,-1.1004592285495e-09,1.4157323818002e-09,-2.6308189386522e-09,2.9114207071621e-09,-0.00074050690761302,0.00074050718399931,-0.00076103904572191,0.00076103668645105,-0.00076103724910585,0.0007610385095907,-0.00076103826836517,0.00076103750978843,-0.00076103644607406,0.00076103936044099,-0.00069948184361768,0.00069947749187333,-0.00069947641077922,0.00069948300629547,-0.00073671778303161,0.00073671739149989,-0.000736715313525,0.00073671996039887,-1.8380059794885e-09,2.1448358537958e-09,-0.00058892422331709,0.00058892450168455,2.8931814603254e-09,-2.6677013862225e-09,-0.0006123817677147,0.00061238258981793,-0.00061238364703696,0.00061238072715874,-0.00061238043815855,0.00061238389839697,-0.00061238229723854,0.00061238206068632,-0.00062357557912311,0.00062357796109907,-0.00062357952438661,0.00062357402871182,0.70745490918906,125803,2834,0.0030806471283048,0.0030806471284475,0.002451012420896,36.75880121689,5.4070409735119e-05,5.4070409735119e-05,5.4070409735119e-05,2400678.6257804,0.0086495430613713
6419200,0.48471307749957,0.0088844203860157,0.0031354890044986,0.0031354890046567,0.0026134423768603,-0.00077898139884964,0.00077898108891969,1.8880990402527e-09,-2.2026365137018e-09,1.0823311381443e-09,-1.4319882515066e-09,-0.00080174237382828,0.0008017442691313,-0.00080174372632839,0.00080174287797749,-0.00080174317750038,0.0008017434064429,-0.00080174451489689,0.00080174205156684,-0.00073415784080385,0.00073416065739316,-0.00073416178379238,0.00073415665662195,-1.1044529556615e-09,1.4387639155306e-09,-2.5806386176527e-09,2.8797812492074e-09,-0.00077898109645589,0.00077898139138328,-0.0008017444432145,0.00080174211972529,-0.00080174267217098,0.00080174391607646,-0.00080174365721833,0.00080174295285083,-0.00080174186112227,0.00080174477553045,-0.0007341613396117,0.00073415709675841,-0.00073415598774357,0.00073416252849542,-0.00077426367483219,0.00077426324907521,-0.00077426117990851,0.00077426584476567,-1.9261107196245e-09,2.2755302426425e-09,-0.00061406355954854,0.00061406388055577,2.8747221676283e-09,-2.6054197968993e-09,-0.0006407150675574,0.00064071583317887,-0.00064071692084265,0.00064071399640328,-0.00064071366583185,0.0006407172140434,-0.00064071549720579,0.00064071540391736,-0.00065086667007054,0.00065086933910358,-0.00065087083224535,0.00065086518850072,0.70210891889523,125803,2834,0.0032404395600332,0.0032404395601783,0.0025555311108852,36.741645324544,5.3933162596353e-05,5.3933162596353e-05,5.3933162596353e-05,2420554.0871676,0.009077417550913
6619200,0.51000164301241,0.0093189829074172,0.0032950867362299,0.0032950867363896,0.0027288094347976,-0.00081864283422888,0.00081864254094014,2.0171680600475e-09,-2.3152906701652e-09,9.8933931148079e-10,-1.3211284693439e-09,-0.0008431838262673,0.00084318574528466,-0.0008431852535014,0.00084318427929148,-0.00084318455747896,0.00084318495614,-0.0008431859805077,0.00084318351534267,-0.000770613166536,0.00077061632027089,-0.00077061736314203,0.00077061206580344,-9.9986858105413e-10,1.3128358943663e-09,-2.6326920390924e-09,2.9121257342673e-09,-0.00081864255012102,0.0008186428251152,-0.00084318589680626,0.0008431835958099,-0.00084318409203398,0.00084318542596068,-0.0008431851806937,0.00084318435792833,-0.00084318336169509,0.00084318620325344,-0.00077061691470171,0.00077061250972772,-0.00077061149712348,0.00077061800801339,-0.00081387207094013,0.00081387189668945,-0.0008138698187537,0.00081387424691474,-2.0209741592775e-09,2.3772643735876e-09,-0.00064057367352221,0.00064057400120903,2.9246747278693e-09,-2.6489227249349e-09,-0.00066986044402055,0.00066986117684088,-0.00066986232334843,0.00066985931359192,-0.00066985897172054,0.00066986262846224,-0.00066986083881657,0.0006698607822793,-0.00068022044356383,0.00068022326633514,-0.00068022478303377,0.00068021893753874,0.74070665293937,125803,2834,0.0034051358014895,0.0034051358016291,0.0026657390783354,37.008343043638,5.6066744349108e-05,5.6066744349108e-05,5.6066744349108e-05,2379513.4697819,0.0095211152575032
6819200,0.53608662994381,0.0098018946939068,0.003471603923444,0.0034716039236239,0.0028586868468389,-0.00086276213799287,0.00086276194664937,2.1514487923339e-09,-2.3483561812718e-09,7.0225751066216e-10,-9.270005857096e-10,-0.0008884951493942,0.00088849700942153,-0.00088849663987987,0.00088849547932742,-0.00088849566663547,0.00088849643939537,-0.0008884971394889,0.00088849494873915,-0.00081216624326491,0.0008121698647421,-0.00081217058084342,0.00081216546881768,-7.2751260148941e-10,9.3660185667574e-10,-2.9044776602966e-09,3.0857544752215e-09,-0.0008627619543236,0.00086276213039818,-0.00088849720397557,0.00088849487907741,-0.00088849526083596,0.00088849685117483,-0.00088849670630712,0.0008884954177343,-0.00088849473496286,0.00088849741869651,-0.0008121706093469,0.00081216543167101,-0.00081216473539803,0.00081217139248609,-0.00085906024245731,0.00085906073232643,-0.00085905860442008,0.00085906245996895,-2.1807964316728e-09,2.4880074742854e-09,-0.00067121668017761,0.00067121695825555,3.1091805680943e-09,-2.8861580963462e-09,-0.00070235873495357,0.00070235947649198,-0.00070236076128975,0.0007023574657203,-0.00070235718033188,0.00070236101111105,-0.00070235918057522,0.00070235903126834,-0.0007147975830639,0.00071480050230602,-0.00071480220724265,0.00071479588585771,0.79221449565117,125803,2834,0.0035883122809925,0.0035883122811576,0.002793113093847,38.071512575101,6.4572100600805e-05,6.4572100600805e-05,6.4572100600805e-05,2337726.4257378,0.010019670793405
7019200,0.56287219383066,0.010262076416043,0.0036409017948902,0.0036409017950881,0.0029802728260649,-0.00090654734417979,0.00090654726788573,2.3231629938182e-09,-2.4057190887567e-09,5.4186739288192e-10,-6.4709017819218e-10,-0.00093395077717952,0.00093395268022243,-0.00093395234077075,0.00093395107568415,-0.00093395115118008,0.00093395225797186,-0.00093395269932185,0.00093395069189704,-0.00085238417620531,0.00085238828606522,-0.00085238874200114,0.00085238366176323,-5.6373547047422e-10,6.5365963175545e-10,-3.1489801039929e-09,3.2161885279202e-09,-0.00090654727539754,0.00090654733675152,-0.00093395290134544,0.00093395048326967,-0.00093395083519934,0.00093395258186529,-0.00093395254535032,0.00093395087471007,-0.00093395045285747,0.00093395300087106,-0.00085238909765902,0.0008523832948083,-0.0008523828639257,0.00085238962298564,-0.0009026870447255,0.00090268798446805,-0.00090268584614413,0.00090268926568527,-2.3166921890293e-09,2.5620582015277e-09,-0.0007011291303496,0.00070112934600834,3.2646919265423e-09,-3.1074056577031e-09,-0.00073479719471292,0.00073479792739916,-0.00073479934506032,0.00073479579255473,-0.00073479556799622,0.000734799534271,-0.00073479769404254,0.00073479742838604,-0.00074764708464412,0.00074765002001208,-0.00074765191114506,0.00074764519952551,0.73335806131197,125803,2834,0.0037700663967013,0.003770066396874,0.0029174393790345,39.155551321808,7.3244410574462e-05,7.3244410574462e-05,7.3244410574462e-05,2353105.674384,0.010512524153006
7219200,0.59020447107989,0.010713786651219,0.0038073967576321,0.0038073967579706,0.0030989931356161,-0.00095008068148627,0.00095008071040195,2.4863957899624e-09,-2.4640906126056e-09,4.8132210423423e-10,-4.7817146521938e-10,-0.00097962105477392,0.00097962306050541,-0.00097962269045711,0.00097962138265633,-0.00097962135570237,0.00097962271489048,-0.00097962297770118,0.00097962107485647,-0.00089190828228172,0.0008919127914682,-0.00089191306673233,0.00089190794865442,-5.0228893453548e-10,4.8363453957655e-10,-3.3518735573238e-09,3.3140584348559e-09,-0.00095008071804373,0.00095008067400088,-0.00097962329566579,0.00097962074846053,-0.0009796211318812,0.00097962294855063,-0.00097962301193583,0.00097962106362354,-0.00097962082291112,0.00097962328997218,-0.00089191363870793,0.00089190736097628,-0.00089190711444665,0.00089191398485344,-0.0009455074491519,0.00094550860981878,-0.0009455064768834,0.00094550965936798,-2.4583013158659e-09,2.637330140551e-09,-0.0007308864989245,0.00073088664791217,3.3797711768399e-09,-3.2923894275649e-09,-0.00076729000787521,0.00076729070184608,-0.00076729225808619,0.0007672884674153,-0.00076728830857299,0.00076729238108345,-0.00076729053430978,0.00076729017573959,-0.00077990167394569,0.00077990465597231,-0.00077990671358316,0.00077989962298062,0.70718847541822,125803,2834,0.0039507401555176,0.0039507401558418,0.00304110971937,40.240443225982,8.1923545807859e-05,8.1923545807859e-05,8.1923545807859e-05,2400957.7751186,0.011002774143459
7419200,0.61709135775219,0.011142027502837,0.0039653721195733,0.0039653721199554,0.0032112832633087,-0.00099075623869067,0.00099075627598384,2.6182816137057e-09,-2.5871695424817e-09,7.0200727148326e-10,-6.9236981740087e-10,-0.0010228332648344,0.0010228354975683,-0.0010228349745742,0.0010228337452056,-0.0010228336989474,0.0010228350172847,-0.0010228354157628,0.0010228332823478,-0.00092837435022455,0.00092837900468477,-0.00092837941456406,0.00092837388193452,-7.0895151845893e-10,6.7862546390316e-10,-3.3232461385931e-09,3.2716735959152e-09,-0.00099075628612021,0.0009907562287371,-0.0010228356848584,0.0010228330043867,-0.0010228335353335,0.0010228351913641,-0.0010228352579471,0.0010228334639849,-0.0010228331035752,0.0010228356564646,-0.00092837967005882,0.00092837361087544,-0.00092837324585625,0.00092838013490124,-0.00098497084729402,0.00098497160632322,-0.0009849695111375,0.00098497302229247,-2.5610166065788e-09,2.7183136493545e-09,-0.00075836572841598,0.00075836585575555,3.3362625422158e-09,-3.2711022634306e-09,-0.00079765642621912,0.0007976570055216,-0.0007976586453385,0.00079765480313948,-0.00079765465491115,0.00079765875587607,-0.00079765686937132,0.00079765656263206,-0.00080944217704626,0.0008094453093651,-0.00080944736874234,0.00080944012766298,0.68501443376399,125803,2834,0.0041195209413095,0.0041195209416886,0.003155304459572,40.769618912888,8.6156951303104e-05,8.6156951303104e-05,8.6156951303104e-05,2470358.3305516,0.011459622585698
7619200,0.64279510603539,0.011541451222935,0.0041127202506285,0.004112720250999,0.0033160107213072,-0.0010281338583785,0.0010281338121619,2.6778966989176e-09,-2.7292163351379e-09,9.3472928783835e-10,-1.0133183599961e-09,-0.0010628929125208,0.0010628953199542,-0.0010628946960617,0.0010628934940969,-0.0010628935330535,0.0010628946489774,-0.0010628953137269,0.0010628928502424,-0.0009617362917369,0.00096174086051218,-0.00096174153641384,0.00096173555764784,-9.5079679669287e-10,1.0106091264454e-09,-3.1391288162276e-09,3.1717863867299e-09,-0.001028133821397,0.0010281338493115,-0.0010628954202986,0.0010628927353706,-0.001062893369143,0.001062894822613,-0.0010628948128381,0.0010628933803979,-0.0010628927466935,0.0010628954826403,-0.00096174130334673,0.00096173577838236,-0.00096173513769014,0.00096174203926026,-0.0010208990005806,0.001020899170556,-0.0010208970852417,0.001020901173516,-2.6678043469012e-09,2.8478817286092e-09,-0.00078321704536188,0.00078321719579577,3.2054278386206e-09,-3.1155668008206e-09,-0.00082566462916277,0.00082566506386827,-0.00082566675899147,0.0008256629516032,-0.00082566278519881,0.00082566688598036,-0.00082566489961602,0.00082566479371013,-0.00083591642029754,0.00083591991965391,-0.00083592186287726,0.00083591449093154,0.67223240607012,125803,2834,0.0042745892638572,0.004274589264206,0.0032585736284829,40.851501165369,8.6812009322952e-05,8.6812009322952e-05,8.6812009322952e-05,2530344.5677465,0.011877874096425
7819200,0.6672817960623,0.011917209770759,0.0042513300116085,0.0042513300119658,0.0034145497471842,-0.0010635730792233,0.0010635729752938,2.7593708677612e-09,-2.8679848650899e-09,1.0820974180196e-09,-1.2205142691269e-09,-0.0011009194100602,0.0011009219505499,-0.0011009212678256,0.0011009200509999,-0.0011009201459577,0.001100921161391,-0.0011009219995808,0.0011009192897385,-0.00099340310797695,0.0009934077162635,-0.000993408566675,0.00099340219937755,-1.0967867926222e-09,1.2161217131227e-09,-2.9846875753535e-09,3.0743603542728e-09,-0.001063572984671,0.001063573070009,-0.0011009219711662,0.0011009193109421,-0.0011009200025378,0.0011009213134496,-0.0011009212499396,0.0011009200727605,-0.0011009192653262,0.0011009220913221,-0.00099340793096929,0.00099340282505412,-0.00099340200907635,0.00099340883895372,-0.0010549322785092,0.0010549320775232,-0.0010549300192522,0.0010549344290045,-2.7604347035171e-09,2.9734527879996e-09,-0.00080653113861766,0.00080653132228113,3.0980117344343e-09,-2.9731092931466e-09,-0.00085226337425954,0.00085226368503961,-0.00085226542042968,0.00085226165666479,-0.00085226145651348,0.00085226558066295,-0.00085226348874756,0.00085226357083866,-0.00086089707860966,0.00086090090480446,-0.00086090273249343,0.00086089526621649,0.66655083150252,125803,2834,0.004421592415586,0.0044215924159238,0.0033554499826228,40.92146262886,8.7371701030877e-05,8.7371701030877e-05,8.7371701030877e-05,2545159.8032969,0.012273500854121
8019200,0.69054577868678,0.012270888868588,0.0043818505209944,0.0043818505213454,0.0035071878262482,-0.0010970426532405,0.0010970425136559,2.8513204882928e-09,-2.9954351781879e-09,1.1886994276955e-09,-1.3637675933656e-09,-0.0011368817727968,0.0011368844331236,-0.0011368837038374,0.0011368824607944,-0.0011368825897785,0.0011368835610431,-0.0011368845166169,0.0011368816161004,-0.001023316346369,0.0010233210517557,-0.0010233220205452,0.0010233153193257,-1.2034458638491e-09,1.3594550485309e-09,-2.8588362965018e-09,2.9840290529166e-09,-0.0010970425230225,0.0010970426440312,-0.0011368843812468,0.00113688174535,-0.0011368824827095,0.0011368836756436,-0.0011368835788555,0.0011368825905077,-0.0011368816645115,0.0011368845365827,-0.0010233210532804,0.0010233162784064,-0.0010233153424731,0.0010233220783192,-0.0010870157610231,0.0010870152796573,-0.0010870132579019,0.0010870178772156,-2.8529713044225e-09,3.099956961031e-09,-0.00082842515660498,0.00082842537444287,3.0083548860273e-09,-2.8475450825801e-09,-0.00087738805410796,0.00087738825359411,-0.00087739002822603,0.00087738629730252,-0.00087738606261663,0.00087739022261086,-0.00087738802413297,0.00087738828385279,-0.00088446662827809,0.00088447077286433,-0.00088447249480604,0.00088446492144571,0.66097248824515,125803,2834,0.0045604040953814,0.0045604040957077,0.0034464215708544,40.990934095697,8.7927472765577e-05,8.7927472765577e-05,8.7927472765577e-05,2553055.8733276,0.012646714265122
8219200,0.71273149450092,0.012605279542601,0.0045052707013941,0.0045052707017409,0.0035947381394663,-0.0011289893843289,0.0011289892362676,2.9554336442956e-09,-3.1080672314443e-09,1.2241239633238e-09,-1.4073626908006e-09,-0.0011712522430482,0.0011712549944963,-0.0011712542478664,0.0011712529486538,-0.0011712530868686,0.0011712540947112,-0.0011712550845828,0.0011712520788615,-0.001051651298584,0.0010516561769209,-0.0010516571806308,0.0010516502363249,-1.242114318319e-09,1.4068958145684e-09,-2.7946234848911e-09,2.9289187157092e-09,-0.0011289892453447,0.001128989375402,-0.0011712548864795,0.001171252271886,-0.0011712530275898,0.0011712541607876,-0.0011712540575846,0.0011712531442052,-0.0011712521802536,0.0011712550517617,-0.0010516560169544,0.001051651393112,-0.0010516504181343,0.0010516570793693,-0.0011176002112415,0.0011175996108012,-0.0011175976198475,0.0011176022968443,-2.9513108947114e-09,3.223272759965e-09,-0.00084927977620344,0.00084928001916237,2.9620659311782e-09,-2.7750402631408e-09,-0.00090137973797701,0.00090137984994411,-0.0009013816737165,0.00090137793169831,-0.00090137767372634,0.00090138189163565,-0.00090137959447383,0.00090137999347006,-0.00090680099020999,0.00090680541980297,-0.00090680707675626,0.00090679934735728,0.65549139281151,125803,2834,0.0046928807122064,0.0046928807125178,0.0035330695063505,41.181077804298,8.9448622434386e-05,8.9448622434386e-05,8.9448622434386e-05,2558916.5215548,0.013002851769553
8419200,0.73389148630842,0.012923483837335,0.0046226673035899,0.0046226673039475,0.0036781492297974,-0.0011594828309956,0.0011594826861745,3.0668645205706e-09,-3.2163218540457e-09,1.2377857177313e-09,-1.4171790716816e-09,-0.0012040679699419,0.0012040708051681,-0.001204070047914,0.0012040686863287,-0.001204068821344,0.0012040698979242,-0.0012040708922055,0.001204067808805,-0.0010787299335389,0.0010787350227335,-0.0010787360310899,0.001078728866507,-1.2551422657359e-09,1.4158799958603e-09,-2.7669194873063e-09,2.8978638468755e-09,-0.0011594826953457,0.0011594828219687,-0.0012040706514335,0.0012040680450914,-0.0012040688110724,0.0012040699144219,-0.0012040698150405,0.0012040689250105,-0.0012040679562748,0.0012040708127666,-0.0010787347263787,0.0010787301648036,-0.0010787291850466,0.001078735792533,-0.0011468131874555,0.0011468125432101,-0.0011468105751546,0.0011468152494447,-3.0519338652027e-09,3.3413997381787e-09,-0.00086916093891775,0.00086916119943455,2.9421907544376e-09,-2.7369218764439e-09,-0.00092430902685577,0.00092430906404017,-0.00092431094333915,0.00092430716481903,-0.00092430688972183,0.00092431117866354,-0.00092430879108022,0.0009243092998167,-0.00092808412008179,0.00092808879971789,-0.00092809041978785,0.00092808251381928,0.65380934840571,125803,2834,0.0048193133877183,0.0048193133880172,0.0036156687216137,41.430251604932,9.1442012839457e-05,9.1442012839457e-05,9.1442012839457e-05,2557107.0863248,0.013342763032675
8619200,0.75401156627685,0.013225694862681,0.0047341096655095,0.004734109665872,0.0037574755312991,-0.0011883796587109,0.0011883795207812,3.180030230377e-09,-3.3226641447735e-09,1.2557796629109e-09,-1.4276749815093e-09,-0.0012352049815821,0.0012352079058822,-0.0012352071323704,0.0012352057143389,-0.0012352058424618,0.0012352069896878,-0.0012352079867791,0.0012352048269924,-0.0011043365407007,0.0011043418431039,-0.0011043428548979,0.0011043354709647,-1.2725257139188e-09,1.42567147191e-09,-2.7527634011363e-09,2.8767937575008e-09,-0.001188379530004,0.001188379649634,-0.0012352077104951,0.0012352050991025,-0.0012352058808178,0.0012352069571154,-0.0012352068644729,0.0012352059885821,-0.0012352050169218,0.0012352078640397,-0.001104341421431,0.0011043368977352,-0.0011043359152325,0.0011043424896891,-0.0011745407532223,0.0011745400651302,-0.0011745381154957,0.0011745427956593,-3.1547699745192e-09,3.4574178767277e-09,-0.00088800779504284,0.00088800806876506,2.9316202061878e-09,-2.7126956185753e-09,-0.00094589508326923,0.00094589504910212,-0.00094589698804014,0.00094589316167868,-0.00094589287320856,0.00094589723709307,-0.00094589476307269,0.00094589536938961,-0.00094837540485881,0.00094838032243377,-0.0009483819178509,0.00094837382273476,0.65260875224811,125803,2834,0.0049391102308478,0.00493911023115,0.0036939669814293,41.681017601572,9.3448140812574e-05,9.3448140812574e-05,9.3448140812574e-05,2553247.1078438,0.013664975184875
8819200,0.77308390373671,0.013501544216587,0.0048360610071054,0.0048360610074702,0.0038294222020119,-0.0012152152300677,0.0012152151017313,3.2943263704731e-09,-3.4274139944434e-09,1.2854915788794e-09,-1.447153623509e-09,-0.0012643452016257,0.0012643482248274,-0.0012643474252855,0.0012643459604185,-0.0012643460792107,0.0012643472924197,-0.0012643482966723,0.001264345056507,-0.0011277575632188,0.0011277630733511,-0.0011277640923672,0.0011277564864391,-1.3021228693931e-09,1.4449268628751e-09,-2.749459389011e-09,2.8638427411712e-09,-0.0012152151110072,0.0012152152209382,-0.0012643479908845,0.0012643453584225,-0.0012643461658684,0.0012643472112084,-0.0012643471280554,0.0012643462643857,-0.0012643452853757,0.001264348134202,-0.0011277625361953,0.0011277580355428,-0.0011277570460586,0.001127763611288,-0.0011999753441247,0.0011999745936673,-0.0011999726589417,0.0011999773706772,-3.259419899638e-09,3.5719037147345e-09,-0.00090537782368926,0.00090537810722897,2.9287639773334e-09,-2.6997030880801e-09,-0.00096590285986337,0.00096590275715201,-0.00096590475930287,0.00096590087503129,-0.00096590057677428,0.00096590501837378,-0.00096590246137037,0.00096590315574167,-0.00096689835124495,0.00096690349809206,-0.00096690507843204,0.00096689678385574,0.62941992601161,125803,2834,0.0050503474770576,0.005050347477361,0.0037661264548644,41.931849238333,9.5454793906661e-05,9.5454793906661e-05,9.5454793906661e-05,2575505.1025989,0.013963710213419
9019200,0.79071124528154,0.013756561718795,0.0049302302296118,0.0049302302299776,0.0038961012592052,-0.0012391417858473,0.001239141651946,3.3974131806535e-09,-3.5360448577274e-09,1.4151101951196e-09,-1.5827172584859e-09,-0.0012904221410892,0.001290425309066,-0.0012904244269931,0.0012904229827443,-0.0012904230978027,0.0012904242971013,-0.0012904253946772,0.0012904219813233,-0.0011484210921399,0.0011484267408392,-0.0011484278548703,0.0011484199211159,-1.4294998196441e-09,1.576552726456e-09,-2.6984082507994e-09,2.8168497496664e-09,-0.0012391416618918,0.0012391417760438,-0.0012904250316155,0.001290422341032,-0.0012904232301812,0.0012904241699181,-0.0012904240742319,0.0012904233426307,-0.0012904222719749,0.0012904251702672,-0.0011484260290015,0.0011484217401998,-0.0011484206600248,0.0011484271939745,-0.0012226957070745,0.0012226947027277,-0.0012226927967231,0.001222697707812,-3.3648509368857e-09,3.6929784028095e-09,-0.00092055200018126,0.00092055229940683,2.8800987836393e-09,-2.6345474954606e-09,-0.00098339987193936,0.00098339966309264,-0.00098340172462476,0.00098339782673306,-0.00098339750473629,0.00098340200804123,-0.0009833993602746,0.00098340017435668,-0.00098325247348573,0.00098325786946028,-0.00098325939724336,0.00098325096035402,0.62977529988081,125803,2834,0.0051495151853151,0.0051495151856097,0.0038291632348884,41.750413565253,9.4003308522028e-05,9.4003308522028e-05,9.4003308522028e-05,2578668.9884576,0.014228796377913
9219200,0.80688760935492,0.013987987169005,0.0050157028611802,0.0050157028615466,0.0039565814462785,-0.0012606356466777,0.0012606354497904,3.4766061755972e-09,-3.6775274985299e-09,1.4413246879319e-09,-1.6758011873064e-09,-0.001313988006932,0.0013139912258284,-0.0013139903671695,0.0013139888248936,-0.0013139890021309,0.0013139901721994,-0.0013139913709808,0.0013139877848308,-0.0011667547263252,0.0011667604831485,-0.001166761697123,0.0011667534548385,-1.4575818192289e-09,1.6720800943877e-09,-2.6134228471138e-09,2.7945069239743e-09,-0.0012606354595207,0.0012606356370809,-0.0013139908921541,0.0013139882609465,-0.0013139891265301,0.0013139900527571,-0.0013139898972923,0.0013139893019645,-0.0013139881288052,0.0013139910958658,-0.0011667596176347,0.0011667555288281,-0.0011667543453944,0.0011667608845246,-0.0012430931727169,0.0012430920680208,-0.0012430901349389,0.0012430952061838,-3.4663022407937e-09,3.8089825821085e-09,-0.00093406216156253,0.00093406247538492,2.8369841631823e-09,-2.5762168142124e-09,-0.00099902643141969,0.00099902613027486,-0.00099902825043479,0.0009990243279486,-0.00099902399139063,0.00099902854789164,-0.000999025812612,0.00099902674867432,-0.00099790440294976,0.00099791006651981,-0.00099791154663111,0.00099790293852379,0.62300580100514,125803,2834,0.0052385907637542,0.0052385907640306,0.0038852864422338,41.45287578243,9.1623006259437e-05,9.1623006259437e-05,9.1623006259437e-05,2582049.5207124,0.014466460924078
9419200,0.82172241221179,0.014197823388444,0.0050932127329453,0.0050932127333243,0.0040113979221746,-0.0012800714403374,0.0012800712194219,3.5750835792978e-09,-3.799896153722e-09,1.4150249159013e-09,-1.6745599451078e-09,-0.0013354057756887,0.001335409036258,-0.0013354082114933,0.0013354065598924,-0.0013354067626401,0.0013354079900463,-0.0013354092030499,0.0013354055310855,-0.0011833441061684,0.0011833500581602,-0.001183351285974,0.0011833428207119,-1.4307011865902e-09,1.6708702331705e-09,-2.5631480510623e-09,2.7687856856155e-09,-0.0012800712289236,0.0012800714310087,-0.0013354086507177,0.0013354060809,-0.0013354069116076,0.001335407845608,-0.0013354076687429,0.0013354071104883,-0.0013354059226683,0.0013354088810314,-0.0011833490543818,0.0011833450478321,-0.0011833438494239,0.0011833503357456,-0.001261524726416,0.0012615236387424,-0.0012615217074824,0.0012615267594253,-3.5679065726954e-09,3.9245106655401e-09,-0.00094623233371638,0.00094623266150671,2.8082505661008e-09,-2.5329250086958e-09,-0.0010131416240792,0.0010131412428267,-0.001013143421952,0.0010131394625701,-0.0010131391140015,0.0010131437303727,-0.0010131409090527,0.0010131419577254,-0.0010110688606958,0.0010110747811761,-0.001011076223595,0.0010110674347353,0.61620823860716,125803,2834,0.0053191299066436,0.005319129907002,0.0039358414775251,41.152128570091,8.9217028560728e-05,8.9217028560728e-05,8.9217028560728e-05,2589377.2232181,0.014681206639893
9619200,0.83532222428148,0.014387939699114,0.0051634467986109,0.0051634467989929,0.0040610461015105,-0.0012976454886453,0.0012976452548715,3.6781418700554e-09,-3.9157845313528e-09,1.351041490904e-09,-1.623546165132e-09,-0.001354862214045,0.0013548654963076,-0.0013548647230542,0.0013548629468004,-0.0013548631623187,0.0013548644882868,-0.0013548656754256,0.001354861956589,-0.0011983011897984,0.0011983073813271,-0.0011983085834136,0.0011982999300091,-1.3666319578024e-09,1.6198044828049e-09,-2.5314886910332e-09,2.7500447383077e-09,-0.0012976452643347,0.0012976454793507,-0.0013548650655638,0.0013548625641259,-0.0013548633429983,0.0013548643118464,-0.0013548641228712,0.0013548635551082,-0.0013548623927992,0.0013548653090338,-0.0011983062465625,0.0011983022631441,-0.0011983010901599,0.0011983075019077,-0.0012781660243925,0.0012781650451131,-0.001278163117686,0.0012781680538574,-3.6711764706042e-09,4.0400884621001e-09,-0.00095719792932053,0.0009571982694419,2.7897902511427e-09,-2.5016400922346e-09,-0.0010258844733758,0.0010258840153692,-0.0010258862552484,0.0010258822511953,-0.0010258818907938,0.0010258865753615,-0.001025883668893,0.0010258848197052,-0.0010229224179233,0.001022928581127,-0.0010229299949278,0.0010229210210655,0.6093804034063,125803,2834,0.0053919482964692,0.0053919482968182,0.0039813910019823,40.851248506324,8.6809988050596e-05,8.6809988050596e-05,8.6809988050596e-05,2598164.4968837,0.014875245473619
9819200,0.84755403697149,0.014559781864534,0.0052268566028666,0.0052268566032494,0.0041060686584183,-0.0013126435358095,0.0013126432909361,3.8005871283779e-09,-4.0491407459414e-09,1.314991477913e-09,-1.5986739298441e-09,-0.0013715657980063,0.001371569139616,-0.0013715683980828,0.0013715664985153,-0.001371566731127,0.0013715681447849,-0.0013715693216425,0.0013715655353306,-0.0012110037191696,0.0012110101520679,-0.0012110113425483,0.0012110024703169,-1.305683431091e-09,1.5652940934542e-09,-2.4732469417075e-09,2.6985211399249e-09,-0.0013126433026815,0.0013126435242642,-0.0013715686358424,0.0013715662210234,-0.0013715669551291,0.0013715679250635,-0.0013715677370467,0.0013715671672245,-0.0013715660356978,0.0013715688918357,-0.0012110088671034,0.0012110049432705,-0.0012110037990335,0.0012110100943849,-0.001292399485928,0.0012923985669098,-0.0012923966719765,0.0012924014878962,-3.7553505069293e-09,4.1377607410143e-09,-0.00096629516647304,0.00096629552033735,2.7629640362203e-09,-2.460689599313e-09,-0.0010365363694152,0.0010365358471697,-0.0010365381338323,0.001036534098022,-0.001036533731588,0.0010365384616883,-0.0010365354792012,0.0010365367350952,-0.0010328835495649,0.0010328899465285,-0.0010328913220885,0.0010328821875728,0.61213710826917,125803,2834,0.005454087989981,0.0054540879903948,0.0040191810793481,40.185779383441,8.1486235067527e-05,8.1486235067527e-05,8.1486235067527e-05,2601039.0797169,0.015039763404206
10019200,0.85854672910785,0.014715232110851,0.0052841490799927,0.0052841490803698,0.0041469339504885,-0.0013259044571263,0.0013259042127684,3.8967674560761e-09,-4.1449796296587e-09,1.2318701384482e-09,-1.5146752426522e-09,-0.0013863334609638,0.0013863368105534,-0.0013863361231892,0.0013863341083923,-0.0013863343376415,0.0013863358748741,-0.0013863369970011,0.0013863331960872,-0.0012222758253662,0.0012222825144038,-0.001222283650948,0.0012222746313269,-1.2407058049952e-09,1.5021958015858e-09,-2.4514991921713e-09,2.6786850496318e-09,-0.0013259042232159,0.001325904446876,-0.0013863362745439,0.0013863339169758,-0.0013863346051121,0.001386335611147,-0.0013863354172942,0.00138633482342,-0.0013863337329163,0.0013863365288855,-0.0012222810964829,0.0012222771828233,-0.0012222760810034,0.0012222822792121,-0.0013050367794396,0.0013050359907507,-0.0013050341031835,0.0013050387665708,-3.8716543015273e-09,4.2664237496242e-09,-0.00097428835869357,0.00097428872479825,2.7341171880948e-09,-2.4188521653205e-09,-0.0010458988099204,0.0010458981934892,-0.0010459005499021,0.0010458964717902,-0.0010458960897988,0.0010459008925486,-0.0010458978178258,0.0010458991851425,-0.001041720860932,0.0010417275206954,-0.0010417288625723,0.0010417195362793,0.61574676603105,125803,2834,0.0055090268462416,0.0055090268466501,0.0040523852500511,39.481738553739,7.5853908429909e-05,7.5853908429909e-05,7.5853908429909e-05,2599586.7333321,0.015185029078495
10219200,0.86843947160966,0.014856241971663,0.0053360577596951,0.0053360577600725,0.0041841264518955,-0.0013377116728168,0.0013377114341846,4.0077930370855e-09,-4.2503358768624e-09,1.1456715699905e-09,-1.4220617421076e-09,-0.0013994568576523,0.0013994602254481,-0.0013994595919009,0.0013994574514651,-0.0013994576747348,0.0013994593498821,-0.0013994604071786,0.0013994565981894,-0.0012323704974439,0.0012323774648363,-0.00123237853672,0.0012323693677435,-1.1556896328868e-09,1.4106709542234e-09,-2.4427386612915e-09,2.6642564031652e-09,-0.0013377114446712,0.0013377116625222,-0.0013994596507914,0.0013994573532685,-0.0013994579882765,0.0013994590398748,-0.0013994588509877,0.0013994582012344,-0.0013994571750663,0.0013994598985292,-0.0012323759276896,0.0012323719740286,-0.0012323709365781,0.0012323770455156,-0.0013163334773647,0.0013163328501163,-0.0013163309765534,0.0013163354501151,-3.9775061449463e-09,4.3812783509832e-09,-0.00098137890765345,0.00098137928279068,2.7263171154203e-09,-2.4016971601726e-09,-0.0010542037937362,0.001054203103284,-0.0010542055238373,0.0010542013905829,-0.0010542009985055,0.0010542058766909,-0.00105420271965,0.0010542041767812,-0.0010496216328606,0.0010496285233183,-0.0010496298473086,0.0010496203249365,0.62007022414039,125803,2834,0.0055579403869656,0.0055579403873632,0.0040818398205848,38.776547692515,7.0212381540118e-05,7.0212381540118e-05,7.0212381540118e-05,2595560.989241,0.015314270642347
10419200,0.87736998351063,0.014984697086757,0.0053832903322921,0.0053832903326693,0.004218116421796,-0.0013483223275819,0.0013483220996677,4.1194184619466e-09,-4.3513160566343e-09,1.0533316840871e-09,-1.3181296042219e-09,-0.0014112163771151,0.0014112197617527,-0.0014112191826097,0.0014112169165527,-0.0014112171300003,0.001411218951503,-0.0014112199332573,0.0014112161289716,-0.0012414894284405,0.0012414966785555,-0.0012414976744291,0.0012414883742683,-1.068131745779e-09,1.3126967489895e-09,-2.4562306108819e-09,2.6683019690557e-09,-0.0013483221096321,0.0013483223178227,-0.0014112191559839,0.0014112169047623,-0.00141121748784,0.0014112185970944,-0.0014112184177801,0.0014112176906724,-0.0014112167355211,0.0014112193937954,-0.0012414950446378,0.001241491001789,-0.001241490035089,0.0012414960914281,-0.0013265407139878,0.0013265402630458,-0.0013265383936811,0.0013265426818246,-4.0872573079474e-09,4.4961629464848e-09,-0.00098774963641382,0.00098775001668768,2.7346417351218e-09,-2.4047927331353e-09,-0.0010616538604028,0.0010616531043323,-0.0010616555947811,0.0010616513877652,-0.0010616509907995,0.0010616559526034,-0.0010616527154482,0.0010616542489464,-0.0010567661627946,0.0010567732752591,-0.0010567745975232,0.0010567648556836,0.62506142175911,125803,2834,0.0056018947564055,0.0056018947568303,0.0041083043128564,38.101428090643,6.4811424725145e-05,6.4811424725145e-05,6.4811424725145e-05,2588660.0834443,0.015430418635101
10619200,0.88570579900064,0.015102382094762,0.0054266040117836,0.0054266040121598,0.0042491740708184,-0.0013591886104691,0.0013591884058799,4.2447477572815e-09,-4.4535545963171e-09,9.0327620423788e-10,-1.1431291563654e-09,-0.0014231797877106,0.0014231831630538,-0.0014231826688105,0.0014231802419962,-0.0014231804331689,0.001423182461403,-0.0014231833119873,0.0014231795632883,-0.0012509309318112,0.0012509385353468,-0.0012509394005799,0.0012509300081996,-9.1224380757787e-10,1.1307666159665e-09,-2.5480303890688e-09,2.735863752494e-09,-0.0013591884163477,0.0013591886001784,-0.0014231825451397,0.0014231803284549,-0.0014231808242891,0.0014231820739952,-0.0014231819178006,0.0014231810019446,-0.0014231801827402,0.0014231827584995,-0.0012509368703697,0.0012509325348615,-0.0012509317049325,0.0012509377814628,-0.001336979308524,0.0013369792187319,-0.0013369773194288,0.0013369813031786,-4.1963263574543e-09,4.5980537736135e-09,-0.00099466730978896,0.00099466768272818,2.8143366358502e-09,-2.4925403593043e-09,-0.0010696079049836,0.0010696071268407,-0.0010696096947123,0.0010696053541571,-0.0010696049647955,0.0010696100455538,-0.0010696067450969,0.0010696082862145,-0.0010643650662713,0.0010643723223339,-0.001064373707151,0.0010643636960307,0.61395111902581,125803,2834,0.0056469064725213,0.0056469064728877,0.0041370368093691,38.029739481126,6.4237915849005e-05,6.4237915849005e-05,6.4237915849005e-05,2586252.2483698,0.015551030781914
10819200,0.89348935423215,0.015210389284229,0.0054663888900086,0.0054663888903851,0.0042776115038355,-0.0013692362938776,0.0013692361100551,4.3638856583475e-09,-4.552109033429e-09,7.942141108335e-10,-1.0120293058465e-09,-0.0014342836769526,0.0014342870659919,-0.0014342866304177,0.0014342840722652,-0.0014342842434923,0.0014342864443674,-0.0014342871949707,0.0014342834735711,-0.0012596132162619,0.001259621133417,-0.0012596218983813,0.0012596123927124,-8.0395999810333e-10,1.0004620974257e-09,-2.6410477510789e-09,2.8083456317463e-09,-0.0013692361204869,0.0013692362836143,-0.001434286439839,0.001434284226719,-0.0014342846642761,0.0014342860276102,-0.0014342858908534,0.0014342848206105,-0.0014342841012536,0.0014342866323817,-0.0012596194414553,0.0012596148447504,-0.0012596141148283,0.0012596202541294,-0.0013465876477745,0.0013465878267638,-0.0013465858927361,0.0013465896749635,-4.3116913348048e-09,4.7034222263266e-09,-0.001001060204724,0.0010010605675228,2.8907574000865e-09,-2.5799102597487e-09,-0.0010769774384268,0.00107697663131,-0.0010769792826217,0.0010769748040035,-0.0010769744247879,0.0010769796237597,-0.0010769762596037,0.0010769778096432,-0.0010713391795641,0.0010713465867142,-0.0010713480355367,0.0010713377440231,0.60386753283631,125803,2834,0.0056885253582193,0.0056885253585681,0.0041635886164789,37.973811492892,6.3790491943135e-05,6.3790491943135e-05,6.3790491943135e-05,2589672.9951062,0.015662550348606
11019200,0.90075403826345,0.015309313164339,0.0055028601907795,0.0055028601911587,0.0043035927824012,-0.0013784858761224,0.0013784857083951,4.4806692749822e-09,-4.6529334740175e-09,7.3056727290659e-10,-9.3140182896053e-10,-0.001444546358232,0.0014445497881608,-0.0014445493841894,0.001444546721686,-0.0014445468775008,0.001444549214654,-0.0014445499016045,0.0014445461711596,-0.0012675586449607,0.001267566838803,-0.0012675675402042,0.0012675578848733,-7.4121721149945e-10,9.2092401748929e-10,-2.7240281614432e-09,2.8755342825945e-09,-0.0013784857187551,0.0013784858659448,-0.0014445491510527,0.0014445469193665,-0.0014445473260604,0.0014445487704709,-0.0014445486486858,0.0014445474657858,-0.0014445468096297,0.0014445493276605,-0.0012675651128685,0.0012675603062472,-0.0012675596398348,0.0012675658635723,-0.0013553926139372,0.0013553929668174,-0.0013553909984402,0.0013553946740038,-4.4275282929454e-09,4.8083170893311e-09,-0.0010069224938353,0.0010069228455367,2.9592410402598e-09,-2.6602850737118e-09,-0.0010837544604746,0.0010837536184996,-0.0010837563542254,0.0010837517415087,-0.001083751373422,0.0010837566845808,-0.0010837532577299,0.0010837548207682,-0.001077708733071,0.0010777162955353,-0.001077717804635,0.0010777072365915,0.59320719202188,125803,2834,0.0057268367595491,0.0057268367599265,0.0041879358231862,37.918527360417,6.3348218883338e-05,6.3348218883338e-05,6.3348218883338e-05,2596408.5154826,0.015765123321678
11219200,0.90752246274505,0.015401390382354,0.0055367902380821,0.005536790238462,0.0043278099058094,-0.0013870045026272,0.0013870043433272,4.5948049615683e-09,-4.7586973048874e-09,7.2044616856997e-10,-9.1252854758514e-10,-0.001454007832348,0.0014540113344143,-0.0014540109314328,0.0014540081945122,-0.0014540083422393,0.0014540107705974,-0.0014540114396655,0.0014540076537691,-0.0012748766005251,0.0012748850276104,-0.0012748857111043,0.0012748758582562,-7.3043429955707e-10,9.0124402675471e-10,-2.7864512610566e-09,2.9294544765608e-09,-0.0013870043537494,0.0013870044923844,-0.0014540106798331,0.001454008410971,-0.0014540088164996,0.0014540103009886,-0.0014540101871185,0.0014540089472218,-0.0014540083098354,0.001454010848022,-0.0012748832507665,0.0012748783116575,-0.0012748776643255,0.0012748839836916,-0.0013635171368302,0.0013635175498946,-0.0013635155511504,0.0013635192263495,-4.5417402939535e-09,4.9125006652415e-09,-0.001012303972556,0.0010123043141004,3.012321339263e-09,-2.724192635921e-09,-0.0010899617192355,0.0010899608333265,-0.0010899636518444,0.0010899589173218,-0.0010899585593418,0.0010899639722866,-0.0010899604826011,0.0010899620694886,-0.0010835886251564,0.0010835963522642,-0.0010835979102297,0.0010835870795504,0.59263235720239,125803,2834,0.0057621192890826,0.0057621192894539,0.0042102855470421,37.837788909168,6.2702311273347e-05,6.2702311273347e-05,6.2702311273347e-05,2602112.3184993,0.015859522459819
11419200,0.91378500096866,0.015487155127713,0.0055683624355385,0.0055683624359189,0.0043504302562553,-0.0013946396506134,0.0013946394898412,4.7007780708096e-09,-4.8660987432589e-09,7.6791958770136e-10,-9.6179700699694e-10,-0.0014625021349245,0.0014625057391725,-0.0014625053052174,0.0014625025276738,-0.0014625026768575,0.0014625051425835,-0.0014625058453008,0.0014625019547643,-0.0012814224334842,0.0012814310355707,-0.0012814317524458,0.0012814216574186,-7.8173407261951e-10,9.5468579690077e-10,-2.8141200881503e-09,2.9588863041684e-09,-0.0013946395001134,0.0013946396405233,-0.0014625050591764,0.0014625027384819,-0.0014625031771026,0.0014625046471677,-0.0014625045317113,0.0014625033092585,-0.0014625026356602,0.001462505229496,-0.0012814291807262,0.0012814242219991,-0.0012814235385057,0.0012814299508972,-0.0013708209287089,0.0013708212590064,-0.0013708192401639,0.0013708230400106,-4.6572060919559e-09,5.0218504367398e-09,-0.0010170480899226,0.0010170484252638,3.0350704277792e-09,-2.7535026399699e-09,-0.0010954494697592,0.0010954485203557,-0.0010954514196477,0.001095446586519,-0.0010954462349965,0.0010954517339056,-0.0010954481753463,0.001095449813901,-0.0010888357776231,0.0010888437012533,-0.0010888452829036,0.0010888342081164,0.59626237546772,125803,2834,0.0057937413338525,0.005793741334229,0.0042299889258513,37.631036513135,6.104829210508e-05,6.104829210508e-05,6.104829210508e-05,2603890.0166008,0.015943802564331
11619200,0.91957966997871,0.015566884726321,0.0055976900371817,0.0055976900375626,0.0043715046515763,-0.0014016755595464,0.0014016753928707,4.8089748919416e-09,-4.9801378335018e-09,8.3286757164386e-10,-1.0332122146643e-09,-0.00147031820796,0.0014703219256021,-0.0014703214522759,0.0014703186401862,-0.0014703187951158,0.0014703212839184,-0.0014703220377315,0.0014703180218686,-0.0012874817675831,0.0012874905365138,-0.0012874913045013,0.0012874809404046,-8.4435595474047e-10,1.0237113713668e-09,-2.8229683004572e-09,2.973485142842e-09,-0.0014016754031759,0.0014016755494214,-0.0014703212116887,0.0014703188451125,-0.0014703193219591,0.0014703207619326,-0.0014703206405704,0.0014703194600371,-0.0014703187369177,0.0014703213880001,-0.0012874885850296,0.001287483652659,-0.0012874829201309,0.0012874894043843,-0.0013775727115099,0.0013775729266187,-0.001377570893819,0.001377574836512,-4.7672326296138e-09,5.1277725069521e-09,-0.0010214140537854,0.0010214143849734,3.0460788884857e-09,-2.7688694889791e-09,-0.0011004969898761,0.0011004959729403,-0.0011004989485857,0.0011004940307229,-0.0011004936829335,0.0011004992586984,-0.0011004956323567,0.0011004973299542,-0.001093686753901,0.0010936948758418,-0.0010936964706581,0.0010936851722137,0.59873358478846,125803,2834,0.005822880506685,0.0058228805070576,0.0042481220246866,37.420986326845,5.9367890614757e-05,5.9367890614757e-05,5.9367890614757e-05,2602553.6536158,0.0160214475993
11819200,0.92494279413992,0.015641158016465,0.0056249873520394,0.0056249873524205,0.0043911833120051,-0.001408169739275,0.0014081695649405,4.914760543439e-09,-5.0934979902504e-09,8.9581123069946e-10,-1.1044267964607e-09,-0.001477516060831,0.0014775198885301,-0.0014775193782712,0.0014775165300455,-0.001477516692413,0.0014775192020709,-0.0014775200079861,0.0014775158670526,-0.001293102706075,0.001293111637678,-0.001293112457579,0.0012931018269217,-9.0717454996962e-10,1.0948312670546e-09,-2.8207985612206e-09,2.9789335751462e-09,-0.0014081695752292,0.0014081697291645,-0.0014775191383599,0.0014775167338395,-0.00147751724763,0.0014775186517202,-0.001477518522937,0.0014775173933544,-0.0014775166182688,0.00147751932263,-0.0012931095804651,0.001293104696855,-0.0012931039124852,0.0012931104519633,-0.0013838271904945,0.0013838272828613,-0.0013838252413922,0.0013838293249444,-4.8778528354315e-09,5.2361662117165e-09,-0.0010254440276283,0.0010254443565668,3.046646064986e-09,-2.7717636805672e-09,-0.0011051511287713,0.001105150037745,-0.0011051530887361,0.001105148094502,-0.0011051477487979,0.001105153396516,-0.0011051496993787,0.0011051514666374,-0.001098176650891,0.0010981849837279,-0.0010981865822582,0.0010981750661064,0.60218091588675,125803,2834,0.0058497752434599,0.0058497752438285,0.0042648598643793,37.210801415006,5.7686411320052e-05,5.7686411320052e-05,5.7686411320052e-05,2599227.1957284,0.016093118497167
12019200,0.92991529810446,0.015712141520504,0.0056510107421371,0.0056510107425184,0.0044101200358483,-0.001414303450885,0.0014143032697151,5.0197589525744e-09,-5.2052678286409e-09,9.4308228395417e-10,-1.1590285718257e-09,-0.001484267355694,0.0014842712828554,-0.0014842707455172,0.0014842678519869,-0.0014842680210766,0.0014842705623558,-0.0014842714088884,0.0014842671550566,-0.0012984947756412,0.0012985038786635,-0.001298504738976,0.0012984938558134,-9.5606599713418e-10,1.1513735447427e-09,-2.8114612798526e-09,2.9766598838559e-09,-0.0014143032798509,0.0014143034409256,-0.001484270494738,0.0014842680662682,-0.0014842686080215,0.0014842699802883,-0.001484269844646,0.001484268760918,-0.0014842679437601,0.0014842706863493,-0.0012985017092792,0.0012984968786136,-0.001298496052474,0.0012985026226374,-0.001389810773589,0.0013898107654928,-0.0013898087208125,0.0013898129118832,-4.9888260257316e-09,5.3465215059674e-09,-0.0010292981360301,0.0010292984643322,3.0395739208734e-09,-2.765310976089e-09,-0.0011095560980922,0.0011095549282932,-0.0011095580537572,0.0011095529895784,-0.0011095526444379,0.001109558360715,-0.0011095545905383,0.0011095564354344,-0.0011025083496142,0.0011025169030802,-0.00110251849776,0.0011025067692314,0.61929849586498,125803,2834,0.0058751766100169,0.0058751766103817,0.0042808672175807,37.028377654112,5.6227021232895e-05,5.6227021232895e-05,5.6227021232895e-05,2591325.7206649,0.016161015130949
12219200,0.93454350231779,0.01578036041539,0.0056759614577903,0.0056759614581726,0.0044284374994275,-0.0014202393584927,0.0014202391720307,5.1355020104681e-09,-5.326252974863e-09,9.6990538270339e-10,-1.1914921811435e-09,-0.0014907362417436,0.0014907402610354,-0.0014907397095311,0.0014907367521501,-0.0014907369256617,0.0014907395216773,-0.0014907403928162,0.0014907360349973,-0.0013038007305627,0.0013038100430987,-0.0013038109277532,0.0013037997859752,-9.6878524580515e-10,1.1675425735784e-09,-2.7954129328453e-09,2.9638294278322e-09,-0.0014202391831957,0.0014202393475088,-0.0014907394257156,0.0014907369993594,-0.001490737547686,0.0014907389045334,-0.001490738765114,0.0014907377045686,-0.001490736874347,0.0014907396198432,-0.0013038077472731,0.001303802960085,-0.0013038021206832,0.0013038086734014,-0.0013956771949495,0.0013956771543855,-0.0013956751160231,0.0013956793268575,-5.0895246793435e-09,5.4472167107392e-09,-0.0010330925369673,0.001033092865269,3.0334458303654e-09,-2.759146678599e-09,-0.0011138541289968,0.0011138528868684,-0.0011138560797319,0.0011138509530546,-0.0011138506071992,0.0011138563873484,-0.0011138525497368,0.0011138544655839,-0.0011068044236964,0.0011068131759746,-0.0011068147666789,0.001106802847747,0.63789980291747,125803,2834,0.0058997581399075,0.0058997581402818,0.0042966270097159,36.914562899124,5.5316503192994e-05,5.5316503192994e-05,5.5316503192994e-05,2577332.6512648,0.016226996746128
12419200,0.93885177123465,0.015841830838499,0.0056984951260801,0.0056984951264627,0.0044448405859559,-0.0014256995795137,0.0014256993913153,5.2373751066091e-09,-5.4298428892034e-09,9.7078695400728e-10,-1.1941803226697e-09,-0.0014967048124999,0.0014967089008475,-0.0014967083495841,0.0014967053227134,-0.0014967054984482,0.0014967081594637,-0.0014967090338358,0.001496704604573,-0.0013086154084812,0.0013086249175782,-0.0013086258053501,0.0013086144609765,-9.804372792553e-10,1.1824199662377e-09,-2.7813840859362e-09,2.9528191525727e-09,-0.0014256994018213,0.0014256995691863,-0.0014967080292322,0.0014967056063853,-0.0014967061601121,0.0014967075025948,-0.0014967073607666,0.001496706319598,-0.0014967054778605,0.0014967082269612,-0.0013086225062071,0.0013086177534888,-0.0013086169026128,0.0013086234440376,-0.0014010117628858,0.0014010116895236,-0.0014010096564792,0.0014010138899008,-5.2049434828991e-09,5.5643625449556e-09,-0.0010365303474293,0.001036530677474,3.0157494492774e-09,-2.7395364105128e-09,-0.0011178123733954,0.0011178110440576,-0.0011178143124519,0.0011178091220367,-0.0011178087749629,0.0011178146212361,-0.0011178107047059,0.0011178127122753,-0.0011106584811545,0.0011106674767461,-0.001110669053578,0.001110656919426,0.61826605643969,125803,2834,0.0059223685576481,0.0059223685580177,0.0043109070872664,36.802547460466,5.4420379683726e-05,5.4420379683726e-05,5.4420379683726e-05,2565560.5603876,0.016287473187318
12619200,0.94286242453387,0.015896044652429,0.0057184429269165,0.0057184429272994,0.0044591587982129,-0.0014306056778975,0.0014306054884969,5.3459106405701e-09,-5.5395741127546e-09,9.6913720164138e-10,-1.1937641484423e-09,-0.0015021302173496,0.0015021343767702,-0.0015021338273739,0.0015021307257397,-0.0015021309026812,0.0015021336360226,-0.0015021345109339,0.0015021300082588,-0.0013128384743311,0.0013128481965733,-0.0013128490848914,0.0013128375262318,-9.7907700445782e-10,1.18237027331e-09,-2.7630486631501e-09,2.9357468937325e-09,-0.0014306054989692,0.0014306056676072,-0.0015021334628588,0.0015021310536025,-0.0015021316054773,0.0015021329379377,-0.0015021327949463,0.0015021317662815,-0.0015021309237294,0.001502133661819,-0.0013128456610351,0.0013128409436054,-0.0013128400919261,0.0013128465994405,-0.0014057107547412,0.0014057106721661,-0.0014057086496692,0.0014057128712675,-5.3136758642451e-09,5.6753044082284e-09,-0.0010395858252532,0.0010395861575235,2.9990951216439e-09,-2.7204721753579e-09,-0.0011213649580685,0.0011213635458196,-0.0011213668852603,0.0011213616356918,-0.001121361286427,0.0011213671962229,-0.0011213632042614,0.0011213652991654,-0.0011140176606105,0.0011140268852867,-0.0011140284478613,0.0011140161129378,0.58731201344459,125803,2834,0.0059426838839464,0.0059426838843229,0.0043235982612664,36.690605514664,5.3524844117313e-05,5.3524844117313e-05,5.3524844117313e-05,2564315.4670372,0.0163416740001
12819200,0.94656256149081,0.01594644641589,0.005736969929297,0.0057369699296799,0.0044725065569133,-0.0014347434761253,0.0014347432810533,5.4823874170041e-09,-5.6816812648315e-09,9.9726023791369e-10,-1.2278945491938e-09,-0.0015067578379526,0.0015067621005408,-0.0015067615370766,0.00150675836024,-0.0015067585397001,0.0015067613423487,-0.0015067622424541,0.0015067576200357,-0.0013163521192757,0.0013163620979826,-0.0013163630107662,0.0013163511450355,-9.6222030447725e-10,1.1641007306778e-09,-2.7163388882377e-09,2.8877459833075e-09,-0.0014347432950064,0.0014347434623534,-0.0015067611162667,0.0015067587445705,-0.0015067592866545,0.0015067606001608,-0.0015067604560183,0.0015067594489996,-0.0015067586183434,0.0015067613108844,-0.0013163593896708,0.0013163547619867,-0.0013163539206499,0.001316360315075,-0.0014096757642927,0.001409675692582,-0.0014096737020126,0.0014096778467001,-5.3914998671739e-09,5.7569577825974e-09,-0.0010420803863793,0.0010420807225069,2.9808849452133e-09,-2.698164283493e-09,-0.0011242614417583,0.0011242599623837,-0.0011242633517771,0.001124258068396,-0.0011242577128879,0.0011242636694227,-0.0011242596192525,0.0011242617835457,-0.0011167930913769,0.001116802480033,-0.001116804025689,0.0011167915610885,0.59134552655929,125803,2834,0.0059598177983154,0.0059598177986901,0.0043339591088559,36.407538592999,5.1260308743991e-05,5.1260308743991e-05,5.1260308743991e-05,2568021.9008306,0.016387040743932
13019200,0.94993353867357,0.015992509783126,0.0057538923082889,0.0057538923086718,0.0044847251661657,-0.0014379871280212,0.001437986923841,5.6216524546705e-09,-5.8298929995942e-09,1.0479924326094e-09,-1.2879259122769e-09,-0.0015104416892066,0.0015104460698615,-0.0015104454823514,0.0015104422379097,-0.0015104424247015,0.0015104452797904,-0.0015104462240361,0.0015104414599065,-0.0013190483630604,0.0013190585801285,-0.0013190595380841,0.0013190473351786,-9.4941509543231e-10,1.1563958588885e-09,-2.6463875471503e-09,2.8213488806107e-09,-0.0014379869410127,0.0014379871113162,-0.001510445002089,0.0015104426788432,-0.0015104432170961,0.0015104444940293,-0.0015104443465584,0.0015104433821325,-0.0015104425534908,0.0015104451951218,-0.001319055689719,0.0013190511937861,-0.0013190503514165,0.0013190566006579,-0.0014127739679692,0.0014127738850668,-0.0014127719279327,0.0014127760054926,-5.463496110725e-09,5.8355884880127e-09,-0.0010438394314016,0.0010438397742653,2.9493820706615e-09,-2.6598414215555e-09,-0.0011263794330039,0.001126377884401,-0.0011263813177726,0.0011263760163975,-0.0011263756511943,0.0011263816440073,-0.0011263775359987,0.001126379780015,-0.0011188041455893,0.0011188137010909,-0.0011188152264834,0.0011188026479471,0.59302695687878,125803,2834,0.0059732484714884,0.0059732484724527,0.0043412673610825,35.875410278622,4.7003282228976e-05,4.7003282228976e-05,4.7003282228976e-05,2568834.2452373,0.016421777801807
13219200,0.95300809762019,0.016034689043825,0.0057693779394124,0.0057693779397878,0.0044959331646249,-0.0014408449184316,0.0014408447200558,5.6690398760173e-09,-5.8716212520012e-09,1.0002128984766e-09,-1.2342482267992e-09,-0.0015136915426769,0.0015136959375305,-0.0015136953724661,0.0015136920678178,-0.0015136922535121,0.0015136951716106,-0.0015136960805468,0.0015136913248014,-0.0013214211061766,0.0013214314366619,-0.0013214323578322,0.0013214201235429,-1.0090717124342e-09,1.2203003525377e-09,-2.6297488934428e-09,2.8098828153727e-09,-0.0014408447313559,0.0014408449073412,-0.0015136948698503,0.0015136925328443,-0.0015136930988406,0.0015136943309391,-0.0015136941817253,0.0015136932670437,-0.0015136923954314,0.0015136950755123,-0.0013214284568864,0.0013214240217201,-0.0013214231388141,0.0013214294215416,-0.0014155122730257,0.0014155120457882,-0.001415510099441,0.001415514309475,-5.6328960690999e-09,6.0145342221081e-09,-0.0010453479350341,0.001045348287505,2.880870131213e-09,-2.5806543419725e-09,-0.001128209329917,0.0011282076348584,-0.0011282111726,0.0011282058100161,-0.0011282054409432,0.0011282115031171,-0.0011282072729262,0.0011282096912369,-0.0011205509619073,0.0011205609372195,-0.0011205623970832,0.0011205495214094,0.59512402540612,125803,2834,0.0059850811932671,0.0059850811937003,0.0043475353986408,35.336727009183,4.2693816073462e-05,4.2693816073462e-05,4.2693816073462e-05,2567751.6127057,0.016452209407905
13419200,0.95581642890601,0.016072601999784,0.0057833091306254,0.0057833091309999,0.0045059837381586,-0.0014433371375108,0.0014433369377897,5.7887472204519e-09,-5.9926424785917e-09,1.0017770518105e-09,-1.2371775624276e-09,-0.0015165454319432,0.0015165499065332,-0.0015165493413917,0.0015165459570579,-0.001516546142797,0.0015165491404346,-0.0015165500520276,0.0015165452114355,-0.0013234609923662,0.0013234715595346,-0.0013234724837361,0.0013234600065149,-9.9535439201833e-10,1.2051947225881e-09,-2.5898288468756e-09,2.7685959482354e-09,-0.0014433369504115,0.0014433371250927,-0.001516548782075,0.0015165464792485,-0.001516547036629,0.0015165482509238,-0.0015165481019594,0.0015165472051034,-0.0015165463440115,0.0015165489849705,-0.0013234684254708,0.0013234640624723,-0.0013234631904007,0.0013234693783328,-0.0014178814747782,0.0014178812511371,-0.0014178793340019,0.0014178834822821,-5.727954146321e-09,6.1159073227e-09,-0.0010466105755833,0.0010466109344275,2.8533054646072e-09,-2.5463300866441e-09,-0.00112977345194,0.0011297716748171,-0.0011297752721987,0.0011297698720191,-0.0011297694953206,0.0011297756103567,-0.0011297713078998,0.0011297738181409,-0.0011220175192783,0.0011220277091064,-0.0011220291404047,0.001122016105049,0.58608286405386,125803,2834,0.0059953998836298,0.005995399884051,0.0043527826688685,34.797776074512,3.8382208596096e-05,3.8382208596096e-05,3.8382208596096e-05,2566625.173617,0.016478526153049
13619200,0.95839901481008,0.016107020466472,0.0057959634117588,0.005795963412133,0.0045150936425805,-0.0014456960666462,0.0014456958670252,5.9281383729714e-09,-6.1320674143732e-09,9.9462690447787e-10,-1.2299381378812e-09,-0.0015192435347159,0.0015192480916113,-0.0015192475316913,0.0015192440539949,-0.0015192442353581,0.001519247334181,-0.0015192482402109,0.0015192433102996,-0.0013253942783135,0.001325405137858,-0.0013254060566736,0.0013253932987844,-9.4372619493019e-10,1.1438659393145e-09,-2.5678027392043e-09,2.7373697918183e-09,-0.0014456958838525,0.0014456960498595,-0.0015192469053075,0.0015192446443959,-0.0015192451721344,0.0015192464016727,-0.0015192462567438,0.0015192453362533,-0.0015192445204729,0.0015192470962897,-0.0013254018477198,0.0013253975035435,-0.0013253966766254,0.0013254027544022,-0.0014201191161792,0.0014201189914077,-0.0014201170977115,0.0014201210928484,-5.806124333985e-09,6.1968638849444e-09,-0.0010478545077159,0.0010478548692555,2.8549428330223e-09,-2.5450504692107e-09,-0.0011312875424508,0.0011312857094221,-0.0011312893574452,0.001131283909612,-0.0011312835270374,0.0011312897022242,-0.0011312853432335,0.0011312879070081,-0.001123441947573,0.0011234522829174,-0.0011234537118241,0.0011234405360476,0.57889841924391,125803,2834,0.0060051668148901,0.0060051668149736,0.0043579511562334,34.356862383878,3.4854899071021e-05,3.4854899071021e-05,3.4854899071021e-05,2567636.556576,0.016503641392774
13819200,0.96078823750709,0.016138839761379,0.0058076580678486,0.0058076580682281,0.0045235236253021,-0.001447969047422,0.0014479688592147,5.9947495955148e-09,-6.1872414509619e-09,9.1667723090454e-10,-1.139666489971e-09,-0.0015218304937659,0.0015218350573996,-0.0015218345408292,0.0015218309705045,-0.0015218311485123,0.0015218343480285,-0.0015218351884194,0.0015218302884011,-0.0013272748538077,0.0013272858741868,-0.0013272867276763,0.0013272739402117,-9.3608307353995e-10,1.1372386572166e-09,-2.5958996920453e-09,2.7663837388169e-09,-0.0014479688701795,0.0014479690366611,-0.0015218338702156,0.0015218316044714,-0.0015218321271341,0.0015218333738626,-0.0015218332361076,0.0015218322838759,-0.0015218314735427,0.0015218340682073,-0.0013272825461857,0.001327278117753,-0.001327277297262,0.0013272834489944,-0.0014222843341321,0.0014222842181081,-0.0014222823074055,0.0014222863352418,-5.9633598307181e-09,6.3556584806432e-09,-0.0010491104154678,0.0010491107786646,2.8420435490425e-09,-2.5304996184488e-09,-0.0011327821212087,0.001132780185893,-0.0011327839363492,0.0011327783880814,-0.0011327780107303,0.0011327842754287,-0.0011327798111211,0.0011327824952693,-0.0011248693112554,0.0011248799895986,-0.0011248814091219,0.0011248679101467,0.57842146487413,125803,2834,0.0060145780517369,0.0060145780521586,0.0043631684149986,34.004412383506,3.2035299068045e-05,3.2035299068045e-05,3.2035299068045e-05,2569456.3624756,0.016528083174016
14019200,0.9630008830527,0.016168300718244,0.0058184823238901,0.0058184823242712,0.0045313360700829,-0.0014500245551633,0.0014500243709889,6.1193122384469e-09,-6.3077969787204e-09,8.8967448123177e-10,-1.1083872212959e-09,-0.001524174484741,0.0015241791125984,-0.0015241786115155,0.0015241749457623,-0.001524175118099,0.0015241784248692,-0.0015241792417423,0.0015241742816671,-0.0013289717787056,0.001328983069301,-0.0013289838989675,0.0013289708884055,-8.8960397420924e-10,1.082932658815e-09,-2.6093101236715e-09,2.7727689034236e-09,-0.0014500243835132,0.0014500245428245,-0.0015241778848109,0.0015241756366072,-0.0015241761330148,0.0015241774142337,-0.0015241772813371,0.0015241762843712,-0.0015241755144233,0.0015241780736448,-0.001328979632806,0.0013289751510725,-0.0013289743703247,0.0013289804949192,-0.0014242438834346,0.0014242438715267,-0.0014242419620255,0.0014242458821078,-6.0602652295398e-09,6.4511331654865e-09,-0.0010502307970208,0.0010502311587642,2.8625711060831e-09,-2.552646878311e-09,-0.0011341201409642,0.0011341181510956,-0.001134121967792,0.001134116341405,-0.0011341159634503,0.0011341223075685,-0.0011341177799013,0.0011341205114085,-0.0011261537154379,0.0011261645602987,-0.0011261659933969,0.0011261522979273,0.57820995465534,125803,2834,0.0060230887067045,0.0060230887070879,0.0043678228831241,33.654299839905,2.9234398719244e-05,2.9234398719244e-05,2.9234398719244e-05,2570440.7522079,0.016550122057566
14219200,0.96505187423809,0.01619462446324,0.0058281767967096,0.0058281767970908,0.0045382708694399,-0.0014518342610586,0.0014518340819867,6.2331871051185e-09,-6.4166292826153e-09,8.5875815282203e-10,-1.0720078930712e-09,-0.0015262613486326,0.001526266032133,-0.001526265548472,0.0015262617922192,-0.0015262619588366,0.0015262653679606,-0.0015262661572267,0.0015262611499033,-0.0013304340235922,0.0013304455625602,-0.0013304463646057,0.0013304331608633,-8.5682400473245e-10,1.0445054556247e-09,-2.6294020731073e-09,2.7876305668659e-09,-0.0014518340946034,0.00145183424864,-0.0015262647738191,0.0015262625312029,-0.0015262630095398,0.0015262643215402,-0.0015262641927696,0.0015262631563234,-0.0015262624149797,0.0015262649564586,-0.0013304420318124,0.0013304374899796,-0.0013304367378787,0.0013304428656045,-0.001425938250243,0.001425938317492,-0.0014259364012782,0.0014259402548242,-6.1688303527806e-09,6.5578368015284e-09,-0.0010511781929336,0.00105117855278,2.8804155203125e-09,-2.5725476576518e-09,-0.0011352822627647,0.001135280210834,-0.0011352841012906,0.0011352783893772,-0.0011352780125679,0.0011352844400393,-0.0011352798423333,0.0011352826305299,-0.0011272278573593,0.0011272388958336,-0.0011272403434392,0.0011272264253822,0.55856304476767,125803,2834,0.006030581384967,0.0060305813853763,0.0043717591241106,33.304282665336,2.6434261322685e-05,2.6434261322685e-05,2.6434261322685e-05,2572382.3680879,0.016569361787695
14419200,0.96692320241959,0.016218891164665,0.0058371026890728,0.005837102689453,0.0045446857861396,-0.0014528143131504,0.0014528141306471,6.3517426554454e-09,-6.5386946574254e-09,8.8048776817366e-10,-1.0973431359204e-09,-0.0015274992712266,0.0015275040445835,-0.0015275035493104,0.0015274997259476,-0.0015274998936782,0.0015275033655396,-0.0015275041727579,0.0015274990668049,-0.0013311017923156,0.0013311135521957,-0.0013311143728493,0.0013311009101071,-8.6336115808573e-10,1.0501818916867e-09,-2.6234453735149e-09,2.7805754602787e-09,-0.0014528141453349,0.0014528142986088,-0.0015275027421735,0.0015275004970101,-0.0015275009802703,0.0015275022838008,-0.0015275021546644,0.0015275011277675,-0.0015275003823469,0.0015275029230499,-0.0013311099004841,0.0013311053799182,-0.0013311046230894,0.0013311107384575,-0.0014268240749317,0.0014268241312079,-0.0014268222191498,0.0014268260758984,-6.2672876908873e-09,6.6565614764985e-09,-0.0010514229043484,0.0010514232644409,2.883667435726e-09,-2.5755772759125e-09,-0.0011356827380318,0.0011356806204561,-0.0011356845752799,0.0011356787962316,-0.0011356784191587,0.0011356849162402,-0.0011356802517859,0.001135683103839,-0.0011275790875151,0.0011275903115196,-0.0011275917613013,0.0011275776534211,0.56383116833123,125803,2834,0.0060346387534769,0.0060346387537782,0.0043727781021266,32.649352362346,2.1194818898766e-05,2.1194818898766e-05,2.1194818898766e-05,2576185.7729428,0.016578650835118
14619200,0.96861757744235,0.016240974705318,0.0058452190736998,0.0058452190740827,0.0045505365575358,-0.001453263750649,0.0014532635651904,6.4421965664346e-09,-6.6320085822784e-09,9.0136991976768e-10,-1.1215310815835e-09,-0.0015281716243031,0.0015281764743693,-0.0015281759661653,0.001528172092379,-0.0015281722655095,0.0015281757783001,-0.0015281766047288,0.0015281714197379,-0.0013312877827335,0.0013312996984137,-0.0013313005374704,0.0013312868838455,-9.0984317632727e-10,1.1053650135711e-09,-2.6180051181417e-09,2.7831691805258e-09,-0.001453263577367,0.0014532637386524,-0.0015281751448072,0.0015281728779904,-0.0015281733860126,0.0015281746621218,-0.001528174526904,0.0015281735398044,-0.0015281727538547,0.0015281753357524,-0.0013312959497662,0.0013312914660596,-0.0013312906696991,0.0013312968290022,-0.0014271958643225,0.0014271958193957,-0.0014271939009647,0.0014271978714184,-6.3933456669113e-09,6.7844460565947e-09,-0.0010512246982778,0.0010512250602053,2.8680477263055e-09,-2.557891745992e-09,-0.0011356180846198,0.0011356158762306,-0.0011356199149071,0.001135614062819,-0.0011356136848415,0.0011356202549294,-0.0011356155049085,0.0011356184551712,-0.0011274683467383,0.0011274798401476,-0.0011274812762606,0.0011274669263943,0.56645232141104,125803,2834,0.0060364987250087,0.0060364987253813,0.0043719592064721,31.825416059516,1.4603328476131e-05,1.4603328476131e-05,1.4603328476131e-05,2575784.3378609,0.016581603389791
14819200,0.97015442824981,0.016261128973693,0.0058526198352474,0.0058526198356318,0.0045558893028134,-0.0014535209332869,0.0014535207438938,6.5468887911002e-09,-6.7405497081863e-09,9.2818298929387e-10,-1.1525669532237e-09,-0.0015286223091279,0.0015286272470757,-0.0015286267236744,0.0015286227922858,-0.0015286229705607,0.0015286265305689,-0.0015286273798842,0.0015286221017003,-0.0013313183386422,0.00133133043629,-0.0013313312985726,0.0013313174159877,-9.3859748060889e-10,1.1389129945508e-09,-2.6128804326841e-09,2.7826439086019e-09,-0.0014535207558185,0.0014535209215568,-0.0015286258800304,0.0015286235999545,-0.0015286241244905,0.0015286253807769,-0.0015286252428333,0.0015286242814586,-0.0015286234703787,0.0015286260765112,-0.0013313265835484,0.001331322127087,-0.0013313213053121,0.0013313274874998,-0.0014273896249439,0.0014273895174681,-0.0014273875977165,0.0014273916361382,-6.5051662093375e-09,6.8968970644113e-09,-0.0010509055016728,0.0010509058642375,2.8640877369717e-09,-2.5532365043535e-09,-0.0011354157805554,0.0011354134964251,-0.0011354176090389,0.0011354116845167,-0.0011354113071047,0.0011354179485027,-0.001135413123171,0.0011354161528363,-0.0011272288885116,0.0011272406080257,-0.0011272420404455,0.0011272274717282,0.56961683701799,125803,2834,0.0060375626002012,0.0060375626006036,0.0043706381268074,30.996977083898,7.9758166711806e-06,7.9758166711806e-06,7.9758166711806e-06,2573248.3866851,0.016582426360697
15019200,0.97152974997752,0.016279095416378,0.0058592164944638,0.0058592164948485,0.0045606624270661,-0.0014530506248545,0.0014530504282114,6.6573113374731e-09,-6.8581529004306e-09,9.7388060461603e-10,-1.2060269367049e-09,-0.0015283235201748,0.0015283285582807,-0.0015283280096604,0.0015283240287477,-0.0015283242130855,0.0015283278099782,-0.0015283286990779,0.0015283233045549,-0.0013306519193885,0.0013306642034325,-0.0013306651056271,0.0013306509566455,-9.7778037118672e-10,1.1853092118489e-09,-2.5899707654914e-09,2.7663683516178e-09,-0.0014530504404555,0.0014530506128127,-0.0015283271462679,0.0015283248558476,-0.001528325402567,0.0015283266246207,-0.0015283264795896,0.0015283255670411,-0.0015283247208366,0.0015283273483649,-0.0013306602195845,0.0013306558395678,-0.0013306549822738,0.0013306611580353,-0.0014268591962182,0.0014268590015301,-0.0014268570879986,0.0014268612012289,-6.6090734011985e-09,7.0026501607856e-09,-0.0010499601025937,0.001049960467035,2.8491328122755e-09,-2.536219633528e-09,-0.0011345677289036,0.001134565364746,-0.0011345695456844,0.0011345635644714,-0.001134563184176,0.0011345698877897,-0.0011345649904655,0.0011345681021681,-0.0011263375903319,0.0011263495243174,-0.0011263509444785,0.0011263361866672,0.56737758236302,125803,2834,0.0060356137955391,0.0060356137959574,0.0043667184630842,29.894610082919,-8.4311933664888e-07,-8.4311933664888e-07,-8.4311933664888e-07,2567807.8418745,0.016574482115742
15219200,0.97274229617853,0.016294243923774,0.0058647937919327,0.0058647937923174,0.0045646563395237,-0.0014517570814881,0.0014517568792682,6.7366592788009e-09,-6.9431765700159e-09,1.0027868886077e-09,-1.2409500498866e-09,-0.0015271897254715,0.0015271948383637,-0.0015271942732715,0.0015271902500193,-0.0015271904420839,0.0015271940637954,-0.0015271949801423,0.0015271895070208,-0.0013291773782222,0.0013291897862364,-0.0013291907175778,0.0013291763883578,-1.0523262224504e-09,1.2698570273871e-09,-2.5657821324541e-09,2.7510232984244e-09,-0.0014517568893865,0.0014517570714023,-0.0015271934011587,0.0015271910854968,-0.0015271916733161,0.0015271928366041,-0.0015271926851573,0.0015271918450981,-0.0015271909371307,0.0015271936173329,-0.0013291856949702,0.0013291814050402,-0.0013291804875996,0.0013291866949425,-0.0014254921251626,0.0014254917633657,-0.0014254898518947,0.0014254941285835,-6.7432067380197e-09,7.1416803082747e-09,-0.0010483076135874,0.0010483079828852,2.8078857194268e-09,-2.4894667237357e-09,-0.0011329891110151,0.0011329866352101,-0.001132990900391,0.0011329848587884,-0.001132984477937,0.0011329912444123,-0.0011329862523283,0.0011329894915704,-0.0011246970324778,0.0011247092769319,-0.0011247106629267,0.0011246956627079,0.54391178949846,125803,2834,0.0060302558930998,0.0060302558931661,0.0043598641087482,28.489622602304,-1.2083019181565e-05,-1.2083019181565e-05,-1.2083019181565e-05,2561362.203983,0.016556623465501
15419200,0.97381356282379,0.016309499860517,0.0058703550110166,0.005870355011404,0.0045687898380967,-0.0014503212405872,0.0014503210315733,6.8686285311132e-09,-7.0817584250236e-09,1.0459686973743e-09,-1.291409178042e-09,-0.0015258746957053,0.0015258799185911,-0.0015258793301769,0.0015258752440711,-0.0015258754401514,0.00152587911775,-0.0015258800712518,0.001525874467633,-0.0013276242195779,0.001327636865563,-0.0013276378322565,0.0013276231934596,-1.0524838075774e-09,1.2737471148655e-09,-2.5330523689233e-09,2.7219380994389e-09,-0.0014503210436278,0.0014503212287748,-0.0015258784180248,0.001525876119831,-0.0015258767073336,0.0015258778544747,-0.00152587769721,0.0015258768852367,-0.0015258759720262,0.001525878633162,-0.0013276326179468,0.0013276284042346,-0.001327627480295,0.001327633623398,-0.0014240532794845,0.0014240529034701,-0.001424051012297,0.0014240552653388,-6.8263357796935e-09,7.2256061414569e-09,-0.0010466234152703,0.0010466237854802,2.8006067874733e-09,-2.4812530903946e-09,-0.0011312957494593,0.0011312932093683,-0.0011312975315243,0.0011312914431368,-0.0011312910572296,0.0011312978787973,-0.0011312928293027,0.001131296128664,-0.0011230643251629,0.0011230767297054,-0.0011230781082518,0.0011230629633213,0.61487578428428,125803,2834,0.0060243095170795,0.0060243095175804,0.0043528764634901,27.07669851754,-2.3386411859683e-05,-2.3386411859683e-05,-2.3386411859683e-05,2555366.3397563,0.016537431388568
15619200,0.97477917025961,0.016323539369217,0.0058754649912682,0.0058754649916567,0.004572609386292,-0.001449467155382,0.0014494669520548,6.9825544600484e-09,-7.1900423135545e-09,1.0069336046931e-09,-1.246292054692e-09,-0.0015250840448615,0.0015250893182716,-0.0015250887522444,0.0015250845706596,-0.001525084760365,0.0015250885465102,-0.0015250894663103,0.0015250838216146,-0.0013267106129396,0.0013267235128424,-0.0013267244443458,0.0013267096201036,-1.0147711707314e-09,1.2297774914563e-09,-2.5554561046938e-09,2.7387171224505e-09,-0.0014494669641158,0.0014494671435633,-0.0015250877889087,0.0015250854980146,-0.0015250860642148,0.0015250872465961,-0.0015250870937517,0.0015250862372494,-0.0015250853565853,0.0015250879975124,-0.0013267191724411,0.0013267148896347,-0.001326713997977,0.0013267201444871,-0.0014232097245336,0.001423209438522,-0.0014232075399945,0.0014232117166762,-6.9351396291565e-09,7.3324615089812e-09,-0.0010454276839736,0.0010454280522214,2.8195046289348e-09,-2.5023640934689e-09,-0.0011301912973622,0.001130188695666,-0.0011301930918414,0.0011301869171489,-0.0011301865323397,0.0011301934382216,-0.0011301883184066,0.0011301916735958,-0.0011219361535818,0.0011219487510825,-0.0011219501454107,0.0011219347758787,0.62694794958708,125803,2834,0.0060207708963425,0.0060207708968435,0.0043479198629789,25.9670768361,-3.2263385311201e-05,-3.2263385311201e-05,-3.2263385311201e-05,2535369.2584912,0.016525199839245
15819200,0.97568729862289,0.016337695483621,0.0058805948843861,0.0058805948847755,0.004576505714459,-0.0014499396179054,0.001449939432755,7.100905563327e-09,-7.2903715382715e-09,8.9143865474924e-10,-1.1113552906234e-09,-0.0015255914809944,0.0015255967622124,-0.0015255962609527,0.0015255919418429,-0.0015255921140779,0.001525596074269,-0.0015255968932116,0.001525591276051,-0.0013271457774936,0.0013271589934463,-0.0013271598238701,0.0013271448860511,-9.0169422215458e-10,1.0979325430209e-09,-2.6463547029444e-09,2.8123193339094e-09,-0.0014499394444985,0.0014499396064311,-0.0015255952246846,0.0015255929429744,-0.0015255934456215,0.0015255947468744,-0.0015255946101963,0.001525593600779,-0.0015255928190001,0.001525595415522,-0.001327154623928,0.0013271500822749,-0.0013271492900501,0.0013271554987046,-0.0014237247072572,0.001423724699284,-0.001423722763833,0.0014237267356101,-7.0488359677523e-09,7.4381613985692e-09,-0.0010454891452298,0.0010454895053574,2.8963803011361e-09,-2.5882562684236e-09,-0.0011303675194195,0.0011303648908383,-0.0011303693681193,0.0011303630583901,-0.0011303626813675,0.001130369706739,-0.001130364521962,0.0011303678876379,-0.0011221178859659,0.001122130635481,-0.0011221320913921,0.0011221164458122,0.66919697815302,125803,2834,0.0060227258392316,0.0060227258397884,0.0043481805629532,25.549235520942,-3.5606115832467e-05,-3.5606115832467e-05,-3.5606115832467e-05,2517709.7770959,0.016529440157977
16019200,0.97654293868577,0.016351003419927,0.0058854200948671,0.005885420095257,0.0045801632298034,-0.0014504397805392,0.0014504396088881,7.2252702188368e-09,-7.401375294477e-09,8.0835060973787e-10,-1.0138219723758e-09,-0.0015261061110927,0.0015261114228271,-0.0015261109683443,0.0015261065251079,-0.0015261066834656,0.0015261107963954,-0.0015261115420085,0.0015261059188989,-0.0013276271590411,0.0013276406816301,-0.001327641438952,0.0013276263403113,-8.0387782626068e-10,9.8351186964938e-10,-2.7283446301159e-09,2.8788455931293e-09,-0.0014504396216754,0.0014504397680178,-0.0015261098681004,0.0015261075906967,-0.0015261080391758,0.001526109445421,-0.001526109322279,0.0015261081789506,-0.0015261074831499,0.0015261100424019,-0.0013276362726396,0.0013276315022271,-0.0013276307964208,0.0013276370614032,-0.001424257182978,0.0014242574203992,-0.0014242554502723,0.001424259243264,-7.1540362702821e-09,7.5356615053019e-09,-0.0010455210994323,0.0010455214517457,2.9716099242665e-09,-2.6721622759716e-09,-0.0011305815618815,0.0011305789099919,-0.0011305834625098,0.001130577025525,-0.0011305766551451,0.0011305837945142,-0.0011305785497428,0.0011305819215232,-0.0011222608314231,0.0011222737152892,-0.0011222752321352,0.0011222593305636,0.66742790600935,125803,2834,0.0060247946095806,0.0060247946101308,0.0043483209336311,25.149338848007,-3.8805289215942e-05,-3.8805289215942e-05,-3.8805289215942e-05,2495279.7407807,0.016533790226501
16219200,0.97734974974975,0.016363498393155,0.0058899530545668,0.0058899530549569,0.0045835922836312,-0.0014508641996924,0.0014508640382696,7.3316654054192e-09,-7.4976214531641e-09,7.4798389189966e-10,-9.425532284694e-10,-0.0015265433155594,0.0015265486630911,-0.0015265482418262,0.0015265436959794,-0.0015265438460662,0.0015265480786783,-0.0015265487705734,0.0015265431351401,-0.0013280300779262,0.0013280438478344,-0.0013280445514422,0.0013280293128874,-7.5328275308191e-10,9.2343476722178e-10,-2.7991186809533e-09,2.9407592820928e-09,-0.0014508640503973,0.0014508641878285,-0.0015265470976918,0.0015265448058566,-0.001526545226496,0.0015265467031113,-0.0015265465899341,0.001526545355427,-0.0015265447055519,0.0015265472648284,-0.0013280394049367,0.0013280344541956,-0.0013280337945279,0.001328040149007,-0.001424705222699,0.0014247055994562,-0.0014247035940056,0.0014247073179665,-7.2747468954136e-09,7.6503943562333e-09,-0.0010454940911303,0.0010454944373607,3.0301155648252e-09,-2.7374400964499e-09,-0.0011307321129304,0.0011307294195654,-0.0011307340561663,0.0011307274919181,-0.0011307271293301,0.0011307343807748,-0.0011307290635773,0.0011307324681528,-0.0011223347292674,0.0011223478010338,-0.0011223493648218,0.0011223331807666,0.66425603046716,125803,2834,0.0060265498006098,0.0060265498011556,0.0043482161068572,24.750166585551,-4.1998667315595e-05,-4.1998667315595e-05,-4.1998667315595e-05,2476528.0970851,0.016537253459722
16419200,0.97811384183178,0.016374127475486,0.0058938370402123,0.0058938370406029,0.0045864533946704,-0.0014512860543717,0.0014512858973685,7.4417976926593e-09,-7.6033624145562e-09,7.2591454327958e-10,-9.1580206911072e-10,-0.0015269937695048,0.0015269991774579,-0.0015269987679565,0.0015269941380687,-0.001526994284087,0.0015269986091204,-0.001526999280456,0.0015269935937195,-0.0013283994831808,0.0013284134844275,-0.0013284141675218,0.0013283987387068,-7.3264389582013e-10,8.9833977886093e-10,-2.8519666940177e-09,2.9894009912653e-09,-0.0014512859094,0.001451286042605,-0.0015269975930317,0.0015269952786994,-0.0015269956886631,0.0015269972097076,-0.0015269971005274,0.0015269958128715,-0.0015269951825383,0.0015269977563301,-0.0013284089853372,0.0013284039151331,-0.0013284032753182,0.0013284097105421,-0.0014251095877204,0.0014251100383108,-0.0014251080031402,0.0014251117120261,-7.3881886045117e-09,7.7591117658146e-09,-0.0010454831210555,0.0010454834624957,3.0769935866713e-09,-2.7896781940365e-09,-0.0011309040335379,0.0011309012946185,-0.0011309060099307,0.0011308993337684,-0.0011308989760345,0.0011309063297594,-0.0011309009430946,0.0011309043842742,-0.0011223851884265,0.0011223984405886,-0.0011224000419444,0.0011223836021669,0.59981696032899,125803,2834,0.0060282944504042,0.006028294450952,0.0043481770293436,24.412569588797,-4.4699443289622e-05,-4.4699443289622e-05,-4.4699443289622e-05,2463248.4072898,0.016540762687413
16619200,0.97884150780431,0.016386092137862,0.0058981624069385,0.0058981624073295,0.0045897673235936,-0.0014518111674312,0.0014518110088474,7.5694734956041e-09,-7.7326830920748e-09,7.4334182971147e-10,-9.3502382413459e-10,-0.0015275514625065,0.0015275569638118,-0.0015275565437607,0.0015275518410519,-0.0015275519863585,0.0015275563851708,-0.0015275570699816,0.0015275512829521,-0.0013288838539676,0.0013288981007462,-0.0013288987972232,0.0013288830963658,-7.1944067705175e-10,8.8038612832804e-10,-2.8834666595387e-09,3.0163252843753e-09,-0.0014518110237452,0.001451811152696,-0.0015275553404204,0.0015275530106032,-0.0015275534140388,0.0015275549627938,-0.0015275548551287,0.0015275535361397,-0.0015275529203142,0.0015275554980697,-0.0013288935108782,0.0013288883753202,-0.0013288877504568,0.0013288942217145,-0.0014256693485676,0.0014256698521636,-0.0014256678006281,0.0014256714857742,-7.4809590173254e-09,7.8473808003738e-09,-0.0010456840053021,0.0010456843421339,3.1206989897218e-09,-2.8384315654413e-09,-0.0011311691627913,0.0011311663869246,-0.0011311711671494,0.0011311643969087,-0.0011311640419239,0.0011311714845356,-0.0011311660417449,0.001131169506725,-0.0011226877258151,0.0011227011132327,-0.0011227027496003,0.0011226861044135,0.70235630213497,125803,2834,0.0060304683376114,0.006030468337948,0.0043490131735899,24.1585447725,-4.6731641820001e-05,-4.6731641820001e-05,-4.6731641820001e-05,2460549.8458346,0.016546032398158
16819200,0.97953488481743,0.016397548847291,0.0059023054652184,0.0059023054656101,0.0045929379164626,-0.001452433943732,0.0014524337838642,7.6618122337779e-09,-7.8262077830185e-09,7.5579863510579e-10,-9.4886612661469e-10,-0.0015281561401795,0.0015281617138113,-0.0015281612859006,0.0015281565268513,-0.0015281566753422,0.0015281611245358,-0.0015281618197806,0.001528155961097,-0.0013295180067355,0.0013295324192487,-0.0013295331259749,0.0013295172384346,-7.5901307114227e-10,9.2701061703545e-10,-2.9055937824497e-09,3.0450449223686e-09,-0.0014524337962954,0.0014524339315638,-0.0015281600725674,0.001528157705713,-0.001528158131831,0.0015281596733921,-0.0015281595616672,0.0015281582582546,-0.0015281576081501,0.0015281602379569,-0.0013295277572119,0.0013295226010321,-0.001329521941582,0.0013295285029618,-0.001426330005495,0.0014263304415693,-0.0014263283681277,0.0014263321684667,-7.6074787405985e-09,7.9730343752728e-09,-0.0010458435137384,0.0010458438497051,3.1306971401602e-09,-2.8494879405461e-09,-0.0011315241368882,0.001131521286011,-0.0011315261508342,0.0011315192875191,-0.0011315189347661,0.0011315264655588,-0.0011315209401876,0.0011315244819485,-0.001122951946976,0.0011229655785379,-0.0011229672233196,0.0011229503176109,0.70571570059931,125803,2834,0.0060330446977174,0.0060330446982615,0.0043496829942976,23.906693599409,-4.8746451204724e-05,-4.8746451204724e-05,-4.8746451204724e-05,2440791.9666254,0.016551952442333
17019200,0.98019588404527,0.016408260989875,0.0059061853295023,0.0059061853298944,0.0045958903304784,-0.0014529979000142,0.0014529977349513,7.7720846420315e-09,-7.9416354374887e-09,7.9202705341131e-10,-9.9068579652307e-10,-0.0015287031973002,0.0015287088665322,-0.0015287084179278,0.0015287036046574,-0.0015287037577143,0.0015287082517166,-0.0015287089778833,0.0015287030124865,-0.001330086634082,0.0013301012379466,-0.0013301019756569,0.0013300858346905,-7.8999254621116e-10,9.6271048574807e-10,-2.9105872617723e-09,3.0543768189289e-09,-0.0014529977477943,0.0014529978874404,-0.0015287071887852,0.001528704798968,-0.0015287052429722,0.0015287067718557,-0.0015287066555027,0.001528705374246,-0.001528704697676,0.0015287073582256,-0.0013300964734872,0.0013300913309053,-0.0013300906450771,0.0013300972456021,-0.0014269188919923,0.0014269192729417,-0.0014269171904915,0.0014269210644458,-7.7139634499144e-09,8.0788533379878e-09,-0.001045948157859,0.0010459484931435,3.1403960855663e-09,-2.8599741665575e-09,-0.0011318282524913,0.0011318253363546,-0.0011318302728234,0.0011318233316951,-0.0011318229791395,0.0011318305872305,-0.0011318249915908,0.0011318285964748,-0.0011231495815119,0.0011231634122385,-0.0011231650645189,0.0011231479450257,0.69245974300223,125803,2834,0.0060353774551438,0.0060353774557005,0.0043501248955745,23.654930108918,-5.0760559128655e-05,-5.0760559128655e-05,-5.0760559128655e-05,2423853.1454184,0.016557145634306
17219200,0.98081114505979,0.016417968621149,0.0059097081382517,0.005909708138644,0.0045985523442527,-0.001452671085535,0.001452670908666,7.870171360432e-09,-8.0514166563361e-09,8.691667868454e-10,-1.0805001739908e-09,-0.001528372181413,0.0015283779645613,-0.0015283774722074,0.0015283726324432,-0.0015283727975702,0.0015283772932226,-0.0015283780864359,0.0015283719853575,-0.0013297536183486,0.0013297683567244,-0.0013297691616425,0.0013297527523482,-8.7044599670759e-10,1.0563484901183e-09,-2.8642915734747e-09,3.0202664903106e-09,-0.001452670921269,0.0014526710732012,-0.0015283762386729,0.0015283738308311,-0.0015283743199861,0.0015283757758675,-0.0015283756487225,0.0015283744632201,-0.0015283737167711,0.0015283764211737,-0.0013297634517737,0.0013297584556542,-0.0013297577002921,0.0013297642940449,-0.0014265993342627,0.0014265995279053,-0.0014265974609855,0.0014266014946555,-7.8268104265592e-09,8.1960961007725e-09,-0.0010452473870398,0.0010452477267569,3.0993043923047e-09,-2.813958387081e-09,-0.0011312930236764,0.0011312900071357,-0.0011312950158358,0.001131288030628,-0.001131287674439,0.001131295333666,-0.0011312896573013,0.0011312933727693,-0.0011225070925116,0.0011225211842877,-0.0011225228030026,0.0011225054897959,0.67475985527155,125803,2834,0.0060340216774166,0.0060340216779734,0.0043472233842223,22.99600497569,-5.6031960194479e-05,-5.6031960194479e-05,-5.6031960194479e-05,2409482.0547094,0.016551440784221
17419200,0.98137267439214,0.016426455128051,0.0059127963015826,0.0059127963019751,0.0046008625244937,-0.0014515539277614,0.0014515537590485,7.8367525161782e-09,-8.00919097189e-09,8.2932588566347e-10,-1.0320154444601e-09,-0.0015272623195943,0.0015272680763529,-0.0015272676040407,0.0015272627539309,-0.0015272629290944,0.0015272674228558,-0.0015272681814741,0.0015272621494239,-0.001328619366098,0.0013286340216582,-0.0013286347860129,0.0013286185401445,-1.0985393190838e-09,1.3334498952881e-09,-2.8318697275858e-09,3.0350253325061e-09,-0.0014515537455791,0.0014515539422861,-0.001527266414997,0.0015272639058002,-0.0015272645208628,0.0015272658337443,-0.001527265679718,0.0015272646936174,-0.0015272637371116,0.0015272666541461,-0.0013286290674724,0.001328624257826,-0.0013286232883378,0.0013286301256552,-0.0014254743679175,0.0014254740503292,-0.0014254719556342,0.0014254765765861,-8.0774244795283e-09,8.4595403098504e-09,-0.0010438553840145,0.0010438557368667,2.9642586252518e-09,-2.6647181071606e-09,-0.0011300211262317,0.0011300178753542,-0.0011300230475798,0.0011300159872125,-0.001130015628233,0.001130023361505,-0.0011300175024578,0.0011300215070119,-0.0011211389915295,0.0011211537418147,-0.0011211552513273,0.0011211374964044,0.6474779639016,125803,2834,0.0060293934585119,0.0060293934606972,0.0043414519134662,21.993642507889,-6.4050859936888e-05,-6.4050859936888e-05,-6.4050859936888e-05,2397645.6794495,0.016536165198903
17619200,0.98188555567664,0.01643391159686,0.0059155157732402,0.0059155157736282,0.0046028800499914,-0.0014502970396465,0.0014502968344556,8.101278351625e-09,-8.3105767468791e-09,1.049642591904e-09,-1.2912492513982e-09,-0.0015260245239781,0.0015260305665512,-0.0015260299748065,0.0015260250753642,-0.0015260252639883,0.0015260297709961,-0.0015260307199036,0.0015260242954839,-0.0013273305203688,0.0013273455932322,-0.0013273465549596,0.0013273294970973,-1.0190164489823e-09,1.2318985696066e-09,-2.6930590558837e-09,2.8741563373718e-09,-0.0014502968486364,0.0014502970257828,-0.0015260287020895,0.001526026311209,-0.0015260268846764,0.0015260281548475,-0.0015260280005143,0.0015260270579792,-0.001526026176264,0.0015260289053682,-0.0013273402944294,0.001327335753792,-0.0013273348636001,0.001327341267918,-0.0014242012989166,0.0014242011042666,-0.0014241991184405,0.0014242033798152,-8.0128511937518e-09,8.395440447116e-09,-0.0010424016190121,0.0010424019722781,2.9673801397813e-09,-2.6669669905314e-09,-0.0011286389017967,0.0011286356709664,-0.0011286407977026,0.0011286337930463,-0.0011286334193305,0.0011286411321888,-0.0011286353116416,0.0011286392607095,-0.0011196930467698,0.0011197076108101,-0.0011197091230781,0.0011196915519016,0.62390231942043,125803,2834,0.0060241871795073,0.0060241871801628,0.0043354220805428,20.982302395347,-7.2141580837224e-05,-7.2141580837224e-05,-7.2141580837224e-05,2390952.3038855,0.016519451671509
17819200,0.98235519912139,0.016440504077505,0.0059179247735279,0.0059179247739161,0.0046046545300607,-0.0014489801713568,0.0014489799740852,8.0881751798002e-09,-8.2894965326299e-09,9.8975137906888e-10,-1.2229181570427e-09,-0.0015247386880169,0.0015247447059187,-0.0015247441465124,0.0015247392066518,-0.0015247394053244,0.0015247439324573,-0.0015247448335701,0.001524738485762,-0.0013259702336613,0.0013259852678298,-0.0013259861808972,0.0013259692606956,-1.14087540851e-09,1.3745296992505e-09,-2.6705935866014e-09,2.871141802063e-09,-0.0014489799745884,0.0014489801711887,-0.0015247428736174,0.0015247404433588,-0.0015247410822194,0.0015247422590537,-0.0015247421042234,0.0015247412573804,-0.0015247402717259,0.0015247431147975,-0.0013259799497818,0.0013259754866721,-0.0013259744915465,0.0013259810310809,-0.0014228619628188,0.0014228614634957,-0.0014228594699788,0.0014228640601996,-8.2432245677123e-09,8.6371069876632e-09,-0.0010409538567982,0.0010409542214485,2.8608684937475e-09,-2.547914313497e-09,-0.0011272247223283,0.0011272212917085,-0.0011272265610165,0.0011272194688514,-0.0011272191020124,0.0011272268889192,-0.0011272209035674,0.001127225110585,-0.0011182390548559,0.0011182542212015,-0.0011182556462137,0.00111823764333,0.60341626739376,125803,2834,0.0060187331640683,0.0060187331647609,0.0043294154816456,19.992551817585,-8.0059585459318e-05,-8.0059585459318e-05,-8.0059585459318e-05,2388500.4094483,0.016502258189922
18019200,0.98278622016239,0.01644654686319,0.0059201317857712,0.00592013178616,0.0046062832912582,-0.0014476199008608,0.0014476196917349,8.3068801533957e-09,-8.5200528611159e-09,1.0622155204567e-09,-1.3079666076356e-09,-0.0015234165803988,0.0015234227644932,-0.0015234221669336,0.0015234171372539,-0.0015234173276199,0.001523421960139,-0.0015234229226405,0.0015234163460924,-0.0013245622862634,0.0013245777572675,-0.0013245787319367,0.0013245612500661,-1.0605986134404e-09,1.2821940491274e-09,-2.5839228019034e-09,2.7731693191728e-09,-0.0014476197037882,0.0014476198891374,-0.0015234208068328,0.0015234184612379,-0.0015234190559268,0.001523420235763,-0.0015234200726248,0.0015234192395925,-0.0015234183193063,0.0015234210164119,-0.0013245721348585,0.0013245678447665,-0.0013245669144061,0.0013245731476468,-0.0014214805308135,0.0014214801897438,-0.0014214782666008,0.0014214825527316,-8.2373988572508e-09,8.6316843529092e-09,-0.0010395217804221,0.0010395221455423,2.8566893230488e-09,-2.5431517327737e-09,-0.0011257911441884,0.0011257876916778,-0.0011257929590256,0.0011257858919112,-0.00112578550539,0.0011257933069968,-0.0011257873220141,0.0011257915126413,-0.0011167955697911,0.0011168106690269,-0.0011168120914332,0.0011167941637149,0.60265701737638,125803,2834,0.006013099834714,0.0060130998353956,0.0043234726083504,19.021119257617,-8.7831045939063e-05,-8.7831045939063e-05,-8.7831045939063e-05,2388972.5412038,0.016484764961569
18219200,0.98318221310113,0.016452202965228,0.0059221938138865,0.0059221938142758,0.0046078153370655,-0.0014462189674986,0.0014462187658091,8.3635042997434e-09,-8.5692840535485e-09,1.0086488023538e-09,-1.2464265181137e-09,-0.0015220500931199,0.001522056298411,-0.0015220557307943,0.0015220506205555,-0.0015220508184042,0.0015220555176594,-0.0015220564359733,0.0015220498813048,-0.0013231224251432,0.0013231380014829,-0.0013231389319521,0.0013231214341365,-1.0656737413987e-09,1.2892680667497e-09,-2.5658490482226e-09,2.7570940272141e-09,-0.00144621877318,0.0014462189604651,-0.001522054317978,0.0015220519974629,-0.001522052593311,0.001522053746212,-0.0015220535953792,0.0015220527646998,-0.0015220518394685,0.0015220545438116,-0.0013231323286045,0.0013231280338026,-0.001323127099052,0.0013231333460833,-0.001420064495252,0.0014200640879975,-0.001420062174913,0.0014200665076971,-8.4006612642862e-09,8.8003359627183e-09,-0.0010380776413271,0.0010380780119104,2.8046238697781e-09,-2.4850057452518e-09,-0.0011243367583133,0.0011243331801605,-0.0011243385519134,0.0011243314031523,-0.0011243310250077,0.0011243388907651,-0.0011243327915764,0.0011243371470171,-0.0011153396052851,0.0011153551150434,-0.0011153564950716,0.0011153382410822,0.61338749551452,125803,2834,0.006007298179018,0.0060072981797157,0.004317479576148,18.050164242704,-9.5598686058364e-05,-9.5598686058364e-05,-9.5598686058364e-05,2388499.1950088,0.016466878748728
18419200,0.98355557528204,0.016457572347536,0.0059241494923954,0.0059241494927848,0.0046092733623556,-0.0014455766068178,0.001445576411176,8.530625746945e-09,-8.7304950801917e-09,9.6963507219648e-10,-1.2009915658262e-09,-0.0015214312237163,0.0015214375071855,-0.0015214369622656,0.0015214317282559,-0.0015214319134932,0.0015214367626301,-0.001521437646439,0.0015214310112782,-0.0013224486536088,0.0013224646088883,-0.0013224655038281,0.001322447697819,-9.445105497334e-10,1.1478625916913e-09,-2.5644178498155e-09,2.7370011702981e-09,-0.0014455764248223,0.0014455765934427,-0.001521435454554,0.001521433201571,-0.0015214337290046,0.0015214349505651,-0.001521434810118,0.0015214338886864,-0.0015214330683042,0.0015214356545977,-0.0013224587773571,0.0013224544201569,-0.0013224535899564,0.0013224596891431,-0.0014194141591696,0.0014194140054683,-0.0014194121164703,0.0014194161396063,-8.4572770588422e-09,8.8535121030473e-09,-0.0010373518576653,0.0010373522247592,2.8381200817804e-09,-2.5222672347173e-09,-0.0011236223466223,0.0011236187430527,-0.0011236241564013,0.0011236169504073,-0.0011236165683727,0.0011236244987019,-0.0011236183651196,0.0011236227249848,-0.0011146201307841,0.0011146356995739,-0.0011146371060761,0.0011146187402576,0.61738401435308,125803,2834,0.0060046378241119,0.0060046378246727,0.0043144681194795,17.476776411943,-0.00010018578870446,-0.00010018578870446,-0.00010018578870446,2387683.9889068,0.016458409541114
18619200,0.98391516482583,0.016462694240326,0.0059260156642678,0.0059260156646574,0.0046106629114004,-0.0014455593894445,0.0014455592137392,8.627535961228e-09,-8.8075885036876e-09,8.4364128874949e-10,-1.0536218776925e-09,-0.0015214359671732,0.0015214422386831,-0.0015214417639453,0.0015214364015033,-0.0015214365667521,0.0015214415850315,-0.001521442358936,0.0015214357740205,-0.0013223991739746,0.0013224154107024,-0.0013224161960711,0.0013223983274872,-8.6615886232367e-10,1.0556472738466e-09,-2.6332338903208e-09,2.7929409139252e-09,-0.0014455592239732,0.00144555937953,-0.0015214401907922,0.0015214379403547,-0.0015214384241757,0.0015214397313986,-0.0015214396029002,0.0015214385709346,-0.0015214378205747,0.0015214403770265,-0.0013224095334428,0.0013224049861946,-0.0013224042259151,0.0013224103762873,-0.0014193887738565,0.0014193888181985,-0.0014193869011816,0.0014193907843721,-8.5913480019084e-09,8.9836557516599e-09,-0.0010372184983207,0.0010372188614479,2.8743992460301e-09,-2.5630050123496e-09,-0.0011235183127477,0.0011235146433882,-0.0011235201475608,0.0011235128248442,-0.0011235124465749,0.0011235204870143,-0.0011235142697318,0.0011235186863481,-0.0011145025195075,0.0011145183150206,-0.0011145197509859,0.0011145010984642,0.61178638408757,125803,2834,0.0060045663435939,0.0060045663442545,0.0043139153103078,17.231230193339,-0.00010215015845329,-0.00010215015845329,-0.00010215015845329,2388119.6543657,0.016457702630394
18819200,0.98426178091122,0.016467951206068,0.0059279229525805,0.0059279229529704,0.0046121053005169,-0.0014455516498753,0.0014455514859312,8.7467665196986e-09,-8.9151549856642e-09,7.7397225626708e-10,-9.7138042052435e-10,-0.001521450291898,0.0015214566013884,-0.0015214561655678,0.0015214506873378,-0.0015214508424879,0.0015214559975597,-0.0015214567093177,0.0015214501117622,-0.0013223643257012,0.0013223808430121,-0.0013223815664092,0.0013223635408115,-7.8534337259317e-10,9.6104246075593e-10,-2.690030063342e-09,2.8368620415436e-09,-0.0014455514968519,0.0014455516393299,-0.001521454528418,0.0015214522905317,-0.0015214527299737,0.0015214541143053,-0.0015214539993691,0.0015214528618745,-0.0015214521826145,0.0015214547024311,-0.0013223749119349,0.0013223701913929,-0.0013223695026204,0.0013223756839516,-0.0014193808387737,0.0014193810725533,-0.0014193791349374,0.0014193828692707,-8.699787308934e-09,9.0866273496541e-09,-0.0010371083963741,0.0010371087539234,2.9270185003348e-09,-2.6218210278447e-09,-0.0011234275837099,0.0011234238767015,-0.0011234294567856,0.0011234220199865,-0.0011234216483212,0.0011234297896865,-0.0011234235074346,0.0011234279529172,-0.0011144132136043,0.0011144291765381,-0.0011144306553419,0.0011144117500841,0.64922935213449,125803,2834,0.0060045342280036,0.0060045342287797,0.0043134587325748,16.994229105031,-0.00010404616715975,-0.00010404616715975,-0.00010404616715975,2389046.9304871,0.016457173390208
19019200,0.98459599498556,0.016473332124697,0.0059298683348489,0.0059298683352389,0.0046135954546088,-0.0014455925400732,0.0014455923860471,8.8565209668932e-09,-9.0150801149613e-09,7.1522249938477e-10,-9.0205693313283e-10,-0.001521490160315,0.0015214965063165,-0.0015214961028437,0.0015214905231387,-0.0015214906677328,0.0015214959459425,-0.0015214966055975,0.001521489989141,-0.0013224054558371,0.0013224222338473,-0.0013224229051599,0.0013224047230997,-7.3591225673865e-10,9.0222205736172e-10,-2.7480723671542e-09,2.8861387614934e-09,-0.0014455923963787,0.0014455925300831,-0.001521494419736,0.001521492172715,-0.0015214925848713,0.00152149403314,-0.0015214939253352,0.0015214927087326,-0.0015214920744311,0.0015214945841576,-0.0013224162454115,0.0013224113780123,-0.0013224107344715,0.0013224169731379,-0.0014194331243232,0.0014194334945487,-0.0014194315297567,0.0014194351809482,-8.8164563178912e-09,9.1985122210011e-09,-0.0010369962394362,0.0010369965921411,2.9723968353207e-09,-2.6725786209896e-09,-0.0011233800015474,0.001123376244775,-0.0011233819055167,0.001123374356791,-0.0011233739889859,0.0011233822348174,-0.001123375881249,0.0011233803649771,-0.0011143331703651,0.0011143493170022,-0.0011143508322628,0.0011143316696705,0.68719099339445,125803,2834,0.0060047027749598,0.0060047027756659,0.0043129957373129,16.757571673188,-0.0001059394266145,-0.0001059394266145,-0.0001059394266145,2382853.8011765,0.016457045780012
19219200,0.98492868621367,0.016478849912838,0.0059318603219629,0.0059318603223531,0.0046151292685225,-0.0014466568172255,0.0014466566720684,8.9731627276263e-09,-9.1229115165507e-09,6.6239205725969e-10,-8.397688916368e-10,-0.0015225301647174,0.0015225365560574,-0.0015225361817828,0.0015225304981657,-0.0015225306340557,0.0015225360342405,-0.0015225366470166,0.0015225300022462,-0.001323486514505,0.0013235035601602,-0.0013235041842892,0.0013234858287592,-6.8410878741672e-10,8.4114324506973e-10,-2.8296764096259e-09,2.9591367631072e-09,-0.0014466566823135,0.0014466568073315,-0.001522534458107,0.0015225321884865,-0.0015225325721455,0.0015225341008494,-0.0015225340007869,0.0015225326871053,-0.0015225320991509,0.0015225346137954,-0.0013234975359408,0.0013234924718689,-0.0013234918746938,0.0013234982183843,-0.0014205191036035,0.0014205196278466,-0.0014205176201231,0.0014205212019881,-8.9272357535013e-09,9.301738935437e-09,-0.0010377946235539,0.0010377949686012,3.0464357207244e-09,-2.7551550217729e-09,-0.0011243041539129,0.0011243003702486,-0.0011243061098516,0.0011242984303633,-0.0011242980698689,0.0011243064319587,-0.0011243000144703,0.0011243045096113,-0.0011151935017465,0.0011152097973576,-0.0011152113722032,0.0011151919411081,0.70677986199044,125803,2834,0.0060091088368616,0.0060091088375874,0.0043163132024514,17.021930174243,-0.00010382455860605,-0.00010382455860605,-0.00010382455860605,2374001.0404708,0.016469375712454
19419200,0.98526499142391,0.01648431196473,0.0059338355282458,0.0059338355286361,0.0046166409078481,-0.0014482313865185,0.001448231252181,9.0558307265287e-09,-9.1945869855614e-09,6.0153255076995e-10,-7.6758622512066e-10,-0.0015240776730711,0.0015240840901491,-0.0015240837476019,0.0015240779752866,-0.0015240781061403,0.001524083609723,-0.0015240841688591,0.0015240775265144,-0.0013250763901911,0.0013250936313799,-0.0013250941989743,0.0013250757625256,-6.7660555363537e-10,8.3564296144136e-10,-2.9226847423479e-09,3.0548778774896e-09,-0.001448231256426,0.0014482313830822,-0.0015240820053274,0.0015240796845518,-0.0015240800626425,0.0015240816568368,-0.0015240815592117,0.0015240801752128,-0.0015240795910441,0.001524082165481,-0.0013250876083112,0.001325082347542,-0.0013250817547003,0.001325088294962,-0.0014221093738385,0.0014221099607129,-0.0014221078973124,0.0014221115448074,-9.0728825165146e-09,9.440482141692e-09,-0.0010390366744617,0.0010390370123991,3.109602182604e-09,-2.8263232931973e-09,-0.0011257100220692,0.0011257061876662,-0.0011257120314964,0.0011257042031592,-0.0011257038519375,0.0011257123417064,-0.0011257058372381,0.0011257103759718,-0.0011165034538542,0.0011165199898238,-0.0011165216141968,0.0011165018425284,0.69264756327654,125803,2834,0.0060156278138377,0.0060156278155101,0.0043214725315509,17.537936839573,-9.9696505283416e-05,-9.9696505283416e-05,-9.9696505283416e-05,2366014.1173079,0.016487873883576
19619200,0.98560479380718,0.016489696152493,0.0059357862876024,0.005935786287992,0.004618123576899,-0.0014497956126556,0.0014497954624196,9.2766374942688e-09,-9.431485421065e-09,7.0008836536923e-10,-8.8293435019697e-10,-0.0015256277440513,0.0015256343501918,-0.0015256339543785,0.0015256280987126,-0.0015256282292302,0.001525633812437,-0.0015256344565211,0.0015256275656675,-0.0013266399576584,0.00132665760203,-0.0013266582577726,0.0013266392389102,-5.9031729544713e-10,7.3051231984789e-10,-2.9436544281996e-09,3.0573972018127e-09,-0.0014497954831052,0.0014497955923187,-0.001525632159258,0.0015256298604022,-0.0015256301929765,0.001525631854453,-0.0015256317584841,0.0015256303018815,-0.0015256297972097,0.0015256322886851,-0.0013266514081886,0.0013266460834343,-0.0013266455706102,0.0013266520067981,-0.0014236803861083,0.0014236811959655,-0.0014236791334887,0.0014236825373819,-9.0681967793911e-09,9.4258123780785e-09,-0.0010402793487806,0.0010402796767581,3.2117616852473e-09,-2.9394547964816e-09,-0.0011271014232534,0.0011270976398147,-0.0011271034853913,0.0011270955946244,-0.0011270952401875,0.0011271038011414,-0.0011270973109914,0.0011271017515146,-0.0011178084835337,0.0011178248738319,-0.001117826583132,0.0011178067907411,0.67638952152897,125803,2834,0.0060221041279845,0.0060221041287054,0.0043266335092608,18.060575254424,-9.5515397964611e-05,-9.5515397964611e-05,-9.5515397964611e-05,2362478.5108462,0.016506287278929
19819200,0.98594782363617,0.016494975615784,0.0059377031658866,0.0059377031662764,0.0046195692836206,-0.0014513336285416,0.0014513334820443,9.3310782114363e-09,-9.4821600772832e-09,6.8041487843958e-10,-8.5932793094511e-10,-0.0015271634049287,0.0015271700427215,-0.0015271696566661,0.0015271637494787,-0.0015271638831333,0.001527169511748,-0.0015271701385569,0.001527163237168,-0.0013281618193057,0.0013281795651711,-0.0013281802027104,0.001328161119216,-6.5818118372251e-10,8.0934791245661e-10,-3.006790999535e-09,3.1306596127588e-09,-0.0014513334957962,0.0014513336151653,-0.0015271678739548,0.0015271654985918,-0.0015271658691733,0.0015271675312239,-0.0015271674321258,0.0015271659813352,-0.0015271654192652,0.001527168020863,-0.0013281733678514,0.001328167948509,-0.0013281673772225,0.0013281740263297,-0.0014252186569779,0.0014252193597331,-0.0014252172415432,0.0014252208658615,-9.2358527602044e-09,9.5918607887076e-09,-0.0010415142556865,0.0010415145819533,3.2332511491854e-09,-2.9629240684683e-09,-0.001128465017067,0.0011284611436422,-0.0011284671008617,0.0011284590760335,-0.0011284587300218,0.0011284674082653,-0.00112846081006,0.0011284653504942,-0.0011191011756488,0.0011191178955566,-0.0011191196213816,0.0011190994654587,0.65786893182342,125803,2834,0.0060284722138891,0.0060284722146655,0.0043317613136107,18.583480921139,-9.1332152630888e-05,-9.1332152630888e-05,-9.1332152630888e-05,2362677.0188449,0.016524447138183
20019200,0.98628459500431,0.016500346606577,0.0059396493529798,0.0059396493533697,0.0046210479002271,-0.0014520015682904,0.0014520014125465,9.3968486321951e-09,-9.5570630887535e-09,7.41782703577e-10,-9.3063882491683e-10,-0.0015278396229646,0.0015278463476713,-0.0015278459264985,0.0015278400027346,-0.0015278401497134,0.0015278457677691,-0.0015278464481212,0.0015278394504299,-0.0013288103714136,0.0013288281881392,-0.0013288288792956,0.0013288096188607,-7.7732756300006e-10,9.4815853724864e-10,-2.9958861637385e-09,3.1379977438542e-09,-0.0014520014217235,0.0014520015594709,-0.0015278441656838,0.0015278417291425,-0.0015278421666899,0.0015278437559933,-0.0015278436436577,0.0015278422931312,-0.0015278416278055,0.0015278443358469,-0.0013288219083358,0.0013288165823666,-0.001328815908364,0.0013288226711783,-0.0014258874035143,0.0014258878566756,-0.0014258857220295,0.0014258896313039,-9.3832088925294e-09,9.742694471901e-09,-0.0010419554521821,0.0010419557819697,3.2020012254631e-09,-2.9278193634719e-09,-0.0011289924165642,0.0011289884297786,-0.0011289944831013,0.0011289863801157,-0.0011289860348586,0.0011289947894018,-0.0011289880885058,0.0011289927582002,-0.0011195839934293,0.0011196010447207,-0.0011196027444324,0.0011195823086519,0.68048382323783,125803,2834,0.0060312374605752,0.0060312374613149,0.0043335943513432,18.671399542057,-9.0628803663547e-05,-9.0628803663547e-05,-9.0628803663547e-05,2363267.171504,0.016531932879853
20219200,0.98661270352772,0.01650572934276,0.0059415968515251,0.005941596851915,0.0046225356393204,-0.0014524518493686,0.0014524516768112,9.513713187475e-09,-9.6906041112845e-09,8.4961177382586e-10,-1.0564540747591e-09,-0.0015282840812171,0.0015282909484413,-0.0015282904668266,0.0015282845216128,-0.0015282846829939,0.0015282902925071,-0.001528291066507,0.0015282838898711,-0.0013292570913675,0.0013292750641859,-0.0013292758491847,0.0013292562446056,-8.6044513052131e-10,1.0450222467787e-09,-2.9339317536359e-09,3.0887532125166e-09,-0.0014524516879669,0.0014524518385672,-0.0015282887008054,0.0015282862523509,-0.0015282867369649,0.0015282882437404,-0.0015282881177287,0.001528286878368,-0.0015282861399969,0.0015282888821548,-0.0013292686137917,0.0013292634741332,-0.0013292627269369,0.0013292694485155,-0.0014263463467411,0.0014263466039257,-0.0014263444935496,0.0014263485512731,-9.4751447322798e-09,9.8388736193999e-09,-0.0010421685357596,0.0010421688698549,3.1622244343116e-09,-2.8832832984235e-09,-0.0011293058141768,0.00112930173871,-0.0011293078509958,0.0011292997188913,-0.0011292993678511,0.0011293081630097,-0.0011293013945761,0.0011293061583166,-0.0011198419747045,0.0011198592375849,-0.0011198609053719,0.0011198403229379,0.69908658197918,125803,2834,0.0060331009774424,0.0060331009781749,0.0043344818405265,18.638434804995,-9.0892521560039e-05,-9.0892521560039e-05,-9.0892521560039e-05,2359163.5967479,0.016536624212182
20419200,0.9869323193727,0.016510980111747,0.0059434968963559,0.0059434968967458,0.0046239863186456,-0.0014529019882194,0.0014529018029205,9.6261525753524e-09,-9.8156874964848e-09,9.3048143854841e-10,-1.1509463812016e-09,-0.001528720020218,0.0015287270109086,-0.0015287264838218,0.0015287205061499,-0.0015287206786263,0.0015287262975053,-0.0015287271421821,0.0015287198147938,-0.0013297116929537,0.0013297298306976,-0.0013297306865158,0.0013297107752075,-9.292842252401e-10,1.1254067865265e-09,-2.8663902905989e-09,3.0318532548263e-09,-0.0014529018150659,0.001452901976424,-0.0015287247007163,0.0015287222535497,-0.0015287227766563,0.0015287242044357,-0.0015287240673864,0.0015287229303405,-0.0015287221316271,0.0015287248916222,-0.0013297232056914,0.0013297182511411,-0.0013297174433065,0.0013297240997035,-0.001426806114862,0.0014268061983913,-0.0014268041186116,0.0014268082898548,-9.5729658253348e-09,9.9421177469509e-09,-0.0010423609686615,0.0010423613082543,3.1106268493563e-09,-2.8255865913519e-09,-0.0011296170026157,0.001129612828126,-0.0011296190019051,0.0011296108456292,-0.0011296104881369,0.0011296193203088,-0.0011296124795757,0.0011296173509708,-0.0011200807047026,0.0011200982030157,-0.0011200998294536,0.0011200790950712,0.69998399431958,125803,2834,0.0060349636172254,0.0060349636179488,0.004335284436234,18.602212376377,-9.1182300988985e-05,-9.1182300988985e-05,-9.1182300988985e-05,2352776.5600088,0.016541227607547
20619200,0.98724367311148,0.016515566682305,0.0059451685135769,0.005945168513967,0.0046252296547606,-0.0014533131975511,0.0014533130037136,9.7202677039057e-09,-9.9182583033111e-09,9.8402391880357e-10,-1.2136148095477e-09,-0.0015291251822254,0.0015291322698929,-0.0015291317127729,0.0015291256983971,-0.0015291258803635,0.0015291315163949,-0.001529132408167,0.0015291249695614,-0.0013301133380685,0.0013301316176041,-0.0013301325204178,0.0013301123735574,-9.9496371954134e-10,1.202303717258e-09,-2.8053993950883e-09,2.9812860361533e-09,-0.0014533130148716,0.0014533131867358,-0.0015291299103834,0.0015291274647329,-0.0015291280243783,0.0015291293770807,-0.001529129231481,0.0015291281876463,-0.0015291273311634,0.0015291301130884,-0.0013301248404325,0.0013301200489549,-0.0013301191830388,0.0013301257916999,-0.0014272093625595,0.0014272092757434,-0.0014272072226771,0.0014272115117832,-9.6908161163112e-09,1.0066222608691e-08,-0.0010425183245,0.0010425186704435,3.0502305798804e-09,-2.7581476845642e-09,-0.0011298975379283,0.0011298932478836,-0.0011298994960484,0.0011298913066812,-0.0011298909441567,0.0011298998192866,-0.001129892891847,0.0011298978938946,-0.0011202687897472,0.001120286577672,-0.0011202881553708,0.0011202672291093,0.6309912335237,125803,2834,0.0060366650394289,0.0060366650401377,0.0043359412770064,18.565858145681,-9.1473134834553e-05,-9.1473134834553e-05,-9.1473134834553e-05,2347940.1258267,0.016545355363752
20819200,0.98753250579028,0.016520145846509,0.0059468291681591,0.0059468291685495,0.0046264875098007,-0.001452095951913,0.0014520957437634,9.8186045073721e-09,-1.0030796298235e-08,1.0682746589425e-09,-1.3131724740117e-09,-0.0015279344611712,0.0015279416663954,-0.001527941062499,0.0015279350243195,-0.0015279352202578,0.001527940851147,-0.0015279418181887,0.0015279342344828,-0.0013288684739267,0.0013288868841355,-0.0013288878621166,0.0013288674347013,-1.0853522355283e-09,1.308564393811e-09,-2.6842694056106e-09,2.8749567807239e-09,-0.0014520957545777,0.0014520959414178,-0.0015279392352843,0.0015279368152999,-0.0015279374243227,0.0015279386511152,-0.001527938491859,0.0015279376030954,-0.0015279366663873,0.0015279394532092,-0.0013288798910381,0.0013288754015036,-0.0013288744549459,0.0013288809214134,-0.0014259834616123,0.0014259831195924,-0.0014259811276977,0.0014259855506271,-9.7989841832786e-09,1.0185769890251e-08,-0.0010412462294752,0.0010412465869662,2.9396627166233e-09,-2.6347099190538e-09,-0.0011286264686014,0.0011286220362524,-0.0011286283491547,0.0011286201727337,-0.0011286197991126,0.001128628683211,-0.0011286216685965,0.0011286268362863,-0.0011189917510892,0.0011190098523611,-0.0011190113405764,0.0011189902798857,0.67642716635145,125803,2834,0.0060316240829473,0.0060316240836074,0.0043306624554125,17.743989255691,-9.8048085954474e-05,-9.8048085954474e-05,-9.8048085954474e-05,2348723.7862743,0.016529740501596
21019200,0.98779918277704,0.016524239088977,0.0059483164077271,0.0059483164081175,0.0046276062731326,-0.0014507191576004,0.001450718953345,9.8513927571253e-09,-1.0059467336119e-08,1.045898968328e-09,-1.286598873817e-09,-0.0015265591512793,0.0015265663701282,-0.0015265657798605,0.0015265597050358,-0.0015265599060738,0.0015265655690117,-0.0015265665191523,0.0015265589390363,-0.0013274890290345,0.0013275075006768,-0.0013275084560045,0.0013274880108584,-1.206171449996e-09,1.4569760688685e-09,-2.5974145655258e-09,2.8150669947643e-09,-0.0014507189493271,0.0014507191620684,-0.0015265639382758,0.0015265615092232,-0.0015265621839593,0.0015265632945029,-0.0015265631149876,0.0015265623815266,-0.0015265613313434,0.0015265641880985,-0.001327500358699,0.0013274961068961,-0.0013274950417439,0.0013275014966125,-0.0014246023412186,0.001424601683153,-0.0014245997117948,0.0014246043915622,-9.9810330290459e-09,1.0381291837131e-08,-0.0010397849959502,0.0010397853674813,2.8072065793597e-09,-2.4868465051851e-09,-0.0011272075169606,0.0011272028855094,-0.0011272093159391,0.0011272011167782,-0.00112720073001,0.0011272096556766,-0.0011272025017534,0.0011272079094107,-0.0011175245560567,0.0011175431541479,-0.0011175445356558,0.0011175231919423,0.65601664037511,125803,2834,0.0060259216614773,0.0060259216624135,0.0043246009120298,16.833591739613,-0.00010533126608309,-0.00010533126608309,-0.00010533126608309,2340901.5889338,0.016511985794265
21219200,0.98804556973155,0.01652804393794,0.005949697838315,0.005949697838704,0.0046286482609214,-0.0014492816362039,0.0014492814089447,1.0098399169367e-08,-1.0329592208637e-08,1.1832172531722e-09,-1.4484025261794e-09,-0.0015251304852763,0.0015251379383203,-0.0015251372721076,0.0015251311118712,-0.0015251313190478,0.0015251370485242,-0.0015251381162724,0.0015251302321935,-0.0013260418147666,0.0013260607115762,-0.0013260617908348,0.001326040673099,-1.0948778502921e-09,1.3219113986129e-09,-2.4611945084746e-09,2.6554323918283e-09,-0.0014492814275226,0.0014492816179477,-0.0015251353165801,0.0015251330306267,-0.0015251336444851,0.0015251347268862,-0.0015251345578923,0.0015251338348659,-0.0015251328846218,0.0015251355296749,-0.0013260532431885,0.0013260492200065,-0.0013260482594121,0.0013260542815133,-0.0014231605841551,0.0014231600981128,-0.0014231582481749,0.0014231625275928,-9.9405978806778e-09,1.034266805459e-08,-0.0010383113645696,0.0010383117376606,2.7815900505705e-09,-2.4591528978133e-09,-0.0011257418884072,0.0011257372521767,-0.0011257436508466,0.0011257355081569,-0.0011257351115607,0.0011257440072091,-0.0011257368763775,0.0011257422641355,-0.0011160406517248,0.0011160591495395,-0.0011160605127814,0.0011160393087491,0.6596710103925,125803,2834,0.0060199681629411,0.0060199681636062,0.0043184865148653,15.920635391004,-0.00011263491687197,-0.00011263491687197,-0.00011263491687197,2336253.6654116,0.016493666926099
21419200,0.98827667013028,0.016531636157233,0.0059510011148895,0.0059510011152786,0.0046296339270648,-0.0014482624695898,0.0014482622585638,1.0153524770259e-08,-1.0368487002133e-08,1.0776862250138e-09,-1.3255080962258e-09,-0.0015241159763183,0.0015241234090677,-0.0015241228015923,0.0015241165445079,-0.0015241167425435,0.0015241225887564,-0.0015241235658237,0.0015241157462425,-0.0013250157207868,0.0013250347822927,-0.0013250357696122,0.0013250146710625,-1.0879729028805e-09,1.3154527686909e-09,-2.44905147337e-09,2.6440334632213e-09,-0.0014482622689605,0.0014482624596436,-0.0015241207881077,0.0015241185217793,-0.0015241191304034,0.0015241202040388,-0.0015241200413533,0.0015241193147359,-0.001524118369695,0.0015241210070809,-0.0013250272318554,0.001325023209458,-0.0013250222526154,0.0013250282667591,-0.0014221406042903,0.0014221401034232,-0.0014221382635053,0.0014221425424554,-1.0110234469727e-08,1.0517840646247e-08,-0.0010372414961292,0.0010372418748189,2.7238739571049e-09,-2.3952811645123e-09,-0.0011246869872499,0.001124682208743,-0.0011246887164501,0.0011246804993963,-0.0011246801032201,0.0011246890720307,-0.0011246818218626,0.0011246873751509,-0.0011149689566989,0.0011149878571957,-0.0011149891736209,0.0011149676586231,0.66373453078258,125803,2834,0.0060157472240851,0.0060157472250168,0.0043140477202979,15.231732382994,-0.00011814614093605,-0.00011814614093605,-0.00011814614093605,2332152.5464514,0.016480573836064
21619200,0.9884939090559,0.016535042483917,0.0059522360223862,0.0059522360227754,0.0046305704387557,-0.0014472787630909,0.0014472785737133,1.0169732670471e-08,-1.036314656081e-08,9.407664193493e-10,-1.1654051833775e-09,-0.0015231361203193,0.0015231434937989,-0.0015231429634105,0.0015231366119454,-0.0015231368013555,0.0015231427604159,-0.0015231436175319,0.00152313592436,-0.0013240280703857,0.001324047224441,-0.0013240480937951,0.0013240271397444,-1.0750258900499e-09,1.3024786344043e-09,-2.4748622668341e-09,2.6695939180857e-09,-0.0014472785736989,0.0014472787637674,-0.001523140900844,0.001523138637799,-0.0015231392397631,0.0015231403250995,-0.0015231401759384,0.0015231394107031,-0.0015231384747942,0.0015231411306525,-0.0013240396765895,0.0013240355576289,-0.0013240346119463,0.0013240407036456,-0.0014211557388227,0.0014211552459283,-0.0014211533909971,0.0014211577004426,-1.0322046800022e-08,1.0733981411942e-08,-0.0010362100768862,0.0010362104597547,2.6801947700862e-09,-2.3469437580601e-09,-0.0011236747939068,0.0011236698601608,-0.0011236765053265,0.0011236681687761,-0.0011236677811537,0.0011236768528107,-0.0011236694573767,0.0011236751981335,-0.0011139338766335,0.0011139532670409,-0.0011139545485375,0.0011139326133422,0.6692085447524,125803,2834,0.0060116730844034,0.0060116730857718,0.0043097685668867,14.567333087611,-0.00012346133529911,-0.00012346133529911,-0.00012346133529911,2327673.238493,0.016467941689881
21819200,0.98869824541365,0.016538199931425,0.0059533815569243,0.0059533815573135,0.0046314368171873,-0.001446282095086,0.0014462819079172,1.0378358940964e-08,-1.056974827921e-08,9.2502225196987e-10,-1.1473109238506e-09,-0.0015221414225123,0.0015221489112769,-0.0015221483902711,0.0015221419039745,-0.0015221420795038,0.0015221482006021,-0.0015221490440137,0.0015221412172349,-0.0013230297589327,0.0013230493691614,-0.0013230502240085,0.0013230288426647,-9.4197599563287e-10,1.1441687999296e-09,-2.4588758601136e-09,2.6302445812048e-09,-0.0014462819181047,0.0014462820852685,-0.0015221462211379,0.0015221440383943,-0.0015221445650667,0.0015221457182401,-0.0015221455786172,0.0015221447249274,-0.0015221439078728,0.0015221464172841,-0.001323041607122,0.0013230374578313,-0.0013230366304423,0.0013230425137084,-0.0014201562771837,0.0014201560619772,-0.0014201542456725,0.0014201581882534,-1.0335898426944e-08,1.0743399396994e-08,-0.001035168760084,0.0010351691386244,2.717809120433e-09,-2.3892179588935e-09,-0.0011226570172548,0.001122652084014,-0.0011226587421477,0.0011226503773111,-0.0011226499826057,0.0011226590972191,-0.0011226516963291,0.0011226574053997,-0.0011128861314489,0.0011129054790944,-0.0011129067906409,0.0011128848367352,0.65988853981091,125803,2834,0.0060075451396845,0.0060075451404497,0.0043054484756769,13.903644479906,-0.00012877084416076,-0.00012877084416076,-0.00012877084416076,2322487.1157609,0.016455158781751
22019200,0.98890223577621,0.016541301913726,0.0059545077961259,0.0059545077965152,0.0046322863210854,-0.0014470421650955,0.001447042000803,1.0495000117362e-08,-1.0663712279145e-08,7.8182728259554e-10,-9.7966659962256e-10,-0.0015229014675811,0.0015229089468859,-0.001522908505898,0.0015229018685914,-0.0015229020229422,0.0015229083388296,-0.0015229090567825,0.001522901286212,-0.0013237750354264,0.0013237949756577,-0.0013237957046337,0.0013237742448757,-8.0137787827944e-10,9.7915975677101e-10,-2.5697017232612e-09,2.7185098674025e-09,-0.0014470420109099,0.0014470421553464,-0.0015229062550351,0.0015229040859576,-0.0015229045338745,0.0015229058314161,-0.0015229057138287,0.0015229046695425,-0.0015229039768677,0.001522906429354,-0.0013237872083734,0.0013237827382645,-0.0013237820353115,0.0013237879921993,-0.0014209202084332,0.0014209203343514,-0.0014209184743074,0.0014209221609617,-1.0455087372791e-08,1.0852852919793e-08,-0.0010358013887206,0.0010358017573892,2.8094678959251e-09,-2.4918110260582e-09,-0.0011233273639314,0.0011233224103045,-0.0011233291540739,0.0011233206379085,-0.0011233202538629,0.0011233294989262,-0.0011233220315559,0.0011233277430845,-0.0011135506380113,0.001113570137185,-0.0011135715226273,0.001113549268126,0.64982377898128,125803,2834,0.0060106926858469,0.0060106926865865,0.0043080744271552,14.153022505768,-0.00012677581995385,-0.00012677581995385,-0.00012677581995385,2324338.3962804,0.016464226693583
22219200,0.98910708295312,0.016544392365244,0.0059556304594064,0.0059556304597959,0.0046331314460419,-0.0014479857859264,0.0014479856417775,1.0596071322412e-08,-1.0744753416747e-08,6.5959195050691e-10,-8.3589650311208e-10,-0.0015238576620094,0.0015238651357705,-0.0015238647627176,0.0015238579950893,-0.0015238581314135,0.0015238646152214,-0.0015238652251619,0.0015238575022167,-0.0013246929348313,0.0013247131573149,-0.0013247137782699,0.0013246922520583,-7.1693986427339e-10,8.8046404275772e-10,-2.6920586195343e-09,2.8276933698571e-09,-0.001447985648613,0.0014479857795469,-0.001523862460773,0.0015238602635983,-0.0015238606651545,0.0015238620854905,-0.0015238619818273,0.0015238607852942,-0.0015238601670788,0.0015238626226925,-0.0013247054010024,0.0013247006264636,-0.0013246999984038,0.0013247061123476,-0.0014218606423255,0.0014218610078645,-0.0014218590848728,0.0014218626593188,-1.0588530399546e-08,1.0976539676483e-08,-0.0010366157934134,0.0010366161521721,2.902194022439e-09,-2.5956020286912e-09,-0.0011241798594299,0.001124174877614,-0.0011241817167162,0.0011241730387556,-0.0011241726656855,0.0011241820508104,-0.001124174507587,0.001124180230124,-0.0011143931139409,0.0011144127931614,-0.0011144142536063,0.0011143916684755,0.64497434367235,125803,2834,0.0060146004904311,0.0060146004913735,0.0043114542098638,14.499172573711,-0.00012400661941031,-0.00012400661941031,-0.00012400661941031,2329063.9771127,0.01647560668088
22419200,0.98931272883106,0.016547628473105,0.0059568029676097,0.0059568029679993,0.0046340225374964,-0.0014489380524111,0.001448937913538,1.0726636416856e-08,-1.0870140209561e-08,6.3148536926132e-10,-8.021822130605e-10,-0.0015248241549023,0.0015248316965792,-0.0015248313389361,0.0015248244720202,-0.0015248246020082,0.0015248311979308,-0.0015248317819602,0.0015248239990609,-0.0013256191056075,0.0013256396087912,-0.0013256402039725,0.0013256184486078,-6.5292896923289e-10,8.0417491044485e-10,-2.7862298663221e-09,2.910296375903e-09,-0.001448937923414,0.001448938042902,-0.0015248290001849,0.0015248267779092,-0.0015248271445474,0.0015248286598893,-0.0015248285652874,0.0015248272539458,-0.0015248266938609,0.0015248291499078,-0.0013256318249179,0.0013256268227415,-0.0013256262534831,0.0013256324785291,-0.0014228134310545,0.0014228139858549,-0.0014228120143135,0.0014228154928624,-1.0685211909171e-08,1.1063047082329e-08,-0.0010374428658079,0.0010374432142482,3.0012433608604e-09,-2.7060826744574e-09,-0.001125038680314,0.0011250336952133,-0.0011250406054727,0.0011250317875203,-0.0011250314234279,0.0011250409308138,-0.0011250333363633,0.0011250390395038,-0.0011152521937264,0.0011152719682375,-0.0011152735085298,0.0011152506682054,0.6713935306112,125803,2834,0.0060185441255694,0.0060185441263276,0.0043148864121755,14.848139951396,-0.00012121488038883,-0.00012121488038883,-0.00012121488038883,2334073.6017832,0.016487112838953
22619200,0.98951893288841,0.016550910458274,0.0059579915115917,0.0059579915119814,0.0046349274347006,-0.0014499059952443,0.0014499058587458,1.0829233641522e-08,-1.0970357955977e-08,6.208306527556e-10,-7.8899972077659e-10,-0.001525794151057,0.0015258017553952,-0.0015258014032855,0.0015257944625207,-0.0015257945907625,0.0015258012641563,-0.0015258018378202,0.0015257939979558,-0.0013265742759449,0.0013265949860199,-0.0013265955709503,0.0013265736285606,-6.5453199255574e-10,8.05982539097e-10,-2.8709510838045e-09,2.9950829346528e-09,-0.0014499058674743,0.0014499059869305,-0.0015257990558767,0.0015257967765182,-0.0015257971451459,0.0015257987147251,-0.0015257986205685,0.0015257972534314,-0.0015257966925717,0.0015257992062169,-0.0013265871819428,0.0013265820130153,-0.0013265814430217,0.0013265878371231,-0.0014237848326121,0.0014237854394496,-0.0014237834113433,0.0014237869518844,-1.080714476363e-08,1.1177514158203e-08,-0.0010382460017596,0.0010382463426202,3.0751364171124e-09,-2.7884583625047e-09,-0.0011259076204654,0.0011259026019291,-0.0011259095981745,0.0011259006414805,-0.0011259002854084,0.0011259099156354,-0.0011259022498921,0.001125907972725,-0.001116091748017,0.0011161116955801,-0.001116113295928,0.0011160901628448,0.67880266820499,125803,2834,0.0060225521185395,0.0060225521193968,0.0043182207917005,15.186335287091,-0.00011850931770327,-0.00011850931770327,-0.00011850931770327,2334533.0166882,0.016498650806183
22819200,0.98972270428133,0.01655414423788,0.0059591630712584,0.0059591630716482,0.0046358180949729,-0.0014504484964169,0.0014504483496775,1.0941531325023e-08,-1.109282322163e-08,6.8785886808963e-10,-8.670377982963e-10,-0.0015263376925508,0.0015263454125318,-0.001526345022251,0.0015263380418843,-0.0015263381794614,0.00152634487327,-0.0015263455052335,0.0015263375285461,-0.0013271084219578,0.0013271293057914,-0.0013271299488501,0.0013271077169275,-7.10296140764e-10,8.701253558961e-10,-2.9031922667775e-09,3.0351126000258e-09,-0.0014504483595101,0.0014504484869463,-0.0015263426829364,0.0015263403474727,-0.001526340747623,0.0015263423101323,-0.0015263422074194,0.0015263408645586,-0.0015263402563637,0.0015263428413274,-0.0013271214252213,0.0013271162346967,-0.0013271156177444,0.0013271221286052,-0.0014243286766022,0.001424329198924,-0.0014243271390325,0.0014243308277058,-1.0911194703523e-08,1.127774336027e-08,-0.0010386357191371,0.0010386360561184,3.1149717060835e-09,-2.8326116738232e-09,-0.0011263652840453,0.0011263602208734,-0.0011263672891701,0.0011263582330088,-0.001126357880141,0.0011263676032265,-0.0011263598731735,0.0011263656319893,-0.0011165087419317,0.0011165288563375,-0.0011165304882274,0.001116507125177,0.67691801987937,125803,2834,0.0060247980566818,0.0060247980574302,0.0043198399481319,15.303261756606,-0.00011757390594715,-0.00011757390594715,-0.00011757390594715,2332814.1036724,0.016504863149756
23019200,0.98992396666783,0.016557118644068,0.005960245685244,0.0059602456856338,0.0046366272731903,-0.0014509607539786,0.0014509605961093,1.1038913662e-08,-1.1201214782165e-08,7.6014376648266e-10,-9.512641825322e-10,-0.0015268536174404,0.001526861447542,-0.0015268610163925,0.0015268540077474,-0.0015268541563514,0.0015268608558122,-0.0015268615505676,0.0015268534424616,-0.0013276059459574,0.0013276269668592,-0.0013276276729645,0.0013276051779834,-7.8729234287699e-10,9.6055451383982e-10,-2.9207204157529e-09,3.0650442895854e-09,-0.0014509606054055,0.001450960745183,-0.001526858691857,0.0015268562975552,-0.0015268567415764,0.0015268582759147,-0.0015268581618764,0.001526856870395,-0.0015268561945789,0.0015268588629175,-0.0013276190082398,0.0013276138378636,-0.0013276131535279,0.0013276197801595,-0.0014248368703793,0.001424837255474,-0.0014248351681952,0.0014248390521873,-1.1028536975136e-08,1.1393738618753e-08,-0.0010389996318705,0.0010389999673757,3.1327646774064e-09,-2.8521007914734e-09,-0.0011267936556738,0.0011267885262901,-0.0011267956738393,0.001126786525747,-0.001126786174631,0.0011267959858896,-0.0011267881797377,0.0011267940024654,-0.0011168957420185,0.0011169160721861,-0.0011169177185108,0.0011168941119072,0.63260002073143,125803,2834,0.006026918780213,0.0060269187812478,0.0043213518625814,15.414516436418,-0.00011668386850866,-0.00011668386850866,-0.00011668386850866,2331820.5956382,0.016510711990196
23219200,0.99012271761844,0.016560185664388,0.0059613587240123,0.0059613587244022,0.0046374682159738,-0.0014514192749319,0.0014514191046564,1.1151229558297e-08,-1.1325839844191e-08,8.3846635154615e-10,-1.0428427159885e-09,-0.0015273341926617,0.0015273421449684,-0.0015273416697148,0.0015273346268517,-0.001527334786801,0.0015273414969795,-0.0015273422603529,0.00152733400444,-0.001328030827402,0.0013280520140429,-0.0013280527885332,0.0013280299908917,-8.5759768074424e-10,1.0419886384651e-09,-2.9229282963065e-09,3.0775456551405e-09,-0.0014514191147952,0.0014514192651534,-0.0015273393503777,0.0015273369110048,-0.0015273373944134,0.0015273388946147,-0.0015273387695774,0.0015273375347005,-0.0015273367982552,0.0015273395320368,-0.0013280439481007,0.0013280388255997,-0.0013280380805753,0.0013280447802051,-0.0014252932253324,0.0014252934788106,-0.0014252913755828,0.0014252954221214,-1.1130331071625e-08,1.1494032726249e-08,-0.0010393750139177,0.001039375347995,3.1460178736572e-09,-2.8669608453481e-09,-0.0011271727745929,0.0011271675850124,-0.0011271748013005,0.0011271655755231,-0.0011271652251506,0.0011271751125381,-0.0011271672402682,0.001127173119481,-0.0011172933469267,0.0011173138622008,-0.0011173155193269,0.001117291706135,0.65900009077676,125803,2834,0.0060288178581878,0.0060288178589328,0.0043229089689597,15.525543715883,-0.00011579565027293,-0.00011579565027293,-0.00011579565027293,2337514.5612627,0.016516155612499
23419200,0.99031980203902,0.016563195078685,0.0059624516379039,0.0059624516382939,0.0046382918024872,-0.0014520402948709,0.0014520401239892,1.1199999217418e-08,-1.1375058963051e-08,8.422059720092e-10,-1.0473786068319e-09,-0.0015279649343174,0.0015279729260797,-0.0015279724478264,0.0015279653717911,-0.0015279655376055,0.0015279722708876,-0.0015279730395571,0.0015279647514957,-0.00132863040673,0.0013286516730932,-0.0013286524492478,0.0013286295690859,-9.6343343459343e-10,1.166369909327e-09,-2.9404065806904e-09,3.113085277389e-09,-0.0014520401255064,0.0014520402936892,-0.0015279701476902,0.0015279676374565,-0.0015279681780713,0.0015279696345751,-0.0015279694959405,0.0015279683318974,-0.0015279675035269,0.0015279703526756,-0.001328643552626,0.0013286384589025,-0.001328637619122,0.0013286444786397,-0.0014259140042588,0.0014259140466741,-0.0014259119094517,0.0014259162298209,-1.1299416009434e-08,1.1666284563721e-08,-0.0010398690045762,0.0010398693420022,3.1192930512568e-09,-2.8366606571139e-09,-0.0011277072832591,0.0011277019683871,-0.0011277092971525,0.0011276999758842,-0.0011276996249294,0.0011277096066194,-0.0011277016171267,0.0011277076377497,-0.0011178146393449,0.0011178355259122,-0.0011178371589286,0.0011178130189057,0.65256367513541,125803,2834,0.006031389374217,0.0060313893749121,0.0043249597706456,15.704081710048,-0.00011436734631962,-0.00011436734631962,-0.00011436734631962,2338914.1528668,0.016523468540547
23619200,0.99051938074192,0.016566312082381,0.0059635820189444,0.005963582019334,0.0046391480441026,-0.0014533117443847,0.001453311573096,1.1344705639854e-08,-1.1520194510495e-08,8.4284052080064e-10,-1.0484569808295e-09,-0.0015292461121108,0.0015292541969002,-0.0015292537182597,0.0015292465491771,-0.0015292467108539,0.0015292535435789,-0.001529254312466,0.0015292459243057,-0.0013298753681171,0.0013298969284816,-0.0013298977047661,0.0013298745288498,-9.7224786725974e-10,1.1747489810366e-09,-2.9423972705666e-09,3.114663997061e-09,-0.0014533115748974,0.0014533117429102,-0.0015292513768266,0.0015292488559985,-0.0015292494019363,0.0015292508569307,-0.0015292507152177,0.0015292495595442,-0.0015292487252137,0.0015292515783491,-0.0013298886545422,0.0013298835752858,-0.0013298827280826,0.0013298895874662,-0.0014271898132961,0.0014271898508829,-0.0014271877130036,0.0014271920416383,-1.137480815174e-08,1.1740240487888e-08,-0.0010409833808238,0.0010409837167692,3.1344154802458e-09,-2.8534556396398e-09,-0.0011288637910361,0.0011288584309554,-0.0011288658105129,0.0011288564299853,-0.001128856078257,0.0011288661228048,-0.0011288580834324,0.0011288641393721,-0.0011189731127392,0.0011189941213911,-0.0011189957663718,0.0011189714787856,0.66669033155844,125803,2834,0.0060366545821152,0.0060366545827912,0.0043295847048767,16.218021863003,-0.00011025582509598,-0.00011025582509598,-0.00011025582509598,2343187.7030729,0.0165388745975
23819200,0.99072143016572,0.016569637107882,0.0059647843069147,0.0059647843073043,0.0046400684936625,-0.0014546321105558,0.0014546319293875,1.1460122874407e-08,-1.1645552736946e-08,9.060090212816e-10,-1.1220420254451e-09,-0.001530570665812,0.0015305788672575,-0.0015305783546034,0.0015305711374534,-0.0015305713103318,0.0015305781684811,-0.0015305789910051,0.0015305704691252,-0.001331178055114,0.0013311997912383,-0.0013312006245928,0.0013311771596042,-9.0059145284343e-10,1.0928545831971e-09,-2.9230357236354e-09,3.0850938764152e-09,-0.0014546319412174,0.0014546320990708,-0.0015305759601301,0.0015305734964324,-0.0015305740038656,0.0015305754803305,-0.0015305753501971,0.0015305741492868,-0.001530573374132,0.001530576151951,-0.0013311914385594,0.0013311863402191,-0.0013311855564526,0.0013311923093858,-0.0014285181795364,0.0014285183426719,-0.0014285162297731,0.0014285203856517,-1.1474944937387e-08,1.1838714117116e-08,-0.0010421193981988,0.0010421197323572,3.1513370020733e-09,-2.8722884698199e-09,-0.0011300632456403,0.0011300578317936,-0.00113006527847,0.0011300558170855,-0.0011300554686869,0.0011300655872412,-0.0011300574846175,0.0011300635931429,-0.001120158198496,0.0011201793923545,-0.0011201810528072,0.0011201565544885,0.70079153623086,125803,2834,0.0060421219958583,0.0060421219965715,0.0043343003054932,16.740578436935,-0.00010607537250452,-0.00010607537250452,-0.00010607537250452,2345251.4438278,0.016554784331105
24019200,0.99092581098323,0.016573039794205,0.0059660143454935,0.0059660143458832,0.0046410111028283,-0.0014559991578828,0.0014559989832042,1.1581948514129e-08,-1.1760905054953e-08,8.6513090649172e-10,-1.0742346614567e-09,-0.0015319266358245,0.0015319348908214,-0.0015319344007456,0.0015319270847322,-0.0015319272485011,0.0015319342239631,-0.0015319350109334,0.0015319264428858,-0.0013325433619124,0.0013325653745994,-0.0013325661721754,0.0013325425025051,-9.2476341123022e-10,1.1209504461859e-09,-2.9155687629362e-09,3.0812806615515e-09,-0.0014559989899516,0.0014559991514827,-0.0015319319631344,0.0015319294869595,-0.0015319300076262,0.0015319314698028,-0.0015319313334978,0.0015319301597404,-0.001531929363849,0.0015319321559438,-0.0013325568633867,0.0013325518055567,-0.0013325510005503,0.0013325577554795,-0.0014298956368999,0.0014298957573218,-0.0014298936444465,0.001429897843741,-1.1574796963019e-08,1.1941066109509e-08,-0.0010432464695458,0.0010432468062247,3.130637261528e-09,-2.8488277967112e-09,-0.0011312985262574,0.0011312930300255,-0.0011313005412904,0.0011312910322469,-0.0011312906787758,0.0011313008554319,-0.001131292683219,0.0011312988735524,-0.0011213400575243,0.0011213614580577,-0.0011213631008517,0.0011213384300057,0.70866199325993,125803,2834,0.0060477820414742,0.0060477820421922,0.0043389806334009,17.263480604907,-0.00010189215516074,-0.00010189215516074,-0.00010189215516074,2342415.7297274,0.016571050439556
24219200,0.9911311489995,0.016576314152647,0.0059672015579051,0.0059672015582948,0.0046419110364466,-0.0014571825569794,0.0014571823762447,1.169317019003e-08,-1.1878191293468e-08,9.0231745270355e-10,-1.1178622620752e-09,-0.0015330991928368,0.0015331075462828,-0.0015331070355591,0.0015330996625126,-0.001533099833647,0.0015331068510031,-0.0015331076706125,0.001533098995193,-0.0013337240235077,0.0013337462221103,-0.0013337470529544,0.0013337231305095,-8.8164412155374e-10,1.0703153700855e-09,-2.871625356591e-09,3.0302786946101e-09,-0.0014571823895467,0.0014571825440236,-0.0015331045409494,0.0015331021219043,-0.0015331026183453,0.001533104071426,-0.0015331039436601,0.0015331027619034,-0.0015331020037404,0.0015331047278265,-0.0013337375931169,0.00133373258514,-0.0013337318183434,0.0013337384460227,-0.0014310832689697,0.0014310834381395,-0.001431081363658,0.0014310854364457,-1.1679186327951e-08,1.2047487925867e-08,-0.0010441829626597,0.0010441833014122,3.111629617739e-09,-2.8275016562579e-09,-0.0011323523950121,0.0011323468186699,-0.001132354398241,0.0011323448329337,-0.0011323444789882,0.001132354712872,-0.0011323464680622,0.0011323527455996,-0.0011223248858339,0.0011223465126283,-0.0011223481407157,0.0011223232745263,0.6801006208264,125803,2834,0.0060526813404618,0.0060526813411773,0.0043428704549576,17.691515639057,-9.8467874887541e-05,-9.8467874887541e-05,-9.8467874887541e-05,2339039.3802398,0.016584966592005
24419200,0.99133430286473,0.01657955041568,0.005968375240257,0.0059683752406469,0.0046427999347757,-0.001457867758453,0.0014578675770732,1.1826855799203e-08,-1.2012606515117e-08,9.0384071940409e-10,-1.1201432555101e-09,-0.0015337883372397,0.0015337967754993,-0.0015337962637797,0.0015337888072178,-0.0015337889737499,0.0015337960825435,-0.0015337969043249,0.0015337881341455,-0.001334392962027,0.0013344154363694,-0.0013344162692674,0.0013343920682735,-9.1264893949548e-10,1.1042017019017e-09,-2.8142459652708e-09,2.9755041943985e-09,-0.0014578675890343,0.0014578677466547,-0.0015337937205623,0.0015337913160781,-0.0015337918290166,0.0015337932319081,-0.0015337930962121,0.0015337919811718,-0.0015337911985922,0.001533793906776,-0.0013344065945589,0.0013344017352387,-0.00133440094375,0.0013344074719859,-0.0014317689798224,0.0014317690656697,-0.0014317670242681,0.0014317711113883,-1.1761649410077e-08,1.213614851117e-08,-0.0010446869333892,0.0010446872784004,3.0553952709041e-09,-2.7642323620997e-09,-0.0011329277850991,0.0011329221127438,-0.0011329297422868,0.001132920169887,-0.0011329198057891,0.0011329300679437,-0.0011329217602047,0.0011329281368531,-0.0011228647483212,0.0011228865746206,-0.0011228881556393,0.0011228631820397,0.67934588390943,125803,2834,0.0060555181087955,0.0060555181091321,0.0043449638240627,17.884422829405,-9.6924617364756e-05,-9.6924617364756e-05,-9.6924617364756e-05,2339172.5829339,0.016592862774073
24619200,0.99153515836451,0.016582898964565,0.0059695864234534,0.0059695864238433,0.0046437261172687,-0.0014585402167937,0.0014585400347159,1.1892611873753e-08,-1.2078939102114e-08,9.1024879870049e-10,-1.127244654979e-09,-0.0015344618684425,0.0015344703621908,-0.0015344698470833,0.0015344623428239,-0.0015344625174952,0.0015344696585851,-0.0015344704854366,0.0015344616719737,-0.0013350523967756,0.0013350749732031,-0.0013350758110968,0.001335051497168,-9.2538688059542e-10,1.1217251362707e-09,-2.7607574880797e-09,2.92649637546e-09,-0.0014585400451615,0.0014585402067363,-0.0015344672623639,0.0015344648924199,-0.0015344654127784,0.0015344667678463,-0.0015344666362475,0.0015344655615638,-0.0015344647645795,0.0015344674583628,-0.0013350660348376,0.0013350612689912,-0.0013350604625677,0.0013350669259292,-0.0014324482945587,0.0014324482993307,-0.0014324462892958,0.0014324503989861,-1.1912397591097e-08,1.2292857593109e-08,-0.001045183857608,0.0010451842086468,2.9957539152375e-09,-2.6979837306383e-09,-0.0011334873334252,0.0011334815306055,-0.0011334892572406,0.0011334796239213,-0.0011334792603896,0.0011334895814735,-0.0011334811656232,0.0011334876984747,-0.0011234022418533,0.00112342443808,-0.0011234259723559,0.0011234007243147,0.7094445705536,125803,2834,0.0060583021981533,0.0060583021989561,0.0043470277817308,18.071272004892,-9.5429823960861e-05,-9.5429823960861e-05,-9.5429823960861e-05,2339136.3361094,0.016600621832037
24819200,0.99173367913723,0.016585971992812,0.0059707033945009,0.0059707033948907,0.0046445652034199,-0.0014592323374338,0.0014592321547868,1.2032441031304e-08,-1.2219331547103e-08,9.1379175070103e-10,-1.1313853345429e-09,-0.0015351457283611,0.001535154312493,-0.0015351537953929,0.0015351462047742,-0.0015351463745764,0.0015351536116111,-0.0015351544416125,0.0015351455259273,-0.0013357393304263,0.0013357621943988,-0.0013357630353622,0.0013357384277703,-9.3344307313133e-10,1.1307344990864e-09,-2.7042262803644e-09,2.8708706250348e-09,-0.0014592321649868,0.0014592323275538,-0.0015351511538968,0.0015351488113198,-0.0015351493359236,0.0015351506545715,-0.0015351505168247,0.0015351494914602,-0.001535148687529,0.0015351513454296,-0.0013357530461641,0.0013357484126736,-0.0013357475990756,0.0013357539432207,-0.0014331411945283,0.0014331411619323,-0.0014331391881282,0.0014331432620951,-1.1989480994983e-08,1.2374621714213e-08,-0.0010456594111921,0.0010456597670261,2.9472225310402e-09,-2.6441043046573e-09,-0.0011340647172866,0.0011340588264729,-0.001134066601544,0.0011340569591411,-0.001134056585615,0.001134066935863,-0.0011340584620588,0.0011340650817388,-0.0011239143076113,0.0011239366822132,-0.001123938177354,0.0011239128288567,0.66112226137666,125803,2834,0.0060611671405547,0.0060611671412163,0.0043490044980641,18.257878071618,-9.3936975427058e-05,-9.3936975427058e-05,-9.3936975427058e-05,2335325.5327654,0.0166084570961
25019200,0.99193209176894,0.016589007312223,0.0059718074456709,0.0059718074460609,0.0046453924204914,-0.0014602207814887,0.0014602206001159,1.2154635497641e-08,-1.234030074893e-08,9.0508623123691e-10,-1.1213030894309e-09,-0.0015361469267591,0.0015361555856366,-0.0015361550736391,0.0015361473983286,-0.0015361475659131,0.0015361548922834,-0.0015361557146995,0.0015361467246473,-0.0013366957868467,0.0013367188996646,-0.0013367197331286,0.0013366948914314,-9.0152160701609e-10,1.0935951868699e-09,-2.6736392045477e-09,2.8354378510626e-09,-0.0014602206121081,0.0014602207698242,-0.0015361523703819,0.0015361500667138,-0.001536150573252,0.0015361518891741,-0.0015361517551544,0.0015361507250895,-0.0015361499484787,0.0015361525557702,-0.0013367096072751,0.0013367050139137,-0.0013367042275479,0.0013367104759028,-0.0014341281478056,0.0014341281598255,-0.0014341262121229,0.0014341301877023,-1.2086684605946e-08,1.2473729517361e-08,-0.0010464794647672,0.001046479822535,2.926968910381e-09,-2.6216556241357e-09,-0.00113493015782,0.0011349241882392,-0.0011349320269298,0.0011349223363767,-0.0011349219598652,0.0011349323641903,-0.0011349238230905,0.0011349305230377,-0.0011247739100157,0.0011247964896135,-0.0011247979688785,0.0011247724477821,0.65362536061168,125803,2834,0.0060652601344446,0.0060652601351218,0.0043524081491035,18.629026155052,-9.0967790759585e-05,-9.0967790759585e-05,-9.0967790759585e-05,2340234.2404733,0.016620239462057
25219200,0.99213359073821,0.01659219333914,0.0059729638659482,0.0059729638663384,0.0046462656068538,-0.0014617338728234,0.0014617336998913,1.2250240172983e-08,-1.2427520145025e-08,8.5122430032899e-10,-1.0584218872908e-09,-0.0015376749097528,0.0015376836018815,-0.0015376831199433,0.0015376753510805,-0.0015376755129091,0.001537682944698,-0.0015376837202954,0.0015376747186121,-0.0013381720235726,0.0013381953553336,-0.001338196141771,0.0013381711754979,-8.6747295712015e-10,1.0534846062249e-09,-2.6866713140793e-09,2.842892237873e-09,-0.0014617337104723,0.0014617338625657,-0.0015376803627746,0.0015376780739735,-0.0015376785610935,0.0015376799006166,-0.0015376797743543,0.001537678704824,-0.0015376779586726,0.0015376805449866,-0.00133818598189,0.0013381813313257,-0.0013381805753418,0.0013381868209724,-0.0014356445979855,0.001435644676564,-0.0014356427280668,0.0014356466390663,-1.221503901652e-08,1.2602101820381e-08,-0.001047805700304,0.0010478060580894,2.9260221249296e-09,-2.6206854894252e-09,-0.0011362987769145,0.0011362927237954,-0.0011363006476558,0.0011362908698757,-0.0011362904958903,0.00113630098264,-0.0011362923562161,0.001136299144511,-0.0011261527243713,0.0011261755631473,-0.0011261770412481,0.0011261512622726,0.67454672175343,125803,2834,0.0060715259052787,0.006071525905947,0.0043579118559337,19.26939095049,-8.5844872396084e-05,-8.5844872396084e-05,-8.5844872396084e-05,2347532.7799905,0.016638574734021
25419200,0.99233806373126,0.016595694347107,0.0059742288756245,0.0059742288760148,0.0046472365954681,-0.0014633060030102,0.0014633058393841,1.2309301442114e-08,-1.2477257875807e-08,7.9379396108055e-10,-9.91020882757e-10,-0.0015392516718357,0.0015392603768213,-0.0015392599275868,0.0015392520822415,-0.0015392522434298,0.0015392597542021,-0.0015392604802115,0.0015392514994808,-0.0013397216916628,0.0013397451553322,-0.0013397458909827,0.0013397208954897,-8.543539977777e-10,1.0401789851911e-09,-2.7123875335303e-09,2.8688121666252e-09,-0.0014633058456041,0.0014633059973637,-0.0015392571320612,0.0015392548425697,-0.0015392553228273,0.001539256680081,-0.0015392565614618,0.0015392554571279,-0.001539254720574,0.0015392573218142,-0.001339735758351,0.0013397310240169,-0.0013397302774797,0.0013397365896834,-0.0014372278530881,0.0014372279476386,-0.0014372259834013,0.0014372299095925,-1.238004222585e-08,1.2767985541159e-08,-0.0010491563519267,0.001049156710696,2.9198107615502e-09,-2.6136003829908e-09,-0.0011377190618452,0.001137712903663,-0.0011377209379458,0.0011377110480706,-0.0011377106797924,0.0011377212654311,-0.0011377125277761,0.0011377194395234,-0.0011275644867939,0.0011275876807171,-0.0011275891529432,0.0011275630304644,0.72789188466583,125803,2834,0.0060780356973285,0.0060780356985156,0.0043635180909164,19.916720190986,-8.066623847211e-05,-8.066623847211e-05,-8.066623847211e-05,2351206.7650891,0.016657510916267
25619200,0.99254529611969,0.016599265016239,0.0059755193116433,0.0059755193120334,0.0046482263925621,-0.0014649464150451,0.0014649462545427,1.2427463630458e-08,-1.2592390498055e-08,7.7416312367151e-10,-9.6808610475167e-10,-0.0015408734796765,0.0015408822497901,-0.0015408818113794,0.0015408738776604,-0.0015408740344247,0.0015408816418964,-0.0015408823495998,0.0015408733081674,-0.0013413644352916,0.0013413881500638,-0.0013413888686909,0.0013413636553301,-8.2456997842376e-10,1.00366549783e-09,-2.7243248907028e-09,2.8741579749982e-09,-0.0014649462621802,0.0014649464077558,-0.0015408789678086,0.0015408766871132,-0.0015408771506437,0.0015408785300135,-0.0015408784167043,0.0015408772805857,-0.0015408765715191,0.0015408791503952,-0.0013413786473806,0.0013413738718775,-0.0013413731533776,0.0013413794499623,-0.0014388819713642,0.001438882137199,-0.0014388801723789,0.0014388840281747,-1.2483885963506e-08,1.2870037980292e-08,-0.0010504914703725,0.0010504918272138,2.9332815229358e-09,-2.6289948440222e-09,-0.0011391940031142,0.0011391877815443,-0.0011391958861155,0.0011391859158615,-0.0011391855497523,0.0011391962132026,-0.0011391874079669,0.0011391943770021,-0.0011289684024273,0.0011289917809093,-0.001128993264364,0.0011289669341166,0.73243472230841,125803,2834,0.0060848271064139,0.0060848271071333,0.0043690627550606,20.564318702071,-7.5485450383436e-05,-7.5485450383436e-05,-7.5485450383436e-05,2347355.181893,0.016676958043219
25819200,0.99274992346467,0.016602697357607,0.0059767623487102,0.0059767623491004,0.0046491726597966,-0.0014657877779185,0.0014657876017935,1.2593938948045e-08,-1.2774627213907e-08,8.6638478418661e-10,-1.0769127101148e-09,-0.0015417000071228,0.0015417089326731,-0.0015417084433687,0.0015417004548751,-0.0015417006148383,0.0015417082667296,-0.0015417090559803,0.0015416998080058,-0.0013422087813461,0.0013422327861007,-0.0013422335892165,0.0013422079171297,-7.9693571916082e-10,9.6736534216523e-10,-2.6877403352451e-09,2.828804988317e-09,-0.0014657876210009,0.0014657877587207,-0.0015417055576126,0.0015417033067309,-0.0015417037554893,0.0015417051314114,-0.0015417050148229,0.0015417038883688,-0.0015417032080786,0.001541705722607,-0.0013422230970693,0.0013422184020823,-0.0013422177139821,0.0013422238671607,-0.0014397286208889,0.0014397288473398,-0.0014397269134786,0.00143973063944,-1.2529250472785e-08,1.291492725719e-08,-0.0010510603223183,0.001051060678681,2.9392517822543e-09,-2.6353191290706e-09,-0.0011398981776346,0.0011398919181091,-0.0011399000504376,0.0011398900551892,-0.0011398896805138,0.0011399003883641,-0.0011398915537227,0.0011398985388886,-0.0011295865575557,0.0011296099872418,-0.0011296114762999,0.0011295850841944,0.71386316510422,125803,2834,0.0060883094668435,0.0060883094668626,0.0043714278595095,20.804397050073,-7.3564823599412e-05,-7.3564823599412e-05,-7.3564823599412e-05,2341773.4273661,0.016686444388116
26019200,0.99294741261506,0.016605879214435,0.0059779177998018,0.0059779178001923,0.0046500436144408,-0.0014658677591659,0.0014658675817132,1.2659377111131e-08,-1.2841126284524e-08,8.8186392166253e-10,-1.0939162219633e-09,-0.0015417756511202,0.0015417846391219,-0.0015417841398305,0.0015417761098327,-0.001541776280277,0.0015417839553578,-0.0015417847574798,0.0015417754598303,-0.0013422829986218,0.0013423070972534,-0.0013423079100934,0.0013422821244393,-9.1569679697377e-10,1.10960478763e-09,-2.6532704959621e-09,2.8167403620595e-09,-0.001465867590878,0.001465867750295,-0.001541781253679,0.0015417789615165,-0.0015417794757449,0.0015417807638611,-0.0015417806350572,0.0015417796225518,-0.0015417788346758,0.0015417814477188,-0.001342297296504,0.0013422927332328,-0.0013422919351679,0.001342298177214,-0.0014398075301559,0.0014398074812563,-0.0014398055450337,0.0014398095590854,-1.2680751340017e-08,1.3071340687985e-08,-0.0010509405046068,0.0010509408659849,2.8857997977493e-09,-2.5764066064575e-09,-0.0011398722275559,0.0011398658422079,-0.0011398740742085,0.0011398640116925,-0.0011398636386216,0.0011398744082174,-0.0011398654666152,0.0011398726031553,-0.001129495782836,0.0011295195809898,-0.0011295210276769,0.0011294943524113,0.68688289101768,125803,2834,0.0060886394094702,0.0060886394100783,0.0043709340522143,20.676007037948,-7.4591943696414e-05,-7.4591943696414e-05,-7.4591943696414e-05,2337392.725153,0.016686613816745
26219200,0.99313793946601,0.016609129277889,0.0059790937975964,0.0059790937979868,0.0046509416823059,-0.001465889162455,0.001465888976187,1.2774840592859e-08,-1.2965334865096e-08,9.3700997881187e-10,-1.1584863957417e-09,-0.0015417998110648,0.0015418089088672,-0.0015418083788199,0.0015418003007269,-0.0015418004779613,0.0015418081869358,-0.0015418090371885,0.0015417996091438,-0.0013422907369599,0.0013423150263671,-0.0013423158878946,0.0013422898139901,-9.6666880746089e-10,1.1693013653543e-09,-2.6163853564407e-09,2.7878837283011e-09,-0.0014658889857243,0.0014658891532417,-0.0015418054725113,0.001541803171926,-0.0015418037150397,0.0015418049538596,-0.0015418048159588,0.0015418038718068,-0.0015418030387899,0.0015418056729196,-0.0013423050740223,0.0013423006242834,-0.0013422997814858,0.0013423059990129,-0.0014398346926441,0.0014398345258936,-0.0014398326037186,0.001439836708883,-1.2779189196029e-08,1.31722934543e-08,-0.0010508131896129,0.0010508135535176,2.8585671079393e-09,-2.5463339854781e-09,-0.0011397912377869,0.0011397847676962,-0.0011397930639803,0.0011397829579946,-0.0011397825809524,0.001139793401941,-0.0011397843911024,0.001139791614206,-0.0011293997887156,0.0011294237990754,-0.0011294252242548,0.0011293983802524,0.72524658623208,125803,2834,0.0060887274372411,0.0060887274379106,0.0043704074400248,20.538019369993,-7.5695845040059e-05,-7.5695845040059e-05,-7.5695845040059e-05,2336639.1382224,0.016686257443486
26419200,0.99332178491025,0.016612354503503,0.0059802591373095,0.0059802591377,0.0046518362284931,-0.0014659462481244,0.0014659460543257,1.2891085613125e-08,-1.3089051933213e-08,9.8508494897806e-10,-1.2146076329235e-09,-0.0015418427902376,0.0015418519932083,-0.0015418514361322,0.0015418433070062,-0.0015418434896513,0.0015418512383898,-0.0015418521306305,0.0015418425788541,-0.0013423539331646,0.0013423784211115,-0.0013423793246349,0.0013423529681829,-9.9879932171927e-10,1.2066756729306e-09,-2.5869192393668e-09,2.7632648382883e-09,-0.0014659460651577,0.0014659462375985,-0.0015418485052014,0.0015418462025778,-0.0015418467637101,0.0015418479682845,-0.0015418478239003,0.0015418469274303,-0.0015418460663919,0.0015418487087025,-0.0013423683264415,0.0013423639629623,-0.0013423630920595,0.0013423692788865,-0.0014399018758711,0.0014399016332493,-0.0014398997241137,0.0014399038792302,-1.2878054775755e-08,1.3272733528572e-08,-0.0010506773180158,0.0010506776835446,2.8386444520002e-09,-2.5245586877748e-09,-0.0011397432500753,0.001139736699461,-0.0011397450605884,0.0011397349055182,-0.0011397345249713,0.0011397454019177,-0.0011397363230871,0.0011397436262259,-0.0011292984923476,0.0011293227078132,-0.0011293241177192,0.0011292970996308,0.74502753044447,125803,2834,0.006088962592147,0.0060889625927796,0.0043698470946823,20.399645555108,-7.6802835559139e-05,-7.6802835559139e-05,-7.6802835559139e-05,2330553.0496401,0.016686166282674
26619200,0.99350325247035,0.016615509146731,0.0059813998548185,0.0059813998552091,0.004652709436703,-0.001466730710612,0.0014667305213266,1.3026475480351e-08,-1.3220000564116e-08,9.5803942267091e-10,-1.1827008427129e-09,-0.0015426033363602,0.0015426126128738,-0.0015426120710734,0.0015426038380983,-0.001542604015787,0.0015426118783008,-0.0015426127461222,0.0015426031288558,-0.001343148610971,0.0013431733849298,-0.0013431742647566,0.0013431476693716,-9.8593586345379e-10,1.1919124223177e-09,-2.5991111088887e-09,2.7734468707416e-09,-0.0014667305308861,0.0014667307013751,-0.0015426090882509,0.0015426067848657,-0.0015426073395511,0.0015426085588426,-0.0015426084160279,0.0015426075016696,-0.001542606651179,0.001542609289206,-0.0013431631636438,0.0013431587683816,-0.0013431579085614,0.0013431641047292,-0.0014406985706769,0.0014406983644424,-0.0014406964484861,0.0014407005806327,-1.2965904920539e-08,1.3357986672324e-08,-0.0010512025933381,0.001051202956202,2.8595836604762e-09,-2.5484297535613e-09,-0.0011403903277778,0.0011403837318384,-0.0011403921526051,0.0011403819229878,-0.0011403815449175,0.0011403924920089,-0.0011403833584847,0.001140390700556,-0.0011298751908283,0.001129899556362,-0.0011299009843464,0.0011298737809584,0.73848437602103,125803,2834,0.0060922094924349,0.006092209493101,0.0043720311006591,20.629367563856,-7.4965059489152e-05,-7.4965059489152e-05,-7.4965059489152e-05,2324941.5488066,0.016694989495488
26819200,0.9936845354113,0.01661858388028,0.0059825136275797,0.0059825136279706,0.0046535566247299,-0.0014678991158767,0.0014678989333714,1.3121900535181e-08,-1.3308680844583e-08,9.140770420444e-10,-1.131502639077e-09,-0.0015437546546127,0.0015437639674757,-0.0015437634501888,0.0015437551314412,-0.0015437553032391,0.0015437632640823,-0.0015437640940749,0.0015437544545813,-0.0013443170425568,0.0013443420338393,-0.0013443428750956,0.0013443161395938,-9.310755720451e-10,1.1275412718615e-09,-2.6472647482179e-09,2.8130338170714e-09,-0.001467898943903,0.0014678991056616,-0.0015437604239454,0.0015437581227641,-0.0015437586460573,0.0015437599254108,-0.0015437597909907,0.0015437587987354,-0.0015437579971675,0.0015437606167212,-0.001344331770859,0.0013443272403968,-0.0013443264290429,0.0013443326644218,-0.0014418742826437,0.0014418742107755,-0.0014418722752306,0.0014418763113263,-1.309550137256e-08,1.348410230746e-08,-0.0010520957815514,0.00105209614091,2.8924034526445e-09,-2.5851309202354e-09,-0.0011414070317536,0.0011414003703872,-0.0011414088803188,0.001141398538377,-0.0011413981639299,0.0011414092157837,-0.0011414000002097,0.0011414074017039,-0.0011308236777372,0.0011308482684188,-0.0011308497224912,0.0011308222405658,0.72121902743457,125803,2834,0.0060970463985887,0.0060970463992426,0.0043757413319475,21.063540344755,-7.1491677241958e-05,-7.1491677241958e-05,-7.1491677241958e-05,2322893.9442282,0.016708597684169
27019200,0.99386553878793,0.016621569506266,0.0059835972483414,0.0059835972487324,0.0046543750091926,-0.0014690526506012,0.0014690524742324,1.3214488601915e-08,-1.3395193066047e-08,8.7444202092591e-10,-1.0852859353773e-09,-0.0015449029692677,0.0015449123200826,-0.0015449118251004,0.0015449034236752,-0.001544903590077,0.0015449116447428,-0.0015449124402891,0.0015449027759299,-0.0013454571761347,0.0013454823760847,-0.0013454831829669,0.001345456307709,-8.8075075449255e-10,1.0686741303888e-09,-2.6959814815652e-09,2.8538171380586e-09,-0.0014690524856812,0.0014690526394601,-0.001544908758073,0.0015449064560571,-0.0015449069512114,0.0015449082880607,-0.0015449081615352,0.0015449070950608,-0.0015449063378239,0.00154490894343,-0.0013454720750657,0.0013454674113133,-0.0013454666446489,0.0013454729249463,-0.0014430296526453,0.0014430297082639,-0.0014430277508117,0.0014430317023966,-1.3227442671811e-08,1.3612693328151e-08,-0.0010529976629411,0.0010529980188925,2.9252734029901e-09,-2.6217921483492e-09,-0.0011424118170489,0.0011424050889529,-0.0011424136891159,0.0011424032332223,-0.0011424028626404,0.0011424140208216,-0.0011424047215784,0.0011424121841185,-0.0011317757788216,0.0011318005993484,-0.0011318020796758,0.0011317743151143,0.70228503366113,125803,2834,0.0061018220525521,0.0061018220531879,0.0043794866013265,21.50308985062,-6.7975281195043e-05,-6.7975281195043e-05,-6.7975281195043e-05,2324109.0389665,0.016722117019855
27219200,0.9940461062291,0.016624457124688,0.0059846475239474,0.0059846475243385,0.0046551620764017,-0.0014701787871701,0.0014701786172344,1.333883014366e-08,-1.3513161326668e-08,8.3380999620638e-10,-1.0377816744234e-09,-0.0015460346786724,0.0015460440872923,-0.0015460436150855,0.0015460351101911,-0.00154603526998,0.0015460434417954,-0.0015460442017392,0.0015460344913552,-0.0013465568100542,0.0013465822845152,-0.0013465830556966,0.0013465559771686,-8.4503264989142e-10,1.0269250742573e-09,-2.7333243287075e-09,2.8855760048176e-09,-0.0014701786282879,0.0014701787764305,-0.0015460404980183,0.0015460381927925,-0.0015460386680425,0.001546040048312,-0.001546039926584,0.0015460388065057,-0.0015460380805901,0.001546040677323,-0.001346571894809,0.0013465671335375,-0.0013465663983364,0.0013465727138075,-0.0014441541474057,0.0014441542977413,-0.0014441523229887,0.0014441562140609,-1.3327994460572e-08,1.3709298696982e-08,-0.0010539018091729,0.0010539021611169,2.9636973643519e-09,-2.6646671675293e-09,-0.0011433929250121,0.0011433861538362,-0.0011433948236361,0.001143384271442,-0.0011433839043903,0.0011433951519242,-0.0011433857908688,0.0011433932876854,-0.0011327258896131,0.0011327508705979,-0.001132752381803,0.0011327243947569,0.68191770206362,125803,2834,0.0061064846402137,0.006106484640862,0.0043832401420304,21.942856151931,-6.4457150784555e-05,-6.4457150784555e-05,-6.4457150784555e-05,2328158.8933124,0.016735414867076
27419200,0.99422466442457,0.01662740123138,0.0059857162748756,0.0059857162752668,0.0046559686812375,-0.0014710269972136,0.0014710268274415,1.3456396294918e-08,-1.3630550782559e-08,8.3404738313084e-10,-1.0378907868548e-09,-0.0015468983553413,0.0015469078428029,-0.0015469073702286,0.0015468987875865,-0.0015468989478644,0.0015469071980501,-0.0015469079583429,0.0015468981687711,-0.0013473706714883,0.0013473963767229,-0.0013473971482071,0.0013473698391903,-8.2569574009133e-10,1.005387271528e-09,-2.750409737618e-09,2.9007392296062e-09,-0.001471026839443,0.0014710269855332,-0.0015469042138842,0.0015469019096331,-0.0015469023736263,0.00154690377661,-0.0015469036564227,0.0015469025099967,-0.00154690179981,0.0015469043909652,-0.0013473858948387,0.0013473810858428,-0.0013473803675798,0.0013473866977082,-0.0014450022450348,0.0014450024440515,-0.0014450004606782,0.0014450043190837,-1.3431585520587e-08,1.3810286164061e-08,-0.0010545789863973,0.0010545793357041,2.9876528882036e-09,-2.6914892755753e-09,-0.0011441117127897,0.0011441048882121,-0.0011441136295547,0.001144102990306,-0.0011441026248799,0.0011441139548037,-0.0011441045288759,0.0011441120734828,-0.0011334439580397,0.0011334691201285,-0.0011334706506598,0.001133442444846,0.70214876031276,125803,2834,0.0061099967802668,0.0061099967809312,0.0043860507045439,22.251420611322,-6.1988635109421e-05,-6.1988635109421e-05,-6.1988635109421e-05,2333648.748378,0.016745414418622
27619200,0.99440068764418,0.016630347816371,0.0059867850289314,0.0059867850293224,0.0046567777581167,-0.0014718157391406,0.0014718155679723,1.3574963392304e-08,-1.3750380051916e-08,8.4417198477239e-10,-1.0494618094856e-09,-0.0015476932472697,0.0015477028203813,-0.001547702341883,0.0015476936854561,-0.0015476938471827,0.0015477021681844,-0.0015477029370404,0.0015476930591418,-0.0013481359881994,0.001348161917287,-0.0013481626961363,0.0013481351466731,-8.2754607497664e-10,1.0083716317238e-09,-2.7568210365585e-09,2.9083542630825e-09,-0.0014718155803465,0.0014718157272412,-0.0015476991513938,0.0015476968414762,-0.0015476973067243,0.0015476987131306,-0.001547698592806,0.0015476974434695,-0.001547696731131,0.0015476993287568,-0.0013481513297183,0.0013481465099436,-0.0013481457876369,0.0013481521359615,-0.0014457947423561,0.0014457949401897,-0.001445792953393,0.0014457968239998,-1.3532920094759e-08,1.3910066402079e-08,-0.0010551804464452,0.0010551807942059,3.0018526675866e-09,-2.7075168599023e-09,-0.0011447738603515,0.0011447669775443,-0.0011447757877627,0.001144765069873,-0.0011447647060182,0.0011447761114903,-0.001144766619364,0.0011447742195403,-0.0011340886938332,0.0011341140411648,-0.0011341155841797,0.0011340871684191,0.71252804767355,125803,2834,0.0061132623049215,0.0061132623059033,0.0043885481141083,22.518530940755,-5.985175247396e-05,-5.985175247396e-05,-5.985175247396e-05,2335382.2804634,0.016754594348551
27819200,0.99457410607359,0.016633298775051,0.0059878544367797,0.0059878544371707,0.0046575899011005,-0.0014726115984854,0.0014726114273342,1.3672101899495e-08,-1.3847603556158e-08,8.4253283825895e-10,-1.0478185129225e-09,-0.001548490307078,0.0015484999429248,-0.0015484994655433,0.0015484907436814,-0.0015484909044301,0.0015484992915377,-0.0015485000590412,0.001548490118212,-0.0013489141130683,0.0013489402351748,-0.0013489410136657,0.0013489132727787,-8.5569043024473e-10,1.0394647377622e-09,-2.7686487082503e-09,2.9226497650191e-09,-0.0014726114381373,0.0014726115880102,-0.0015484962551201,0.0015484939195373,-0.0015484944008836,0.0015484957997083,-0.0015484956758201,0.0015484945412774,-0.0015484938062734,0.0015484964359105,-0.0013489295517568,0.0013489247298563,-0.00134892398563,0.001348930380395,-0.0014465967296612,0.0014465968840699,-0.0014465948836358,0.0014465988224168,-1.3655155489845e-08,1.4033031556754e-08,-0.0010557788252463,0.0010557791737038,2.9996457810165e-09,-2.7045218755505e-09,-0.0011454428145486,0.0011454358482477,-0.0011454447383538,0.0011454339411002,-0.001145433576901,0.0011454450635048,-0.0011454354891821,0.0011454431735743,-0.0011347327985839,0.0011347583867539,-0.0011347599269093,0.0011347312751396,0.7238335407718,125803,2834,0.0061165571092182,0.0061165571098955,0.0043910332764458,22.784528140918,-5.7723774872657e-05,-5.7723774872657e-05,-5.7723774872657e-05,2335539.1420128,0.016763821510701
28019200,0.99474486419031,0.016636255971322,0.0059889251739333,0.0059889251743244,0.0046584056230643,-0.0014734171042975,0.0014734169297403,1.3788920470886e-08,-1.3967800447755e-08,8.639040826174e-10,-1.0728361164166e-09,-0.0015492920140186,0.0015493017411368,-0.0015493012517427,0.0015492924626175,-0.001549292626759,0.0015493010741407,-0.0015493018603625,0.0015492918217575,-0.0013497077604446,0.0013497340955502,-0.0013497348928407,0.0013497069012856,-8.6322161770153e-10,1.0481679676674e-09,-2.7662441113947e-09,2.921299676984e-09,-0.0014734169417015,0.001473417092655,-0.001549298009058,0.0015492956706199,-0.0015492961562535,0.0015492975493428,-0.0015492974245461,0.0015492962976492,-0.0015492955561637,0.0015492981910513,-0.0013497233007651,0.0013497184885492,-0.0013497177379777,0.0013497241357323,-0.0014474100559361,0.001447410193833,-0.0014474081936568,0.0014474121486073,-1.3756667621531e-08,1.4133945101326e-08,-0.0010563740397447,0.0010563743876072,3.0064660844219e-09,-2.7120212407846e-09,-0.0011461206380898,0.0011461136085416,-0.0011461225668072,0.0011461116965877,-0.0011461113330796,0.0011461228912407,-0.0011461132499013,0.0011461209965925,-0.0011353762546208,0.0011354020358706,-0.0011354035814507,0.0011353747259782,0.73612507367277,125803,2834,0.0061198916313273,0.0061198916319859,0.0043935058769946,23.050480237231,-5.5596158102155e-05,-5.5596158102155e-05,-5.5596158102155e-05,2334243.7390975,0.016773116829307
28219200,0.99491225065805,0.016639209746541,0.0059899937519574,0.0059899937523485,0.004659222242235,-0.0014741028237602,0.0014741026461321,1.3901269850513e-08,-1.408319142764e-08,8.8354275114015e-10,-1.0957587274407e-09,-0.0015499689357796,0.0015499787495077,-0.0015499782490092,0.0015499693954304,-0.0015499695621751,0.0015499780685506,-0.0015499788719227,0.0015499687400566,-0.0013503885698479,0.0013504151116974,-0.001350415926096,0.0013503876935597,-8.8516367121039e-10,1.0737400800872e-09,-2.7554573662439e-09,2.9138503484713e-09,-0.0014741026579437,0.0014741028122699,-0.0015499749774146,0.0015499726322595,-0.0015499731301734,0.0015499745051535,-0.0015499743768837,0.0015499732753485,-0.0015499725148158,0.0015499751624813,-0.001350404194672,0.0013503994203154,-0.0013503986505819,0.0013504050487419,-0.001448103892684,0.0014481039821696,-0.0014481019848398,0.001448105983185,-1.3862089606906e-08,1.4240282635964e-08,-0.0010568449403517,0.0010568452891418,2.9990198483258e-09,-2.7035593162327e-09,-0.0011466848258777,0.0011466777211177,-0.0011466867489402,0.0011466758146538,-0.0011466754499356,0.0011466870745705,-0.0011466773618561,0.0011466851849561,-0.0011358948679218,0.0011359208617521,-0.0011359224012081,0.0011358933454262,0.74948914837078,125803,2834,0.0061227299144227,0.0061227299150864,0.0043954631939797,23.250451567571,-5.3996387459435e-05,-5.3996387459435e-05,-5.3996387459435e-05,2331000.674853,0.016780879244009
28419200,0.99507617270425,0.016642161057566,0.0059910604931123,0.0059910604935035,0.0046600400709503,-0.001474778622567,0.001474778442943,1.3993358412565e-08,-1.4177260219491e-08,8.9678298977759e-10,-1.1111420534318e-09,-0.0015506300690757,0.001550639952589,-0.0015506394446347,0.0015506305362541,-0.0015506307052926,0.0015506392617347,-0.0015506400765519,0.0015506298717648,-0.0013510660350357,0.0013510927467812,-0.0013510935726682,0.0013510651474051,-9.0692283595343e-10,1.099113522102e-09,-2.7468491012412e-09,2.9085895940514e-09,-0.0014747784540511,0.0014747786117725,-0.0015506361492006,0.0015506337967359,-0.0015506343069035,0.0015506356646654,-0.0015506355335459,0.0015506344551878,-0.0015506336755999,0.0015506363381333,-0.0013510817291474,0.0013510769862665,-0.0013510761974364,0.0013510826021045,-0.0014487895280016,0.0014487895690698,-0.0014487875727414,0.001448791617402,-1.3987878636776e-08,1.4367931155213e-08,-0.0010572907663388,0.0010572911170074,2.9825279903025e-09,-2.6849909281753e-09,-0.0011472365347857,0.0011472293359728,-0.0011472384465543,0.001147227440835,-0.0011472270746455,0.0011472387736099,-0.0011472289745124,0.0011472368961376,-0.0011363906086609,0.0011364168651532,-0.001136418391057,0.0011363890998116,0.76402414376149,125803,2834,0.0061255269007539,0.0061255269014016,0.004397317028649,23.441100111173,-5.2471199110618e-05,-5.2471199110618e-05,-5.2471199110618e-05,2326472.1235172,0.016788452573555
28619200,0.99523663515529,0.016645069657127,0.0059921117370444,0.0059921117374358,0.0046608461826464,-0.0014754607317379,0.0014754605499813,1.4112493086435e-08,-1.4298508502968e-08,9.1076325563124e-10,-1.1274050946659e-09,-0.0015512924089821,0.0015513023804994,-0.0015513018646366,0.0015512928841181,-0.0015512930548237,0.0015513016799486,-0.0015513025068797,0.0015512922091131,-0.001351755331671,0.0013517822678482,-0.0013517831058819,0.0013517544318218,-9.179566902297e-10,1.1119237155434e-09,-2.7299185099718e-09,2.8933009200731e-09,-0.0014754605613331,0.0014754607207031,-0.001551298531019,0.0015512961826856,-0.0015512966990813,0.0015512980401827,-0.0015512979072032,0.0015512968495019,-0.0015512960602685,0.0015512987211464,-0.001351771116999,0.0013517664163339,-0.0013517656178513,0.0013517719993301,-0.0014494814258925,0.0014494814354605,-0.0014494794484095,0.0014494835064091,-1.4086896086305e-08,1.4467862247798e-08,-0.0010577240647134,0.0010577244163212,2.9725779181454e-09,-2.6739925688294e-09,-0.001147790816328,0.001147783544764,-0.0011477927207964,0.0011477816570239,-0.0011477812895291,0.0011477930491226,-0.0011477831827541,0.0011477911782091,-0.0011368748887071,0.0011369013466896,-0.0011369028647298,0.0011368733878312,0.76896077240634,125803,2834,0.0061283497798371,0.006128349780492,0.0043991194498414,23.631484433673,-5.0948124530618e-05,-5.0948124530618e-05,-5.0948124530618e-05,2320911.6578306,0.016796026434506
28819200,0.99539366808682,0.016647842141818,0.0059931156454706,0.005993115645862,0.0046616108504856,-0.0014761384319001,0.0014761382495049,1.4201046684948e-08,-1.4387718738304e-08,9.1486815452352e-10,-1.1322082046989e-09,-0.0015519508484658,0.0015519608815782,-0.0015519603633959,0.0015519513258165,-0.0015519514974395,0.001551960177385,-0.0015519610078896,0.001551950648377,-0.0013524388471538,0.001352465952811,-0.0013524667945085,0.0013524379439636,-9.2714197091979e-10,1.1219969725976e-09,-2.7215007275392e-09,2.8856972987114e-09,-0.0014761382606865,0.0014761384209947,-0.0015519570011276,0.0015519546531108,-0.0015519551746449,0.0015519565046514,-0.0015519563711684,0.0015519553256803,-0.0015519545291196,0.0015519571928887,-0.0013524547063086,0.0013524500274045,-0.0013524492215355,0.0013524555959436,-0.0014501655205219,0.0014501655056064,-0.0014501635224791,0.001450167596161,-1.4216905801234e-08,1.4599730230204e-08,-0.0010581478603398,0.0010581482138225,2.9555065833026e-09,-2.6548282334577e-09,-0.0011483393837126,0.0011483320147576,-0.0011483412761804,0.0011483301382953,-0.0011483297695965,0.0011483416059417,-0.0011483316503016,0.0011483397477882,-0.0011373472185495,0.0011373739479959,-0.0011373754518525,0.00113734573146,0.74978432650101,125803,2834,0.0061311543560549,0.0061311543566252,0.0044008824715172,23.824075479678,-4.9407396162572e-05,-4.9407396162572e-05,-4.9407396162572e-05,2315844.2095436,0.016803523112297
29019200,0.99554840210917,0.016650427652027,0.0059940552256305,0.005994055226022,0.0046623172003745,-0.0014770184495915,0.0014770182705482,1.4270703857381e-08,-1.4454184170242e-08,8.9067971234618e-10,-1.1044885589268e-09,-0.0015528221923521,0.0015528322583821,-0.0015528317540551,0.0015528226550408,-0.0015528228248887,0.0015528315682908,-0.0015528323780654,0.0015528219975135,-0.0013533091473302,0.0013533364018135,-0.0013533372236426,0.0013533082654191,-9.2888465356439e-10,1.1211840633907e-09,-2.7318492359671e-09,2.8935547697409e-09,-0.0014770182808951,0.0014770184393104,-0.0015528283642651,0.0015528260104799,-0.0015528265329463,0.0015528278647979,-0.00155282773477,0.0015528266802781,-0.0015528258852896,0.001552828557525,-0.001353325092982,0.0013533203884682,-0.0013533195848822,0.001353325981205,-0.0014510466431083,0.0014510466261731,-0.0014510446371502,0.0014510487206505,-1.4367702753255e-08,1.4752406629398e-08,-0.0010587957641154,0.0010587961194388,2.9426062967505e-09,-2.6398117554021e-09,-0.0011490887845547,0.0011490813080352,-0.001149090667828,0.0011490794367372,-0.0011490790694031,0.0011490909975746,-0.0011490809388244,0.0011490891520488,-0.001138043138477,0.0011380701818754,-0.0011380716732403,0.0011380416616449,0.71130251546339,125803,2834,0.0061347971200569,0.0061347971201916,0.0044035741992899,24.1396332544,-4.6882933964797e-05,-4.6882933964797e-05,-4.6882933964797e-05,2314677.7552535,0.016813668563996
29219200,0.99570079254108,0.016652913484405,0.0059949599838462,0.005994959984238,0.0046629935163203,-0.0014778546247227,0.0014778544460233,1.4435841892175e-08,-1.4618835945773e-08,8.9082631492639e-10,-1.1041994167011e-09,-0.0015536688962719,0.0015536790720002,-0.0015536785674491,0.0015536693601064,-0.0015536695278888,0.0015536783856017,-0.0015536791951557,0.0015536686995922,-0.0013541140567928,0.0013541416410308,-0.0013541424619296,0.0013541131741965,-9.015204875797e-10,1.0923078466026e-09,-2.7162122788832e-09,2.8766212375193e-09,-0.0014778544572829,0.0014778546137372,-0.0015536751106989,0.0015536727819065,-0.0015536732891198,0.0015536746289137,-0.0015536744988518,0.0015536734366012,-0.0015536726619485,0.0015536752980787,-0.0013541301588589,0.0013541254727331,-0.0013541246890529,0.0013541310259749,-0.0014518794873658,0.001451879518887,-0.0014518775445702,0.0014518815539639,-1.4423253917108e-08,1.4806035203964e-08,-0.0010594595650097,0.0010594599184622,2.9543541503322e-09,-2.653709981421e-09,-0.0011498035985977,0.0011497960910056,-0.0011498054901278,0.0011497942156918,-0.0011497938467484,0.0011498058201475,-0.0011497957269198,0.0011498039623595,-0.0011387483175236,0.0011387754502425,-0.0011387769531564,0.0011387468312768,0.69516965328559,125803,2834,0.0061382591273528,0.006138259127919,0.0044063296820696,24.458353995892,-4.4333168032863e-05,-4.4333168032863e-05,-4.4333168032863e-05,2318848.5501985,0.01682351098465
29419200,0.99585076812244,0.016655195925696,0.0059957945929812,0.005995794593373,0.0046636067393418,-0.0014786624890501,0.0014786623112696,1.4574391793923e-08,-1.4756496925031e-08,8.8442442849963e-10,-1.096801488585e-09,-0.0015544974050392,0.0015545076675258,-0.0015545071666036,0.0015544978651913,-0.0015544980308731,0.0015545069869408,-0.0015545077910182,0.0015544972080442,-0.001354878493373,0.001354906357219,-0.0013549071725327,0.0013548776161889,-8.834749388e-10,1.0712674921578e-09,-2.7089682287658e-09,2.8665919106547e-09,-0.001478662323473,0.0014786624771305,-0.0015545036556744,0.0015545013414379,-0.0015545018383286,0.001554503183929,-0.0015545030553593,0.0015545019842248,-0.0015545012253526,0.0015545038389,-0.0013548947328297,0.0013548900515632,-0.0013548892835163,0.0013548955841672,-0.0014526792367051,0.0014526793017856,-0.0014526773358904,0.001452681294595,-1.4505261371479e-08,1.4887398402904e-08,-0.0010601261959445,0.0010601265487491,2.9595346457738e-09,-2.6595824562902e-09,-0.0011504987386841,0.0011504911787354,-0.0011505006326217,0.0011504893008841,-0.0011504889313185,0.001150500963286,-0.0011504908165368,0.0011504991004933,-0.0011394497437025,0.0011394770282993,-0.001139478535718,0.0011394482530464,0.65089855990546,125803,2834,0.0061416042648451,0.0061416042654308,0.0044090959154504,24.777202070874,-4.1782383433005e-05,-4.1782383433005e-05,-4.1782383433005e-05,2324886.4036978,0.016833126701299
29619200,0.99599817980964,0.016657406377504,0.0059966034645825,0.0059966034649744,0.0046641994479472,-0.0014793977900343,0.0014793976146206,1.4647509597401e-08,-1.4827232194058e-08,8.694500686031e-10,-1.0793093846039e-09,-0.0015552733594901,0.0015552836633876,-0.0015552831708519,0.0015552738114207,-0.001555273976734,0.0015552829920105,-0.0015552837831822,0.0015552731668677,-0.0013555488442316,0.0013555768567112,-0.0013555776589545,0.0013555479803599,-8.8238275663601e-10,1.0704688593978e-09,-2.715945849192e-09,2.8739022153814e-09,-0.0014793976255181,0.0014793977794322,-0.0015552796319608,0.0015552773156776,-0.0015552778117732,0.0015552791613443,-0.00155527903423,0.001555277956094,-0.0015552771977349,0.00155527981719,-0.0013555651678216,0.001355560466858,-0.0013555596993086,0.0013555660187182,-0.0014534048524955,0.0014534049188872,-0.0014534029481483,0.001453406915265,-1.4652640135714e-08,1.5035845588827e-08,-0.0010607924425424,0.001060792796436,2.9493728392836e-09,-2.6482371860817e-09,-0.0011511338400472,0.0011511261774458,-0.0011511357289553,0.0011511243053263,-0.0011511239362234,0.0011511360588429,-0.0011511258126492,0.0011511342049234,-0.0011401450764878,0.0011401726642709,-0.0011401741634795,0.0011401435941831,0.64191384722442,125803,2834,0.0061446498422932,0.0061446498429036,0.0044118581366888,25.086843455839,-3.9305252353288e-05,-3.9305252353288e-05,-3.9305252353288e-05,2336171.1373939,0.016842128769983
29819200,0.99614248355344,0.016659698980018,0.0059974388072693,0.0059974388076612,0.0046648213650877,-0.0014800169972348,0.0014800168209366,1.477562193501e-08,-1.4956204289519e-08,8.746839983572e-10,-1.0854904778345e-09,-0.0015559353016059,0.0015559456929601,-0.0015559451975272,0.001555935756364,-0.0015559359215269,0.0015559450187185,-0.0015559458145086,0.0015559351070442,-0.0013561038049685,0.0013561320676221,-0.0013561328741141,0.0013561029364302,-8.8039765733825e-10,1.0682585340782e-09,-2.7061072438756e-09,2.863898240382e-09,-0.0014800168323915,0.0014800169860851,-0.0015559416145143,0.0015559393048647,-0.0015559397997601,0.0015559411448356,-0.0015559410170802,0.0015559399448385,-0.001555939188075,0.0015559417984189,-0.0013561202431807,0.0013561155632095,-0.0013561147968586,0.0013561210927026,-0.0014540196534724,0.0014540197196747,-0.0014540177560727,0.0014540217093738,-1.4743777437927e-08,1.5127055303021e-08,-0.0010613686966526,0.0010613690506339,2.9481943892917e-09,-2.6469645172182e-09,-0.0011516629880413,0.0011516552626583,-0.0011516648750809,0.0011516533923692,-0.0011516530222363,0.0011516652060515,-0.0011516548986477,0.0011516633519755,-0.001140751288013,0.0011407790520385,-0.0011407805503309,0.0011407498064311,0.67837702209356,125803,2834,0.0061472148455202,0.0061472148461506,0.0044142466425514,25.339218425476,-3.7286252596195e-05,-3.7286252596195e-05,-3.7286252596195e-05,2346967.0253558,0.016849773429925
30019200,0.99628364969627,0.016661976777095,0.0059982678408224,0.0059982678412143,0.0046654410950584,-0.0014806792305467,0.0014806790538222,1.4883812282281e-08,-1.5064842328408e-08,8.7670868373974e-10,-1.0879681193208e-09,-0.0015566218729492,0.0015566323377172,-0.0015566318412418,0.0015566223287485,-0.0015566224942272,0.0015566316618859,-0.0015566324595319,0.0015566216778963,-0.0013567229276158,0.0013567514006466,-0.0013567522093656,0.0013567220570475,-8.8465504627794e-10,1.0729954598979e-09,-2.7019603595414e-09,2.8601051568831e-09,-0.0014806790652543,0.001480679219406,-0.0015566282224198,0.0015566259129501,-0.0015566264103159,0.0015566277501999,-0.0015566276219777,0.0015566265559206,-0.0015566257956177,0.0015566284068804,-0.0013567394655532,0.0013567347965372,-0.0013567340269945,0.0013567403182659,-0.001454682125835,0.0014546821816506,-0.0014546802198418,0.0014546841798709,-1.4854843634112e-08,1.5238637639727e-08,-0.0010619401540431,0.0010619405085328,2.9433197834723e-09,-2.6415122112383e-09,-0.0011522362695336,0.0011522284670885,-0.0011522381529287,0.0011522265999329,-0.0011522262294327,0.0011522384844356,-0.0011522281025046,0.0011522366338613,-0.0011413591427794,0.0011413871285842,-0.0011413886230035,0.0011413576652583,0.68873088854623,125803,2834,0.0061499571680029,0.0061499571686049,0.0044166175931223,25.590115396765,-3.5279076825881e-05,-3.5279076825881e-05,-3.5279076825881e-05,2351069.3446682,0.016857761363133
30219200,0.9964216643662,0.016664106141173,0.0059990451435579,0.0059990451439498,0.0046660158536656,-0.0014813475218202,0.0014813473446289,1.4989404654448e-08,-1.5170892756875e-08,8.7947662065176e-10,-1.0912319250843e-09,-0.0015573103237326,0.0015573208608742,-0.0015573203628556,0.0015573107810693,-0.0015573109472064,0.0015573201827898,-0.0015573209828932,0.0015573101284081,-0.0013573521768882,0.0013573808541348,-0.0013573816653215,0.00135735130385,-8.8873139068959e-10,1.0777637598775e-09,-2.6987350308657e-09,2.8575138717656e-09,-0.0014813473559685,0.0014813475107657,-0.0015573167094452,0.0015573143998481,-0.0015573148994743,0.0015573162349021,-0.0015573161063046,0.0015573150455391,-0.0015573142816543,0.0015573168947671,-0.0013573688126256,0.0013573641522384,-0.001357363379108,0.0013573696688796,-0.0014553486094401,0.001455348654681,-0.0014553466941817,0.0014553506622999,-1.4968557652707e-08,1.5352747844268e-08,-0.0010625061518466,0.0010625065067404,2.9389823951016e-09,-2.6367253159388e-09,-0.0011528191327482,0.0011528112519668,-0.0011528210133076,0.0011528093875907,-0.001152809016928,0.0011528213449978,-0.0011528108867551,0.0011528194976801,-0.0011419599304881,0.0011419881433199,-0.0011419896343198,0.0011419584564178,0.66008311473614,125803,2834,0.0061527243152267,0.0061527243158155,0.0044189665611227,25.840952756928,-3.3272377944576e-05,-3.3272377944576e-05,-3.3272377944576e-05,2353304.3978324,0.016865777685235
30419200,0.99655680741768,0.016666075459754,0.0059997667429599,0.0059997667433519,0.0046665419734422,-0.0014820452812066,0.0014820451031856,1.5100877233272e-08,-1.5283211648434e-08,8.8516515163575e-10,-1.0977596826658e-09,-0.0015580416707387,0.0015580522858342,-0.0015580517850595,0.0015580421313633,-0.0015580422986298,0.0015580516043631,-0.0015580524090655,0.001558041474737,-0.0013579948355462,0.0013580237265355,-0.0013580245430946,0.0013579939566766,-8.8179813737808e-10,1.0708922198511e-09,-2.6969502161663e-09,2.8555940981193e-09,-0.0014820451150532,0.0014820452696664,-0.0015580480926914,0.0015580457884302,-0.0015580462847344,0.0015580476228675,-0.001558047494614,0.0015580464303279,-0.0015580456706697,0.0015580482775065,-0.0013580115795722,0.001358006916942,-0.0013580061488674,0.0013580124296395,-0.001456040452564,0.0014560405113017,-0.0014560385510412,0.0014560425045204,-1.5076617864417e-08,1.5460379854126e-08,-0.0010631447841871,0.0010631451386171,2.9422728899321e-09,-2.6405142845157e-09,-0.0011534380426946,0.0011534300923474,-0.0011534399261038,0.0011534282259102,-0.001153427855468,0.0011534402571196,-0.001153429727851,0.0011534384073876,-0.0011426287603315,0.0011426571812714,-0.0011426586760663,0.0011426272844699,0.62526526290017,125803,2834,0.0061556140546958,0.0061556140553716,0.0044216153163988,26.128821906755,-3.0969424745956e-05,-3.0969424745956e-05,-3.0969424745956e-05,2359663.6788874,0.016874347987545
30619200,0.99668986055048,0.016668138330369,0.0060005191038151,0.0060005191042073,0.0046671001223467,-0.0014829116447664,0.0014829114691257,1.5209698530974e-08,-1.5389638687984e-08,8.6899992000189e-10,-1.0790951725597e-09,-0.0015589542888688,0.0015589649665004,-0.0015589644744098,0.0015589547403269,-0.0015589549050094,0.0015589642960933,-0.0015589650872444,0.0015589540951286,-0.0013587925922785,0.0013588217087063,-0.0013588225108162,0.0013587917281716,-8.7883801127849e-10,1.0665816691706e-09,-2.7106785220089e-09,2.868276122751e-09,-0.0014829114803165,0.0014829116338752,-0.0015589607457778,0.0015589584343623,-0.0015589589283631,0.0015589602771451,-0.0015589601496329,0.0015589590731263,-0.0015589583175451,0.0015589609297496,-0.0013588094627966,0.0013588047719505,-0.0013588040071871,0.0013588103107544,-0.0014569049471429,0.0014569050193987,-0.0014569030526616,0.0014569070061677,-1.5189109102579e-08,1.5572162841467e-08,-0.0010640002128342,0.001064000566577,2.9493674778444e-09,-2.6483903467143e-09,-0.0011542279926862,0.0011542199714901,-0.0011542298807125,0.0011542180999975,-0.0011542177303016,0.0011542302112871,-0.0011542196075709,0.0011542283565218,-0.0011435192348568,0.0011435478695642,-0.0011435493690857,0.0011435177523709,0.66318229163088,125803,2834,0.0061592026420872,0.0061592026427061,0.0044251617923751,26.52282283785,-2.7817417297202e-05,-2.7817417297202e-05,-2.7817417297202e-05,2370621.9603737,0.016885252112646
30819200,0.99682074679286,0.016670260829856,0.0060012908995931,0.0060012908999853,0.0046676790302778,-0.0014838390432307,0.0014838388686911,1.5320437044518e-08,-1.549929505741e-08,8.6190068464336e-10,-1.0708136297316e-09,-0.0015599072355604,0.0015599179825427,-0.0015599174944728,0.0015599076829333,-0.00155990784642,0.0015599173172838,-0.0015599181021811,0.0015599070427838,-0.0013596764020957,0.0013597057408295,-0.0013597065368183,0.0013596755441034,-8.7294306212984e-10,1.0595292380986e-09,-2.7214459486081e-09,2.8779284373757e-09,-0.0014838388798658,0.0014838390323478,-0.0015599137289299,0.0015599114138719,-0.0015599119046828,0.0015599132635017,-0.0015599131368969,0.0015599120484119,-0.0015599112981625,0.0015599139118141,-0.0013596933963092,0.001359688680294,-0.0013596879209821,0.0013596942389623,-0.0014578351264583,0.0014578352176844,-0.0014578332450194,0.0014578371912701,-1.5299958405647e-08,1.5680458254176e-08,-0.0010648631692291,0.0010648635203975,2.9577434844852e-09,-2.6594367628559e-09,-0.0011550818845922,0.0011550737941438,-0.0011550837788483,0.0011550719160806,-0.001155071548971,0.0011550841069951,-0.0011550734327919,0.0011550822457099,-0.0011444236253932,0.0011444524651959,-0.0011444539737474,0.0011444221338506,0.69236327103259,125803,2834,0.0061630430373512,0.0061630430379536,0.004428741993591,26.919573360999,-2.4643413112005e-05,-2.4643413112005e-05,-2.4643413112005e-05,2374153.7584441,0.016896703270532
31019200,0.99694937104858,0.016672409084847,0.0060020706857516,0.0060020706861439,0.0046682677129518,-0.0014848052412049,0.0014848050671514,1.5431439279417e-08,-1.5609827914178e-08,8.5883717317271e-10,-1.0672130524326e-09,-0.0015608827657341,0.0015608935849287,-0.0015608930985677,0.0015608832113785,-0.001560883374464,0.0015608929218446,-0.001560893704027,0.0015608825735102,-0.0013606179014947,0.0013606474597966,-0.0013606482530677,0.0013606170461427,-8.6677388829975e-10,1.0523036686849e-09,-2.7302578414873e-09,2.8857621773434e-09,-0.0014848050785823,0.0014848052300776,-0.0015608892961967,0.0015608869791372,-0.0015608874665297,0.0015608888342695,-0.0015608887086282,0.0015608876091501,-0.0015608868643513,0.0015608894781539,-0.001360635016416,0.0013606302785481,-0.0013606295246907,0.001360635853725,-0.0014588071110535,0.0014588072197876,-0.0014588052425865,0.001458809180308,-1.540973308728e-08,1.578868919903e-08,-0.0010657207096161,0.0010657210592219,2.9671017206012e-09,-2.670455538841e-09,-0.0011559730415301,0.0011559648837048,-0.0011559749426416,0.0011559629988103,-0.0011559626333142,0.0011559752691783,-0.0011559645238562,0.0011559734011432,-0.001145327598958,0.0011453566439549,-0.0011453581607931,0.0011453260990281,0.71215831036204,125803,2834,0.0061670433841689,0.0061670433847956,0.0044323015827149,27.316434958836,-2.1468520329315e-05,-2.1468520329315e-05,-2.1468520329315e-05,2372743.6094367,0.016908459248523
31219200,0.99707674536567,0.016674640964098,0.0060028786589555,0.0060028786593478,0.0046688836457948,-0.0014860918402891,0.0014860916688701,1.5542177111864e-08,-1.5717939221334e-08,8.4254216267998e-10,-1.0481174550841e-09,-0.0015621660181676,0.0015621769011816,-0.001562176423955,0.0015621664546586,-0.0015621666152402,0.0015621762500059,-0.0015621770178747,0.0015621658286054,-0.0013618923858641,0.0013619221729822,-0.0013619229520163,0.0013618915449775,-8.554065648578e-10,1.039161117579e-09,-2.7495794652717e-09,2.9034238177924e-09,-0.001486091679824,0.0014860918296287,-0.0015621725835121,0.0015621702605764,-0.0015621707416725,0.0015621721281499,-0.0015621720040062,0.0015621708825185,-0.0015621701475761,0.0015621727637757,-0.0013619096380238,0.0013619048541224,-0.0013619041104529,0.0013619104657634,-0.0014601036062667,0.0014601037498449,-0.0014601017621128,0.0014601056862524,-1.5521436194048e-08,1.589777117018e-08,-0.001066859445784,0.001066859792745,2.9822029979992e-09,-2.6883909579125e-09,-0.0011571742028424,0.0011571659798224,-0.0011571761149761,0.0011571640840114,-0.0011571637210342,0.0011571764389246,-0.001157165622704,0.0011571745598712,-0.0011465240741484,0.0011465533216073,-0.0011465548519465,0.0011465225606992,0.74546028483735,125803,2834,0.0061723699957002,0.0061723699963062,0.0044370289859354,27.865599670674,-1.7075202634608e-05,-1.7075202634608e-05,-1.7075202634608e-05,2368952.3729549,0.016924100521444
31419200,0.99720282660949,0.016676747916814,0.0060036438743581,0.0060036438747505,0.004669460167705,-0.0014874456161939,0.0014874454466201,1.5647586208865e-08,-1.5821535430306e-08,8.3116461419745e-10,-1.0347740898324e-09,-0.0015635040044756,0.0015635149509816,-0.0015635144801865,0.0015635044347016,-0.0015635045938101,0.0015635143080854,-0.0015635150659647,0.0015635038171505,-0.0013632484411989,0.0013632784427927,-0.0013632792119125,0.0013632476104656,-8.5099856498975e-10,1.034144234603e-09,-2.7677298529577e-09,2.921072314393e-09,-0.0014874454568877,0.0014874456062051,-0.0015635106060555,0.0015635082741208,-0.0015635087528098,0.001563510153731,-0.001563510030032,0.0015635088929219,-0.0015635081615261,0.0015635107861722,-0.0013632658200826,0.0013632609969166,-0.0013632602570949,0.0013632666441499,-0.0014614627140966,0.0014614628779285,-0.001461460878423,0.0014614648048057,-1.5637746565212e-08,1.6012142662327e-08,-0.001068011523881,0.0010680118688884,2.9926291357525e-09,-2.7008713301153e-09,-0.0011584363034961,0.0011584280094522,-0.0011584382236627,0.0011584261061036,-0.0011584257450881,0.0011584385454177,-0.0011584276542992,0.0011584366589409,-0.0011477334812999,0.0011477629454939,-0.0011477644852604,0.0011477319584952,0.71242629001219,125803,2834,0.0061779740368897,0.0061779740374653,0.0044418134451294,28.43363446156,-1.2530924307516e-05,-1.2530924307516e-05,-1.2530924307516e-05,2361471.1224369,0.016940364773714
31619200,0.9973274311211,0.01667873321372,0.0060043671968319,0.0060043671972243,0.0046699988196641,-0.0014887499596817,0.0014887497900181,1.5761079117675e-08,-1.5935122078665e-08,8.3153060125209e-10,-1.0352447215138e-09,-0.0015648094911142,0.0015648205134167,-0.0015648200423227,0.0015648099214086,-0.0015648100803089,0.0015648198701238,-0.0015648206283266,0.0015648093033461,-0.0013645351416552,0.0013645653655548,-0.0013645661348906,0.001364534310324,-8.439491735203e-10,1.0256488737632e-09,-2.7776298081264e-09,2.9296002810386e-09,-0.0014887498010486,0.0014887499489593,-0.0015648161317987,0.0015648137973411,-0.0015648142721537,0.0015648156829936,-0.0015648155605801,0.0015648144109441,-0.0015648136862421,0.0015648163103234,-0.0013645526438463,0.0013645477966566,-0.0013645470632006,0.0013645534616925,-0.0014627666659408,0.0014627668499507,-0.0014627648460279,0.0014627687616987,-1.5745003749723e-08,1.6117388717544e-08,-0.0010691629580631,0.001069163301022,3.00586553493e-09,-2.7163126709417e-09,-0.0011596534372875,0.0011596450797032,-0.0011596553666205,0.0011596431666893,-0.0011596428077553,0.0011596556866,-0.0011596447264769,0.0011596537903559,-0.001148935734678,0.0011489653947533,-0.0011489669461357,0.0011489341999301,0.6805776587057,125803,2834,0.0061833740763056,0.0061833740769415,0.0044465931688072,29.002213869902,-7.9822890407842e-06,-7.9822890407842e-06,-7.9822890407842e-06,2359945.2259189,0.016956209212632
31819200,0.99744827494642,0.016680591882687,0.0060050459509139,0.0060050459513063,0.0046704999804672,-0.0014894170465966,0.0014894168713777,1.5869817535085e-08,-1.6049349589446e-08,8.6658967516263e-10,-1.0762353544546e-09,-0.001565495835269,0.0015655069515476,-0.001565506460754,0.0015654962852802,-0.0015654964494301,0.0015655062829454,-0.0015655070718515,0.0015654956417617,-0.0013651685317311,0.0013651989436478,-0.0013651997436516,0.0013651676697486,-8.7713800074205e-10,1.0643796342482e-09,-2.7567470901202e-09,2.913843450568e-09,-0.0014894168825831,0.0014894170356843,-0.0015655025261521,0.0015655001850945,-0.0015655006784701,0.0015655020585474,-0.0015655019311557,0.0015655008227051,-0.0015655000689794,0.0015655027098098,-0.0013651860953658,0.0013651813133019,-0.0013651805507499,0.0013651869420375,-0.0014634280816371,0.0014634281882928,-0.0014634261914218,0.0014634301707543,-1.5852170906965e-08,1.6226807489287e-08,-0.0010697445225157,0.0010697448677634,2.990676207472e-09,-2.6986694245879e-09,-0.0011602506276971,0.0011602421891462,-0.001160252546013,0.0011602402871336,-0.0011602399258262,0.0011602528682978,-0.001160241833708,0.0011602509829426,-0.0011495471909742,0.0011495770758839,-0.0011495786142768,0.0011495456695406,0.65805652181905,125803,2834,0.0061861361513951,0.006186136152,0.0044490064357343,29.265154051371,-5.8787675890329e-06,-5.8787675890329e-06,-5.8787675890329e-06,2362675.394483,0.01696428144449
32019200,0.99756376584213,0.016682537516979,0.0060057521221456,0.0060057521225381,0.0046710332722953,-0.0014895783414349,0.0014895781593791,1.5967433256345e-08,-1.6153780980197e-08,9.0859543938595e-10,-1.1255276949603e-09,-0.0015656837187929,0.0015656949262381,-0.0015656944120624,0.0015656841922414,-0.0015656843629041,0.0015656942266786,-0.0015656950524181,0.001565683518366,-0.0013652917210707,0.0013653222927547,-0.0013653231303863,0.00136529082166,-9.3934117971293e-10,1.1367525619907e-09,-2.7203125596665e-09,2.8866721816758e-09,-0.0014895781692466,0.0014895783318373,-0.0015656904618306,0.0015656881069785,-0.001565688635454,0.0015656899588062,-0.001565689822756,0.0015656887892865,-0.0015656879812291,0.0015656906554025,-0.0013653093072313,0.0013653046404181,-0.0013653038238239,0.001365310207296,-0.0014635899931959,0.0014635899567202,-0.0014635879708222,0.0014635920723627,-1.5968014010816e-08,1.6348363909763e-08,-0.0010698756351297,0.001069875986132,2.9519238804723e-09,-2.6537154164627e-09,-0.0011603536767592,0.0011603451372588,-0.0011603555669537,0.0011603432621093,-0.0011603428957275,0.0011603558947868,-0.0011603447755983,0.0011603540377136,-0.0011497000303268,0.0011497301815542,-0.0011497316866492,0.001149698542567,0.71766337947967,125803,2834,0.0061868044609372,0.0061868044614937,0.0044495494056229,29.280924575918,-5.7526033926561e-06,-5.7526033926561e-06,-5.7526033926561e-06,2367288.0725236,0.016966192655661
32219200,0.99767409493737,0.016684438422461,0.0060064412182752,0.0060064412186678,0.0046715559855181,-0.0014897934086333,0.0014897932205764,1.6077367877506e-08,-1.6269619845517e-08,9.4776617227636e-10,-1.1711575409999e-09,-0.0015658953101281,0.0015659066148062,-0.0015659060785091,0.0015658958058712,-0.0015658959823888,0.001565905887426,-0.0015659067473238,0.0015658951037509,-0.0013655012438531,0.0013655320034499,-0.001365532874534,0.0013655003109809,-9.6915352149576e-10,1.1720772051098e-09,-2.6821698336102e-09,2.8537779728286e-09,-0.0014897932308774,0.0014897933986238,-0.0015659020984676,0.001565899750458,-0.0015659002953099,0.0015659015788496,-0.001565901437851,0.0015659004546146,-0.0015658996198598,0.0015659022968777,-0.0013655188756219,0.001365514305841,-0.0013655134620474,0.0013655198024898,-0.0014638121726399,0.0014638120529043,-0.0014638100863658,0.0014638142330058,-1.6072640185319e-08,1.6457410774927e-08,-0.0010699765527886,0.0010699769082774,2.9232706691612e-09,-2.6202462296871e-09,-0.0011605034403,0.0011604948130294,-0.0011605053101876,0.0011604929594661,-0.001160492588107,0.0011605056423426,-0.0011604944473555,0.001160503805803,-0.0011498314427718,0.0011498618282673,-0.0011498633081335,0.0011498299803693,0.73340851168,125803,2834,0.0061876941586505,0.006187694159252,0.0044499705819382,29.290187506883,-5.678499944935e-06,-5.678499944935e-06,-5.678499944935e-06,2362608.1616388,0.016968430921774
32419200,0.99777948807157,0.016686300317083,0.0060071153101824,0.006007115310575,0.0046720696963255,-0.0014900180066257,0.0014900178142053,1.618948952309e-08,-1.6386062812735e-08,9.7608611994493e-10,-1.2041379588237e-09,-0.0015661088593305,0.0015661202561091,-0.0015661197038275,0.0015661093710793,-0.0015661095516202,0.0015661195084118,-0.0015661203929169,0.0015661086483287,-0.0013657293821338,0.0013657603413971,-0.0013657612371532,0.0013657284245563,-9.884379633693e-10,1.1944089022037e-09,-2.6485615878908e-09,2.8229755815338e-09,-0.0014900178252658,0.0014900179958511,-0.0015661156885778,0.0015661133508203,-0.0015661139064739,0.0015661151577786,-0.0015661150140901,0.0015661140689667,-0.0015661132174746,0.0015661158895599,-0.0013657470737863,0.0013657425841684,-0.0013657417235426,0.0013657480169564,-0.0014640449296621,0.0014640447508876,-0.0014640428030375,0.0014640469717157,-1.6176115853447e-08,1.6564767122206e-08,-0.0010700650180119,0.0010700653774258,2.8981053080854e-09,-2.5908689192385e-09,-0.0011606594769922,0.0011606507649759,-0.0011606613285509,0.001160648929707,-0.001160648554329,0.0011606616647134,-0.0011606503955171,0.0011606598461767,-0.0011499518066867,0.0011499824201049,-0.0011499838780607,0.0011499503664418,0.75109424842802,125803,2834,0.0061886230343082,0.006188623034898,0.0044503408210359,29.299186162614,-5.6065106990912e-06,-5.6065106990912e-06,-5.6065106990912e-06,2356429.0653011,0.01697069719465
32619200,0.99787990679498,0.016687939845628,0.0060077119619947,0.0060077119623874,0.0046725159212459,-0.0014901571505173,0.0014901569593507,1.626504489422e-08,-1.6460319984876e-08,9.7209784143116e-10,-1.1988111863176e-09,-0.0015662319741705,0.0015662434210989,-0.0015662428709145,0.0015662324843425,-0.00156623266557,0.0015662426755119,-0.0015662435554738,0.0015662317662231,-0.0013658775103163,0.0013659086158821,-0.0013659095074662,0.0013658765569752,-1.0095966086931e-09,1.2207791503054e-09,-2.6334483635125e-09,2.812608703573e-09,-0.0014901569676063,0.0014901571426704,-0.0015662388292028,0.001566236489878,-0.001566237057912,0.0015662382872852,-0.0015662381414623,0.001566237223103,-0.001566236351009,0.0015662390356547,-0.0013658952553597,0.001365890806221,-0.0013658899254125,0.0013658962190337,-0.0014641870675065,0.0014641868348155,-0.0014641848915098,0.0014641891088888,-1.6319362906969e-08,1.6711337023949e-08,-0.0010700463712149,0.0010700467339731,2.8625762230077e-09,-2.5516530194834e-09,-0.0011607310624175,0.0011607222343323,-0.0011607328916134,0.0011607204229543,-0.0011607200457153,0.001160733229233,-0.0011607218603767,0.0011607314367735,-0.0011499599477314,0.0011499908776912,-0.0011499923076626,0.0011499585365557,0.69653885700102,125803,2834,0.0061891977497802,0.0061891977506242,0.0044502674003996,29.262983499926,-5.8961320005889e-06,-5.8961320005889e-06,-5.8961320005889e-06,2348813.084514,0.0169717921629
32819200,0.9979754746631,0.016689378253497,0.0060082382559742,0.0060082382563669,0.0046729017411562,-0.0014901736633591,0.0014901734707289,1.6406003115455e-08,-1.6602786452035e-08,9.7804052976846e-10,-1.2063177359977e-09,-0.0015662579285736,0.0015662694714686,-0.0015662689181477,0.001566258441608,-0.0015662586224516,0.0015662687224087,-0.001566269608446,0.0015662577175279,-0.0013658737229127,0.0013659051046483,-0.0013659060021291,0.0013658727636614,-9.9225616554937e-10,1.1989945797226e-09,-2.6067582688454e-09,2.7818739503773e-09,-0.0014901734815732,0.001490173652827,-0.0015662648181778,0.0015662625059687,-0.0015662630637911,0.0015662642851676,-0.0015662641412019,0.0015662632269903,-0.001566262371745,0.0015662650196778,-0.0013658915838962,0.0013658871786318,-0.0013658863142904,0.001365892530158,-0.0014641995831665,0.0014641993689736,-0.0014641974481872,0.0014642015986552,-1.6396901979669e-08,1.6789468376619e-08,-0.0010699897009425,0.0010699900643303,2.8568999696964e-09,-2.5452140679748e-09,-0.0011606916772833,0.0011606827917584,-0.0011606935001616,0.0011606809854433,-0.0011606806063012,0.0011606938400431,-0.001160682418331,0.0011606920504926,-0.001149918995863,0.0011499500784305,-0.0011499515034541,0.0011499175886454,0.64446134739321,125803,2834,0.0061892658524211,0.0061892658530652,0.0044500329912096,29.20456657346,-6.3634674123201e-06,-6.3634674123201e-06,-6.3634674123201e-06,2349566.6881516,0.016971692370441
33019200,0.99806643644438,0.016690861063599,0.00600877767444,0.0060087776748328,0.0046733057143257,-0.0014901266542026,0.0014901264633861,1.6518824732126e-08,-1.6713804056347e-08,9.6454860211406e-10,-1.190876739886e-09,-0.0015662416032401,0.0015662532126299,-0.0015662526670738,0.0015662421084861,-0.0015662422874916,0.0015662524732626,-0.0015662533479869,0.001566241393964,-0.001365784546215,0.0013658161588629,-0.0013658170448444,0.0013657835984042,-9.7763352467278e-10,1.1821787167742e-09,-2.5958434908235e-09,2.7689358125917e-09,-0.0014901264743341,0.0014901266435572,-0.0015662485181483,0.0015662462221119,-0.0015662467713215,0.0015662479934355,-0.0015662478513507,0.0015662469326179,-0.0015662460898453,0.0015662487174464,-0.0013658025170326,0.001365798123014,-0.0013657972708948,0.0013658034506916,-0.0014641509228384,0.0014641507298077,-0.0014641488188647,0.0014641529280921,-1.6504181333913e-08,1.6897825170687e-08,-0.0010699536927003,0.00106995405719,2.8469554480204e-09,-2.5340428778968e-09,-0.0011605980264139,0.0011605890631305,-0.0011605998421196,0.0011605872638435,-0.0011605868835133,0.0011606001832089,-0.0011605886887337,0.0011605984005977,-0.0011498936061894,0.0011499249075576,-0.0011499263245127,0.0011498922069727,0.6952413455046,125803,2834,0.0061890721271502,0.0061890721277747,0.004449881220532,29.145558066855,-6.8355354651636e-06,-6.8355354651636e-06,-6.8355354651636e-06,2357232.4812638,0.016971143398512
33219200,0.99815302697922,0.016692344475659,0.006009315629916,0.0060093156303088,0.0046737132154341,-0.0014901410411769,0.0014901408531872,1.6629364962139e-08,-1.6821546405481e-08,9.4627029426853e-10,-1.1695725424205e-09,-0.0015662623181032,0.0015662739899982,-0.0015662734547638,0.0015662628130401,-0.0015662629893551,0.0015662732637921,-0.0015662741226115,0.0015662621117393,-0.0013657850916773,0.0013658169339459,-0.0013658178040248,0.0013657841597513,-9.5964473004164e-10,1.1611864072285e-09,-2.5911195656636e-09,2.7614381513681e-09,-0.0014901408641239,0.0014901410305471,-0.0015662692572422,0.0015662669754487,-0.0015662675144658,0.0015662687426477,-0.0015662686033082,0.0015662676729176,-0.0015662668458042,0.0015662694536978,-0.0013658031792551,0.0013657987814433,-0.0013657979449462,0.0013658040971628,-0.0014641692252436,0.001464169063481,-0.0014641671593852,0.0014641712233876,-1.6614474853387e-08,1.7008633521745e-08,-0.0010699112815063,0.0010699116465175,2.8408087818741e-09,-2.5272986872838e-09,-0.0011605646559377,0.0011605556151969,-0.0011605664673643,0.0011605538201499,-0.0011605534393745,0.0011605668089525,-0.0011605552402621,0.0011605650306515,-0.0011498687536429,0.0011499002762822,-0.0011499016883523,0.0011498673591549,0.72922789894148,125803,2834,0.0061891315379159,0.0061891315385491,0.0044497058971796,29.086525488504,-7.3077960919689e-06,-7.3077960919689e-06,-7.3077960919689e-06,2356494.366478,0.016971085934712
33419200,0.99823680007728,0.016693807521762,0.006009845665481,0.0060098456658738,0.0046741161904075,-0.0014907417059302,0.0014907415258071,1.6746078451328e-08,-1.6930471348428e-08,8.9641092908497e-10,-1.1112911512299e-09,-0.0015668517263512,0.0015668634452053,-0.0015668629380257,0.0015668521931234,-0.0015668523617194,0.0015668627552192,-0.0015668635703847,0.0015668515277611,-0.0013663869301956,0.0013664190376395,-0.0013664198642155,0.001366386041825,-9.1139062081861e-10,1.1047558684003e-09,-2.6205115829111e-09,2.7832319597587e-09,-0.0014907415366321,0.0014907416954044,-0.0015668586841391,0.0015668564122838,-0.001566856924308,0.0015668581967062,-0.0015668580644134,0.001566857075025,-0.0015668562902647,0.0015668588727623,-0.0013664051961116,0.0013664007063308,-0.0013663999124821,0.0013664060719671,-0.0014647783827493,0.0014647783337793,-0.0014647764202118,0.0014647803898133,-1.6722804220424e-08,1.7114258007519e-08,-0.0010703805430243,0.0010703809052855,2.8655295041693e-09,-2.5550580216385e-09,-0.0011610950022542,0.0011610859048117,-0.0011610968308663,0.0011610840923192,-0.0011610837141657,0.0011610971700061,-0.0011610855327435,0.0011610953740673,-0.0011503735510414,0.0011504052623527,-0.0011504066944104,0.0011503721362059,0.74278651695702,125803,2834,0.0061916177637989,0.0061916177644161,0.0044516555845785,29.311370649763,-5.5090348018962e-06,-5.5090348018962e-06,-5.5090348018962e-06,2352492.5367003,0.01697812596458
33619200,0.99831814655325,0.016695228817054,0.0060103607005747,0.0060103607009676,0.004674507415512,-0.0014915003394372,0.001491500166106,1.685628158958e-08,-1.7033939673894e-08,8.531205372826e-10,-1.060724135194e-09,-0.001567594960813,0.0015676067266675,-0.0015676062437874,0.0015675954031825,-0.001567595565468,0.0015676060677257,-0.00156760684509,0.0015675947692774,-0.0013671523900917,0.0013671847440555,-0.0013671855326806,0.0013671515395426,-8.6645970130971e-10,1.0522153729897e-09,-2.6598565072613e-09,2.8155515766041e-09,-0.0014915001770821,0.0014915003287656,-0.0015676019413141,0.001567599671195,-0.0015676001580525,0.0015676014793925,-0.0015676013539247,0.0015676003012302,-0.0015675995559321,0.0015676021230854,-0.0013671708341277,0.0013671662343445,-0.0013671654798864,0.0013671716710634,-0.0014655427613956,0.0014655428242273,-0.0014655408936797,0.0014655447844452,-1.6837801050675e-08,1.7225334161571e-08,-0.0010709864273829,0.0010709867856736,2.8982601876665e-09,-2.5921501408048e-09,-0.0011617829076414,0.0011617737543385,-0.0011617847596996,0.001161771918418,-0.0011617715444272,0.0011617850948248,-0.0011617733859638,0.0011617832757108,-0.0011510163595577,0.001151048265418,-0.0011510497245847,0.001151014917304,0.7430304128575,125803,2834,0.0061947578165154,0.0061947578171434,0.0044541726878236,29.61292856592,-3.0965714726378e-06,-3.0965714726378e-06,-3.0965714726378e-06,2347465.0706476,0.016987073173058
33819200,0.99839707761749,0.016696612265035,0.006010862037729,0.006010862038122,0.0046748881891843,-0.0014922559115289,0.0014922557426189,1.6958313476752e-08,-1.7131590336616e-08,8.2460248537187e-10,-1.0274622659683e-09,-0.001568336116678,0.0015683479334039,-0.0015683474665994,0.0015683365429468,-0.0015683367015297,0.0015683472946093,-0.001568348047178,0.00156833593016,-0.0013679141613743,0.0013679467343522,-0.0013679474982272,0.0013679133357054,-8.3523033734534e-10,1.0158465824328e-09,-2.6988886686474e-09,2.8498341459679e-09,-0.0014922557537793,0.0014922559006687,-0.0015683431257513,0.0015683408494499,-0.001568341318849,0.0015683426817425,-0.0015683425611469,0.0015683414564724,-0.0015683407384977,0.0015683433032982,-0.0013679327649232,0.0013679280646394,-0.001367927337779,0.00136793357502,-0.0014663021650447,0.0014663023124257,-0.0014663003620565,0.0014663042071182,-1.6960240607967e-08,1.7342970850028e-08,-0.00107158903752,0.0010715893909635,2.9282071724941e-09,-2.6272970420737e-09,-0.0011624680927024,0.0011624588767742,-0.0011624699669815,0.0011624570187548,-0.0011624566499863,0.0011624702968589,-0.0011624585127553,0.0011624684565055,-0.0011516555496468,0.0011516876653803,-0.0011516891509434,0.0011516540808937,0.74517767943979,125803,2834,0.0061978851639543,0.0061978851645735,0.0044566761474289,29.916577655162,-6.6737875870072e-07,-6.6737875870072e-07,-6.6737875870072e-07,2343202.759162,0.0169959807181
34019200,0.99847359765368,0.016697914204924,0.0060113347952163,0.0060113347956093,0.0046752446140983,-0.0014930047292088,0.0014930045637115,1.7088003385226e-08,-1.7257899326375e-08,8.0266506554498e-10,-1.0018795749726e-09,-0.0015690710271061,0.0015690829160578,-0.0015690824615571,0.0015690714409087,-0.0015690715953569,0.0015690822939569,-0.001569083027365,0.001569070843111,-0.0013686680251316,0.0013687008705961,-0.0013687016151949,0.0013686672185446,-8.1624868563354e-10,9.9371521302289e-10,-2.7289211690424e-09,2.8769580184e-09,-0.0014930045746406,0.0014930047185866,-0.0015690780768498,0.0015690757914271,-0.0015690762501976,0.0015690776436216,-0.0015690775248636,0.0015690763856135,-0.001569075684294,0.0015690782506344,-0.0013686867997094,0.0013686820295457,-0.001368681319353,0.0013686875936064,-0.0014670528150437,0.0014670530213033,-0.0014670510550719,0.0014670548731103,-1.7054505451609e-08,1.7432242035678e-08,-0.0010721818558352,0.0010721822042232,2.9619049935231e-09,-2.6664312420222e-09,-0.0011631456299596,0.0011631363711687,-0.0011631475275672,0.0011631344897448,-0.0011631341251409,0.0011631478533643,-0.0011631360130112,0.0011631459878753,-0.0011522841216885,0.0011523163852343,-0.0011523178999811,0.0011522826234979,0.72426543991975,125803,2834,0.0062009845086122,0.0062009845092451,0.0044591389773119,30.220312228712,1.7624978296928e-06,1.7624978296928e-06,1.7624978296928e-06,2339478.5926632,0.017004790072545
34219200,0.99854899120117,0.016699163152266,0.0060117891060308,0.0060117891064239,0.0046755849398114,-0.0014943167337943,0.0014943165728089,1.7182325300992e-08,-1.7347734073279e-08,7.7403248107432e-10,-9.6841893576038e-10,-0.0015703759239158,0.0015703878598365,-0.0015703874213372,0.0015703763215602,-0.0015703764737579,0.001570387256342,-0.0015703879647905,0.0015703757465217,-0.0013699726976502,0.0013700057426479,-0.0013700064619369,0.0013699719159802,-7.8903235642666e-10,9.6193467532872e-10,-2.7807887634892e-09,2.9246747817151e-09,-0.0014943165835986,0.0014943167233165,-0.0015703830050214,0.0015703807039061,-0.0015703811474264,0.0015703825873422,-0.0015703824744562,0.0015703812762854,-0.00157038059904,0.0015703831767444,-0.0013699916354331,0.0013699867381631,-0.0013699860517029,0.0013699924059432,-0.0014683655450849,0.0014683658319913,-0.0014683638367349,0.0014683676313374,-1.7185679629617e-08,1.7556979918727e-08,-0.0010733528254196,0.0010733531673097,3.0020043169611e-09,-2.7135037372159e-09,-0.0011643795712255,0.0011643702517569,-0.0011643814999754,0.0011643683393672,-0.0011643679832062,0.0011643818173733,-0.0011643698979819,0.001164379924779,-0.001153501507599,0.0011535339917647,-0.0011535355421499,0.0011534999736165,0.70594347562868,125803,2834,0.00620641620596,0.0062064162066031,0.0044639993473597,30.831167541442,6.6493403315387e-06,6.6493403315387e-06,6.6493403315387e-06,2339690.877297,0.017020781695767
34419200,0.99862326581764,0.01670039856114,0.0060122383787242,0.0060122383791173,0.0046759218032984,-0.0014956716201685,0.0014956714600536,1.7356980972146e-08,-1.752157232411e-08,7.6795245181504e-10,-9.6137685295e-10,-0.001571734262868,0.0015717463034119,-0.0015717458683343,0.0015717346563108,-0.0015717347990136,0.0015717457115856,-0.0015717464141689,0.0015717340773499,-0.0013713097383048,0.0013713431534955,-0.0013713438677977,0.0013713089611971,-7.7988929268215e-10,9.4981887468031e-10,-2.8102665618825e-09,2.9510949866437e-09,-0.0014956714717914,0.0014956716086937,-0.0015717414070949,0.0015717390835082,-0.0015717395226419,0.001571740992929,-0.0015717408748679,0.0015717396568261,-0.0015717389891382,0.0015717415681458,-0.0013713288814343,0.0013713239434643,-0.0013713232670187,0.0013713296429013,-0.00146971810036,0.0014697184497307,-0.0014697164379831,0.001469720204238,-1.723427229613e-08,1.759942560904e-08,-0.0010745932894758,0.0010745936251011,3.0459224750011e-09,-2.7641911334116e-09,-0.0011656612195652,0.0011656518867383,-0.0011656631702834,0.0011656499492179,-0.0011656495922377,0.0011656634900789,-0.0011656515463434,0.0011656615580115,-0.0011547853522714,0.0011548178633609,-0.0011548194515021,0.0011547837799824,0.70867957381715,125803,2834,0.0062120258148148,0.0062120258153558,0.0044691469305642,31.474887812125,1.1799102497002e-05,1.1799102497002e-05,1.1799102497002e-05,2342673.1525285,0.017037427436237
34619200,0.99869628773602,0.01670166232968,0.0060126968353393,0.0060126968357325,0.0046762686586079,-0.0014970325493739,0.0014970323886355,1.7534255259185e-08,-1.7699456072178e-08,7.7283276531304e-10,-9.6695343405986e-10,-0.0015730975114942,0.0015731096642933,-0.0015731092262379,0.0015730979082174,-0.0015730980436449,0.0015731090779996,-0.0015731097851564,0.0015730973175789,-0.001372654771132,0.0013726885545207,-0.0013726892727094,0.0013726539904493,-7.8055524345546e-10,9.5145600593419e-10,-2.8308584555352e-09,2.9728002810435e-09,-0.0014970324001999,0.0014970325380755,-0.0015731047232168,0.0015731023774297,-0.0015731028163549,0.0015731043099217,-0.0015731041820509,0.0015731029597914,-0.001573102290914,0.001573104876895,-0.0013726741055604,0.0013726691522487,-0.0013726684748348,0.0013726748686844,-0.0014710783822601,0.0014710787674403,-0.0014710767412687,0.0014710804995468,-1.7279377997965e-08,1.7639178111511e-08,-0.0010758389475195,0.0010758392778277,3.0824457688094e-09,-2.8064745117965e-09,-0.0011669498774123,0.0011669405293582,-0.0011669518468998,0.0011669385754493,-0.0011669382142242,0.0011669521696717,-0.0011669402035486,0.0011669502027024,-0.0011560758548247,0.0011561083936416,-0.001156110013006,0.0011560742513911,0.73613737550087,125803,2834,0.006217660375592,0.0062176603761402,0.0044743161747554,32.119575665297,1.6956605322378e-05,1.6956605322378e-05,1.6956605322378e-05,2345000.7921357,0.01705414626415
34819200,0.99876904414432,0.016702932484195,0.0060131574506876,0.0060131574510808,0.0046766175824266,-0.0014989756138881,0.0014989754558379,1.7686937409497e-08,-1.7849491742986e-08,7.5654409515603e-10,-9.4777561481143e-10,-0.0015750282332764,0.0015750404719444,-0.0015750400435294,0.0015750286214389,-0.0015750287486359,0.0015750399044608,-0.0015750405970641,0.0015750280366005,-0.0013745942318926,0.0013746283419254,-0.0013746290471641,0.0013745934660334,-7.7369060993001e-10,9.4502749475014e-10,-2.8709524935386e-09,3.0131296368072e-09,-0.0014989754659663,0.0014989756040585,-0.0015750355019047,0.0015750331279353,-0.001575033563779,0.0015750350944906,-0.0015750349601255,0.0015750337129578,-0.001575033047881,0.0015750356498637,-0.0013746137628712,0.0013746087428723,-0.0013746080720326,0.0013746145221986,-0.0014730237982659,0.0014730242426039,-0.0014730221882013,0.0014730259435753,-1.7350709632752e-08,1.7705441031459e-08,-0.0010776114297513,0.0010776117549849,3.1151621792904e-09,-2.8447667981009e-09,-0.0011688072274948,0.0011687978478911,-0.0011688092153235,0.0011687958770494,-0.0011687955140531,0.0011688095391648,-0.0011687975339065,0.0011688075420828,-0.0011579105966612,0.0011579432259618,-0.0011579448740209,0.0011579089663444,0.74236046084496,125803,2834,0.0062257046336277,0.0062257046342436,0.0044816728027755,33.049626902911,2.4397015223289e-05,2.4397015223289e-05,2.4397015223289e-05,2344139.5892983,0.017077992120573
35019200,0.99884168799894,0.016704163116399,0.0060136046777966,0.0060136046781899,0.0046769537604125,-0.0015011205406834,0.0015011203840354,1.7804207569445e-08,-1.7965311654237e-08,7.4720045177439e-10,-9.3697106435362e-10,-0.0015771604598447,0.0015771727702115,-0.0015771723465591,0.0015771608423528,-0.0015771609685619,0.0015771722087155,-0.0015771728935886,0.0015771602648152,-0.0013767353478766,0.0013767696943624,-0.0013767703903859,0.0013767345901695,-7.7755225978279e-10,9.4908277857677e-10,-2.9080798314772e-09,3.0507191284262e-09,-0.0015011203932894,0.0015011205317259,-0.0015771677780171,0.0015771653773003,-0.0015771658142556,0.0015771673674929,-0.0015771672329049,0.0015771659635035,-0.0015771652965548,0.0015771679267532,-0.0013767550313801,0.0013767499417296,-0.0013767492674032,0.0013767557943281,-0.0014751676374617,0.0014751680965006,-0.0014751660193517,0.0014751698081872,-1.745599024569e-08,1.7807465386803e-08,-0.0010795675104103,0.0010795678322726,3.1325236331893e-09,-2.8655626599781e-09,-0.001170863441791,0.0011708540023288,-0.0011708654425328,0.001170852018871,-0.001170851659435,0.0011708657626645,-0.0011708536915605,0.0011708637531974,-0.0011599326811249,0.0011599654971147,-0.0011599671611764,0.0011599310335229,0.72136486947889,125803,2834,0.0062345844271045,0.0062345844277158,0.0044897915489229,34.081416469121,3.2651331752966e-05,3.2651331752966e-05,3.2651331752966e-05,2343322.7723466,0.017104313508282
35219200,0.99891394265532,0.016705353008943,0.0060140379404434,0.0060140379408368,0.0046772771276629,-0.0015032440814344,0.0015032439262357,1.8072958867454e-08,-1.8232591485022e-08,7.3853101267863e-10,-9.2675426999908e-10,-0.0015792819684968,0.0015792944368262,-0.0015792940183059,0.0015792823464655,-0.0015792824554534,0.0015792938973847,-0.0015792945746353,0.0015792817595498,-0.0013788427936121,0.001378877717508,-0.0013788784056618,0.0013788420436179,-8.0523218265073e-10,9.8211442177767e-10,-2.9364565008272e-09,3.084060743973e-09,-0.0015032439324223,0.0015032440756856,-0.0015792893913742,0.0015792869390378,-0.0015792873921096,0.0015792889657556,-0.0015792888108129,0.0015792875613267,-0.0015792868697177,0.0015792895293668,-0.0013788627610601,0.0013788576817513,-0.0013788569824535,0.0013788635499181,-0.001477286736997,0.001477287207243,-0.001477285105274,0.001477288934112,-1.7408135688515e-08,1.7759156429079e-08,-0.0010815311833744,0.0010815315047213,3.1311932248507e-09,-2.8647639162652e-09,-0.0011729019899066,0.0011728925653924,-0.0011729039744133,0.0011728905986069,-0.0011728902239601,0.0011729043096422,-0.001172892270724,0.0011729022852166,-0.00116196006956,0.0011619927463677,-0.0011619944104014,0.0011619584221384,0.70214228009341,125803,2834,0.006243376002287,0.0062433760031907,0.0044979405936838,35.115955584184,4.0927644673471e-05,4.0927644673471e-05,4.0927644673471e-05,2345701.2551695,0.017130486730511
35419200,0.9989846783582,0.016706482085745,0.0060144499268744,0.0060144499272678,0.0046775822316026,-0.0015049132967313,0.0015049131305426,1.7931128497215e-08,-1.8101716687334e-08,8.0689500832314e-10,-1.0068810309462e-09,-0.001580960776123,0.0015809732159402,-0.0015809727588693,0.0015809611921809,-0.0015809613393391,0.0015809725991448,-0.0015809733365359,0.0015809605834027,-0.0013804863483673,0.0013805208642593,-0.0013805216128807,0.0013804855380507,-8.2711667556508e-10,1.0064227753209e-09,-2.9033169861467e-09,3.0531046312015e-09,-0.0015049131408832,0.001504913286665,-0.001580968166634,0.0015809657508099,-0.0015809662151778,0.0015809677274126,-0.0015809675975063,0.0015809663599371,-0.0015809656510021,0.0015809683350577,-0.0013805061113206,0.001380501031924,-0.001380500315036,0.0013805069161348,-0.0014789485499414,0.0014789488756901,-0.0014789467912228,0.0014789507252514,-1.7764654061199e-08,1.811750438603e-08,-0.0010830833628144,0.0010830836860625,3.1227750713431e-09,-2.8542910284281e-09,-0.0011744981307444,0.0011744884904664,-0.0011745001358242,0.0011744865025246,-0.0011744861533035,0.0011745004456388,-0.0011744881664397,0.0011744984552161,-0.0011635622611278,0.0011635957263501,-0.0011635973819234,0.0011635606221701,0.6816229631872,125803,2834,0.0062502868314525,0.0062502868320179,0.0045043811815626,35.928522004398,4.7428176035182e-05,4.7428176035182e-05,4.7428176035182e-05,2350117.9479608,0.017151096635617
35619200,0.99905309407988,0.016707533064676,0.0060148343884377,0.0060148343888311,0.0046778642874069,-0.0015062289778072,0.0015062288016036,1.8096266091787e-08,-1.827690427265e-08,8.6689298066156e-10,-1.0777077272981e-09,-0.0015822953466717,0.0015823079285836,-0.0015823074372335,0.0015822957958334,-0.0015822959447253,0.0015823072735279,-0.0015823080644966,0.0015822951363336,-0.0013817666171708,0.0013818014361799,-0.0013818022384234,0.0013817657551438,-8.8632774629575e-10,1.0718792771712e-09,-2.8554330963395e-09,3.0110185065103e-09,-0.0015062288135601,0.0015062289659096,-0.001582302813328,0.001582300386431,-0.0015823008833331,0.0015823023390352,-0.0015823021953396,0.0015823010429178,-0.0015823002860863,0.0015823029826096,-0.0013817864523567,0.0013817815295168,-0.0013817807656865,0.0013817873060145,-0.001480256223985,0.001480256425256,-0.0014802543638294,0.0014802583748076,-1.7810521408397e-08,1.8169962917693e-08,-0.0010843269821869,0.0010843273120207,3.0823851161844e-09,-2.8066730269636e-09,-0.0011757507884487,0.0011757410833897,-0.0011757527560152,0.0011757391293824,-0.0011757387681561,0.0011757530791533,-0.001175740758694,0.0011757511122063,-0.0011648464920872,0.0011648800681552,-0.0011648816865912,0.0011648448880929,0.65729898125569,125803,2834,0.0062557343479922,0.0062557343481121,0.0045095403257708,36.573219838815,5.2585758710521e-05,5.2585758710521e-05,5.2585758710521e-05,2356388.8136575,0.017167426363297
35819200,0.99911907620122,0.016708609641033,0.0060152265079241,0.0060152265083175,0.0046781566247914,-0.0015075080646396,0.0015075078817154,1.8136738599379e-08,-1.8323897205283e-08,9.1133734297562e-10,-1.1292277167507e-09,-0.0015836013314713,0.0015836139748918,-0.0015836134592608,0.0015836018061797,-0.0015836019690996,0.0015836132822456,-0.0015836141111479,0.0015836011214934,-0.0013830017348796,0.0013830365785185,-0.0013830374186651,0.0013830008328892,-9.2798356650374e-10,1.124418506817e-09,-2.801256995857e-09,2.9668386571082e-09,-0.0015075078924785,0.0015075080541773,-0.001583608820409,0.0015836064101264,-0.0015836069314139,0.0015836083243154,-0.0015836081797781,0.0015836070928101,-0.0015836062945704,0.0015836090044875,-0.0013830215262045,0.0013830167193393,-0.0013830159131356,0.0013830224193606,-0.0014815305333504,0.0014815305980588,-0.0014815285608667,0.0014815326651663,-1.7983804464082e-08,1.8349769876361e-08,-0.0010855764249292,0.0010855767614212,3.0376052401678e-09,-2.754930193951e-09,-0.0011769724604226,0.0011769626201932,-0.0011769744042846,0.001176960692646,-0.0011769603310786,0.0011769747266904,-0.0011769622823027,0.0011769727981418,-0.0011661361524536,0.0011661701339369,-0.001166171715452,0.0011661345883066,0.69619234115664,125803,2834,0.0062610308839432,0.0062610308845634,0.0045147222297998,37.21346178562,5.7707694284959e-05,5.7707694284959e-05,5.7707694284959e-05,2365019.7516861,0.017183472013002
36019200,0.99918253967523,0.016709706670261,0.0060156246267413,0.0060156246271347,0.0046784574163847,-0.0015088363585996,0.0015088361702866,1.8234761907835e-08,-1.8427252389147e-08,9.4529947057358e-10,-1.1689598276679e-09,-0.0015849374889418,0.0015849502203301,-0.0015849496856525,0.001584937982777,-0.0015849381523144,0.0015849495016124,-0.001584950360284,0.0015849372749704,-0.0013843077864942,0.0013843427935857,-0.0013843436634562,0.0013843068548606,-9.6149024301542e-10,1.1635239746066e-09,-2.7505833414615e-09,2.92135377346e-09,-0.0015088361811074,0.0015088363480609,-0.0015849450146,0.0015849426188573,-0.0015849431586943,0.0015849444993753,-0.0015849443514913,0.0015849433242051,-0.0015849424965337,0.0015849452053209,-0.0013843276001067,0.0013843229124924,-0.0013843220765647,0.0013843285220644,-0.0014828586749092,0.0014828586371924,-0.0014828566268289,0.0014828607803156,-1.8099593316424e-08,1.8472440547857e-08,-0.0010868197537983,0.0010868200972539,2.9932297609369e-09,-2.7030778147804e-09,-0.0011782415613586,0.0011782316180017,-0.0011782434746514,0.0011782297210029,-0.0011782293540137,0.0011782438024208,-0.0011782312717113,0.0011782419074578,-0.0011674270784083,0.0011674613363803,-0.0011674628790728,0.001167425553323,0.73586308803751,125803,2834,0.006266530213949,0.0062665302145306,0.0045198812656161,37.853521369902,6.2828170959213e-05,6.2828170959213e-05,6.2828170959213e-05,2367110.4811675,0.017199907705503
36219200,0.99924135286577,0.01671069097212,0.0060159826520698,0.0060159826524632,0.0046787256675872,-0.0015089157106084,0.0015089155117,1.8339523785961e-08,-1.8542525682745e-08,1.0141825175379e-09,-1.249195085477e-09,-0.0015850149752097,0.0015850278195273,-0.001585027246002,0.0015850155081117,-0.0015850156882435,0.0015850270507181,-0.0015850279692955,0.0015850147510342,-0.0013843848234979,0.0013844199850156,-0.0013844209147828,0.0013843838320543,-1.0318033058231e-09,1.2454334108942e-09,-2.6548300942507e-09,2.8363687625099e-09,-0.0015089155223934,0.0015089157002016,-0.0015850225469648,0.001585020171925,-0.0015850207509942,0.0015850219915843,-0.0015850218341421,0.001585020927505,-0.0015850200383239,0.0015850227487883,-0.001384404596302,0.001384400145686,-0.0013843992477723,0.0013844055786412,-0.0014829354298935,0.0014829351918248,-0.0014829332310741,0.0014829374867052,-1.8203068468335e-08,1.8588420668802e-08,-0.0010867947407946,0.0010867950968819,2.9126806422932e-09,-2.6089449627869e-09,-0.0011782807734134,0.0011782707116619,-0.0011782826291346,0.0011782688724825,-0.0011782684933718,0.001178282968733,-0.0011782703524486,0.0011782811325451,-0.0011674228345736,0.0011674573793034,-0.0011674588514407,0.0011674213803476,0.71361054099573,125803,2834,0.0062668576744166,0.0062668576750074,0.0045197803981874,37.82717007406,6.2617360592479e-05,6.2617360592479e-05,6.2617360592479e-05,2362369.1003192,0.017200471979878
36419200,0.99929500887999,0.016711576923265,0.0060163051718132,0.0060163051722066,0.0046789665792455,-0.0015083631168987,0.0015083629049396,1.8394065178582e-08,-1.8610055361995e-08,1.0959425919414e-09,-1.3449571235419e-09,-0.0015844668672192,0.0015844798023135,-0.0015844791827029,0.0015844674460708,-0.0015844676420713,0.0015844789706227,-0.0015844799608824,0.0015844666330629,-0.0013838247246681,0.0013838599244276,-0.0013838609266193,0.0013838236615743,-1.0644960636113e-09,1.2833326497426e-09,-2.5615409823566e-09,2.7478127883231e-09,-0.0015083629197588,0.0015083631023769,-0.001584474461666,0.0015844721319251,-0.0015844727289726,0.0015844738870173,-0.0015844737290546,0.0015844729074363,-0.001584471989715,0.0015844746712373,-0.0013838444186451,0.0013838401642931,-0.0013838392386415,0.001383845429066,-0.0014823804768754,0.0014823801048139,-0.0014823782011358,0.0014823824814002,-1.8357316178578e-08,1.8751532702136e-08,-0.0010862103861323,0.0010862107511477,2.8232446868348e-09,-2.5094629142381e-09,-0.0011777120563485,0.0011777018383377,-0.0011777138526752,0.0011777000581755,-0.0011776996741163,0.0011777141973451,-0.0011777014667746,0.0011777124273467,-0.0011668458804148,0.0011668808175193,-0.0011668822180141,0.0011668444986889,0.70434018963939,125803,2834,0.0062645692886974,0.0062645692893102,0.004517357323675,37.497028581665,5.9976228653323e-05,5.9976228653323e-05,5.9976228653323e-05,2358899.1537124,0.017193351917451
36619200,0.99934400031196,0.016712340707985,0.0060165842411894,0.0060165842415829,0.0046791722252128,-0.0015077713316642,0.0015077711024087,1.8302513264724e-08,-1.8535762823287e-08,1.2018520922436e-09,-1.4691522555835e-09,-0.001583881537065,0.0015838944882367,-0.0015838938099886,0.0015838821742524,-0.0015838823996654,0.0015838935660339,-0.0015838946493407,0.0015838812978356,-0.001383222046738,0.0013832569518975,-0.0013832580473738,0.0013832208892072,-1.0006883008358e-09,1.2067456827076e-09,-2.4996373388529e-09,2.6735925800746e-09,-0.0015077711316508,0.0015077713024253,-0.0015838890930067,0.0015838868560768,-0.0015838874175966,0.0015838885520568,-0.0015838884188572,0.0015838875712407,-0.0015838867111921,0.001583889303999,-0.0013832415758355,0.0013832373570603,-0.0013832364873964,0.0013832425245025,-0.001481786960403,0.0014817866308001,-0.0014817847800545,0.001481788902342,-1.8656517240604e-08,1.9058035067934e-08,-0.0010856102778083,0.0010856106504147,2.750582347954e-09,-2.4284337892334e-09,-0.0011771085309305,0.0011770980794087,-0.0011771102876077,0.0011770963356921,-0.0011770959579976,0.0011771106270199,-0.0011770976855998,0.0011771089220336,-0.0011662501163729,0.0011662857428866,-0.0011662870861648,0.001166248793115,0.66675279833825,125803,2834,0.0062621189092095,0.0062621189092133,0.0045148681520317,37.158704040894,5.7269632327152e-05,5.7269632327152e-05,5.7269632327152e-05,2356614.5068503,0.017185834916473
36819200,0.99938878840341,0.01671302016218,0.0060168328748856,0.0060168328752791,0.0046793544120152,-0.0015071284428057,0.0015071282309925,1.862115829122e-08,-1.8836978965635e-08,1.0925975198369e-09,-1.3413968294241e-09,-0.0015832611941874,0.0015832742794373,-0.0015832736623456,0.0015832617712194,-0.0015832619664264,0.0015832734506859,-0.00158327443863,0.0015832609598742,-0.0013825505083681,0.0013825861576028,-0.0013825871567438,0.0013825494477426,-1.085460228641e-09,1.308385798788e-09,-2.4382873938772e-09,2.6283410615289e-09,-0.0015071282438012,0.001507128430259,-0.0015832688295751,0.0015832665683012,-0.0015832671768018,0.0015832682436112,-0.0015832680818755,0.0015832673601716,-0.0015832664224031,0.0015832690421429,-0.0013825702989514,0.0013825663026845,-0.0013825653556204,0.0013825713266459,-0.0014811408086353,0.0014811403150671,-0.0014811384868636,0.0014811427338813,-1.8563555106935e-08,1.896926643552e-08,-0.0010850213695419,0.001085021746325,2.7087701010063e-09,-2.3819269589107e-09,-0.0011764631780527,0.0011764527481778,-0.0011764648929544,0.001176451048627,-0.0011764506526707,0.0011764652494857,-0.0011764523652451,0.0011764635605442,-0.0011656584094923,0.0011656938520301,-0.0011656951607783,0.0011656571198175,0.6495783264908,125803,2834,0.0062594578817449,0.0062594578822846,0.004512423105672,36.820043459949,5.4560347679589e-05,5.4560347679589e-05,5.4560347679589e-05,2359503.7580688,0.017177933868233
37019200,0.99943094916221,0.016713701201572,0.0060170809185578,0.0060170809189513,0.0046795393640624,-0.0015075043936689,0.0015075041976125,1.8723890587466e-08,-1.8924085808992e-08,9.9119089838667e-10,-1.2231182675177e-09,-0.0015836614098619,0.00158367450256,-0.0015836739426046,0.0015836619295955,-0.0015836621108496,0.0015836737457199,-0.0015836746453182,0.0015836611927074,-0.0013828883048162,0.0013829242249227,-0.0013829251356034,0.0013828873324971,-9.8889034160828e-10,1.1956051389812e-09,-2.4772195617768e-09,2.6523016393291e-09,-0.0015075042100999,0.0015075043814432,-0.0015836690319395,0.0015836668054575,-0.0015836673595642,0.0015836685004327,-0.0015836683542865,0.0015836675262316,-0.0015836666729527,0.001583669230474,-0.0013829083052886,0.0013829041596575,-0.0013829032970424,0.0013829092490547,-0.0014815198663456,0.0014815195802226,-0.0014815177462703,0.0014815217963058,-1.8689851222342e-08,1.9093002668463e-08,-0.0010854231038306,0.0010854234780181,2.7332471594438e-09,-2.4092692735345e-09,-0.0011768012490593,0.0011767907517956,-0.0011768029823301,0.0011767890335497,-0.0011767886416028,0.0011768033352366,-0.0011767903700928,0.0011768016301844,-0.0011660796672168,0.0011661153380738,-0.0011661166663468,0.0011660783571554,0.68961814549924,125803,2834,0.0062610154745531,0.0062610154750923,0.0045140873883881,37.015827266401,5.6126618131209e-05,5.6126618131209e-05,5.6126618131209e-05,2367341.0107362,0.017182794778325
37219200,0.99947087683747,0.016714389155595,0.0060173304756965,0.0060173304760901,0.0046797282038085,-0.0015081903741465,0.0015081901907857,1.8831449887074e-08,-1.9019067151142e-08,9.108735429091e-10,-1.1291829712942e-09,-0.0015843555259976,0.0015843686422492,-0.0015843681275415,0.0015843560004584,-0.0015843561710746,0.0015843679425287,-0.0015843687718646,0.001584355323134,-0.0013835553260227,0.0013835915109558,-0.0013835923511016,0.0013835544241425,-8.6088668020874e-10,1.0463011918173e-09,-2.5385905569842e-09,2.6939968166141e-09,-0.0015081902069072,0.0015081903583083,-0.0015843631407308,0.0015843609533169,-0.001584361435769,0.0015843626817112,-0.0015843625556805,0.0015843615804982,-0.0015843608389991,0.0015843633203225,-0.0013835755667379,0.0013835712045708,-0.0013835704540305,0.0013835763994542,-0.0014822098970822,0.0014822098931003,-0.0014822080446743,0.0014822118391417,-1.8811899252408e-08,1.9208383997113e-08,-0.0010860585666074,0.0010860589340728,2.794664912045e-09,-2.4781520372997e-09,-0.0011774404976339,0.0011774299591643,-0.0011774422758362,0.0011774281966059,-0.0011774278123813,0.0011774426208224,-0.0011774295828204,0.0011774408735598,-0.001166743277786,0.0011667791351715,-0.0011667805133233,0.0011667419178141,0.73362542107794,125803,2834,0.0062638556545522,0.0062638556551362,0.0045167240852036,37.342250972341,5.8738007778731e-05,5.8738007778731e-05,5.8738007778731e-05,2369601.6550407,0.017191254798527
37419200,0.9995086463905,0.016714996248657,0.0060175517419391,0.0060175517423327,0.0046798927643849,-0.0015089316453077,0.0015089314774784,1.8959668804956e-08,-1.9131914713079e-08,8.1188728263611e-10,-1.0135726869913e-09,-0.0015850868590587,0.0015850999990822,-0.0015850995398795,0.0015850872777624,-0.0015850874325146,0.0015850993715271,-0.0015851001144175,0.0015850866709509,-0.0013842979906581,0.0013843345010155,-0.0013843352549336,0.0013842971748809,-7.8692804247671e-10,9.5962787165488e-10,-2.609874252184e-09,2.7534415879959e-09,-0.0015089314917599,0.0015089316313013,-0.0015850944870483,0.0015850922971068,-0.0015850927381713,0.0015850940699566,-0.0015850939541127,0.0015850928715245,-0.0015850921952925,0.0015850946540912,-0.0013843184892492,0.0013843139365923,-0.0013843132513787,0.0013843192569896,-0.0014829547072613,0.001482954895854,-0.0014829530151285,0.0014829566802009,-1.8914410359992e-08,1.9304787164709e-08,-0.0010866799027708,0.0010866802639959,2.8529205136337e-09,-2.5433165858515e-09,-0.0011781292216605,0.0011781186508952,-0.0011781310397945,0.0011781168477417,-0.001178116469049,0.0011781313797645,-0.0011781182815619,0.0011781295904616,-0.0011673963655206,0.001167432367185,-0.0011674337922139,0.0011673949577608,0.6866555801407,125803,2834,0.0062669237343065,0.006266923734873,0.0045193048319051,37.67228545593,6.1378283647441e-05,6.1378283647441e-05,6.1378283647441e-05,2365848.9283539,0.017200122225913
37619200,0.99954432586962,0.016715550166533,0.0060177540951501,0.0060177540955438,0.0046800419758387,-0.0015096091202618,0.001509608965049,1.9081215438437e-08,-1.9240954870095e-08,7.33789881164e-10,-9.2197355757598e-10,-0.0015857746183848,0.0015857877909338,-0.0015857873754199,0.0015857749932286,-0.0015857751354632,0.0015857872204574,-0.0015857878946086,0.0015857744426183,-0.0013849552177859,0.0013849920245034,-0.0013849927094767,0.0013849544708904,-7.2676099924446e-10,8.8918097290841e-10,-2.6801625429842e-09,2.8142379937e-09,-0.0015096089778254,0.0015096091077708,-0.0015857822678655,0.0015857800677151,-0.0015857804753122,0.0015857818848133,-0.0015857817773965,0.0015857805990753,-0.0015857799758904,0.0015857824249746,-0.0013849759540639,0.0013849712219257,-0.0013849705892956,0.0013849766692997,-0.0014836307941418,0.0014836311463725,-0.0014836292313562,0.0014836328001595,-1.902254378417e-08,1.9406080965194e-08,-0.0010873210303906,0.0010873213846928,2.9105718564468e-09,-2.6085627520652e-09,-0.0011787710089796,0.0011787604021477,-0.001178772867464,0.0011787585585305,-0.0011787581862057,0.0011787732012531,-0.001178760040223,0.0011787713705078,-0.0011680618384824,0.0011680979957249,-0.0011680994682343,0.0011680603825724,0.66415284886955,125803,2834,0.0062697287605234,0.0062697287611112,0.0045219646689404,38.002468889033,6.4019751112261e-05,6.4019751112261e-05,6.4019751112261e-05,2368242.5712805,0.017208534433919
37819200,0.99957707784328,0.016716039341924,0.0060179332504193,0.0060179332508129,0.0046801728406914,-0.0015092345740522,0.0015092344165422,1.9178656769495e-08,-1.9340630701596e-08,7.5073125838126e-10,-9.4138254199777e-10,-0.0015854249785211,0.0015854382271204,-0.0015854378018322,0.0015854253632218,-0.0015854255081885,0.0015854376440754,-0.0015854383325899,0.0015854248008926,-0.0013845527747781,0.0013845897582998,-0.0013845904579767,0.0013845520135434,-7.7011318539434e-10,9.4001144742076e-10,-2.7012654883759e-09,2.842119031288e-09,-0.0015092344270702,0.0015092345638245,-0.0015854326858987,0.0015854304455306,-0.0015854308779446,0.0015854322786044,-0.0015854321651133,0.0015854310079438,-0.0015854303469271,0.0015854328504105,-0.0013845736051227,0.0013845688609577,-0.0013845681910252,0.0013845743583139,-0.0014832500255644,0.0014832503072167,-0.0014832483692435,0.0014832520562378,-1.9144483063695e-08,1.9527010743637e-08,-0.0010869879490609,0.001086988302342,2.9210890178496e-09,-2.6202684519274e-09,-0.0011783949237182,0.0011783842430739,-0.0011783967902624,0.0011783823915844,-0.0011783820206661,0.001178397122513,-0.0011783838817418,0.0011783952848542,-0.0011677243796561,0.00116776076797,-0.001167762248856,0.001167722915481,0.64016140321112,125803,2834,0.0062681786173314,0.0062681786179508,0.0045205812295674,37.804579014881,6.2436632119046e-05,6.2436632119046e-05,6.2436632119046e-05,2371531.7718669,0.017203973322759
38019200,0.99960709354979,0.016716506468839,0.0060181037743558,0.0060181037747494,0.0046802989197339,-0.0015087370030113,0.0015087368329876,1.9307306036818e-08,-1.948169851066e-08,8.3143718828227e-10,-1.0354784852548e-09,-0.0015849576188547,0.0015849710016461,-0.0015849705311485,0.0015849580492143,-0.0015849582057816,0.0015849703620513,-0.0015849711209628,0.0015849574282125,-0.0013840199814967,0.0013840571621612,-0.001384057931454,0.0013840191510721,-7.9342754274497e-10,9.6774000364088e-10,-2.6948920046831e-09,2.8400417165317e-09,-0.0015087368476519,0.0015087369886485,-0.001584965398891,0.0015849631474553,-0.0015849635930243,0.0015849649793168,-0.0015849648604641,0.0015849637280983,-0.0015849630457878,0.0015849655668554,-0.0013840408943666,0.0013840361822105,-0.0013840354910706,0.0013840416687565,-0.0014827504309506,0.0014827506657988,-0.0014827487258948,0.0014827524604584,-1.9230783988734e-08,1.9610735938596e-08,-0.0010865804972061,0.0010865808479537,2.9454688024021e-09,-2.6474706237754e-09,-0.0011779035043119,0.001177892780529,-0.0011779053879647,0.0011778909139985,-0.0011778905438585,0.0011779057181241,-0.0011778924229871,0.001177903862549,-0.0011673113743639,0.0011673479077162,-0.0011673494081207,0.0011673098916529,0.66569812596047,125803,2834,0.0062661196503525,0.0062661196509748,0.0045188878689589,37.560458645753,6.0483669166023e-05,6.0483669166023e-05,6.0483669166023e-05,2376899.3733534,0.01719806139527
38219200,0.99963462542284,0.016716938279826,0.0060182612900887,0.0060182612904823,0.0046804156992547,-0.0015082690267301,0.0015082688536137,1.9378574638494e-08,-1.9556011872908e-08,8.5070361700021e-10,-1.0581047639199e-09,-0.0015845061577366,0.0015845196023207,-0.0015845191204406,0.0015845065989253,-0.0015845067597061,0.0015845189459992,-0.001584519721933,0.0015845059651622,-0.0013835323189695,0.0013835696198391,-0.00138357040665,0.0013835314705536,-8.8271621321384e-10,1.0711562234083e-09,-2.7158553464071e-09,2.8740428903008e-09,-0.0015082688632034,0.0015082690174296,-0.0015845140015217,0.0015845116833088,-0.0015845121790474,0.0015845135309852,-0.0015845134013901,0.0015845123259487,-0.0015845115671724,0.0015845141849168,-0.0013835532832218,0.0013835485892012,-0.0013835478212461,0.0013835541346806,-0.0014822830043129,0.0014822830767691,-0.0014822811062448,0.0014822850686779,-1.9377189321284e-08,1.9758461497093e-08,-0.0010861678895136,0.0010861682415135,2.9355136891711e-09,-2.6361502779847e-09,-0.0011774440743609,0.0011774332487001,-0.0011774459519946,0.0011774313863505,-0.0011774310173895,0.0011774462819837,-0.0011774328877914,0.001177444435196,-0.0011668971642914,0.0011669339977261,-0.0011669354902781,0.0011668956888675,0.67076170476006,125803,2834,0.0062641825789784,0.0062641825795742,0.0045171749206172,37.314928848818,5.8519430790546e-05,5.8519430790546e-05,5.8519430790546e-05,2377397.4967457,0.017192377917936
38419200,0.99966007140816,0.016717363492603,0.006018415738491,0.0060184157388846,0.0046805320152269,-0.0015080555579267,0.0015080553759529,1.9526695274863e-08,-1.9712935639995e-08,9.0646792261542e-10,-1.123319202193e-09,-0.0015843041827938,0.0015843177584892,-0.0015843172454462,0.0015843046551163,-0.0015843048229534,0.0015843170634852,-0.001584317887978,0.0015843039796609,-0.00138330310176,0.0013833406573103,-0.0013833414923437,0.001383302204726,-8.9170887720001e-10,1.081508259326e-09,-2.7118557555728e-09,2.8712984520201e-09,-0.0015080553893118,0.0015080555448521,-0.0015843120942631,0.0015843097714313,-0.0015843102724713,0.0015843116185363,-0.0015843114861688,0.0015843104222238,-0.0015843096554046,0.0015843122775323,-0.00138332418397,0.0013833195089986,-0.0013833187326992,0.0013833250433827,-0.0014820725331629,0.0014820725899559,-0.0014820706200292,0.0014820745959605,-1.9446188361445e-08,1.9824191642612e-08,-0.0010859896396068,0.0010859899883326,2.9666673887006e-09,-2.6709523511839e-09,-0.0011772310305897,0.0011772201768154,-0.0011772329285929,0.001177218294116,-0.0011772179268767,0.0011772332568043,-0.0011772198204144,0.0011772313866119,-0.0011667239938003,0.0011667609296727,-0.0011667624475346,0.0011667224936166,0.71253731113269,125803,2834,0.0062632990719075,0.006263299072493,0.0045164347299379,37.196918173817,5.7575345390535e-05,5.7575345390535e-05,5.7575345390535e-05,2377519.5751677,0.017189827372219
38619200,0.99968374163745,0.016717761179617,0.0060185601562006,0.0060185601565942,0.0046806408668222,-0.0015081150922825,0.0015081149122838,1.958713104218e-08,-1.9771379849505e-08,8.9522985593065e-10,-1.1099983639002e-09,-0.0015843557016404,0.0015843693130923,-0.0015843688061858,0.0015843561677337,-0.001584356335714,0.0015843686241069,-0.0015843694385909,0.0015843555025875,-0.0013833676466607,0.0013834053229382,-0.0013834061479932,0.0013833667596887,-9.2604841615067e-10,1.1217547602671e-09,-2.7476239034238e-09,2.9125514942166e-09,-0.0015081149218981,0.0015081150829367,-0.0015843636521976,0.0015843612866665,-0.0015843618071369,0.0015843631572822,-0.0015843630216007,0.0015843619602097,-0.0015843611635224,0.0015843638433152,-0.0013833888149373,0.0013833840885878,-0.0013833832824687,0.0013833897047778,-0.0014821370912417,0.0014821371002389,-0.0014821350993409,0.0014821391861605,-1.9606601108922e-08,1.9984914320703e-08,-0.0010860075879666,0.0010860079369373,2.9673411559557e-09,-2.671391452255e-09,-0.0011772783178653,0.0011772673599483,-0.001177280218338,0.0011772654746397,-0.0011772651092871,0.0011772805447118,-0.0011772670013104,0.0011772786763094,-0.0011667561344187,0.0011667933901622,-0.0011667949082122,0.0011667546338461,0.71625964891235,125803,2834,0.0062635449235541,0.0062635449241067,0.0045165111480311,37.193744628179,5.7549957025429e-05,5.7549957025429e-05,5.7549957025429e-05,2372239.7468894,0.017190405587184
38819200,0.9997057637678,0.016718132434627,0.0060186949631084,0.0060186949635021,0.0046807425080169,-0.0015081805247636,0.00150818034219,1.9711122243922e-08,-1.9897950099754e-08,9.1142982509153e-10,-1.1289356816134e-09,-0.0015844124958322,0.0015844261992422,-0.0015844256831961,0.0015844129709348,-0.0015844131407578,0.0015844254991581,-0.0015844263277751,0.0015844122934237,-0.0013834394874517,0.0013834773967911,-0.0013834782362134,0.0013834385861657,-9.2010179781578e-10,1.1145683877541e-09,-2.7553627607114e-09,2.9190910754332e-09,-0.0015081803536668,0.0015081805135429,-0.0015844204933757,0.0015844181256565,-0.0015844186428931,0.0015844200016435,-0.0015844198663954,0.0015844187954449,-0.0015844180042653,0.0015844206827035,-0.0013834607808731,0.0013834560367622,-0.001383455236386,0.0013834616650832,-0.0014822060964502,0.0014822061238998,-0.00148220411931,0.0014822081947865,-1.9702263497031e-08,2.0078536704604e-08,-0.0010860235801032,0.0010860239270399,2.9878042340507e-09,-2.6941191561837e-09,-0.0011773291170755,0.001177318107739,-0.0011773310311796,0.0011773162085937,-0.0011773158446076,0.0011773313562204,-0.0011773177516659,0.0011773294728128,-0.0011667844530112,0.0011668218757782,-0.0011668234102539,0.0011667829361304,0.71844598516391,125803,2834,0.0062638151471421,0.0062638151476693,0.0045165794698944,37.193614373754,5.7548914990029e-05,5.7548914990029e-05,5.7548914990029e-05,2367362.8934666,0.017191025188417
38880000,0.99971230958373,0.016718242913595,0.0060187350770942,0.0060187350774879,0.0046807727590128,-0.0015082006912263,0.0015082005085627,1.9761101688143e-08,-1.9948021086531e-08,9.1202145160599e-10,-1.1296295094762e-09,-0.001584429654725,0.0015844433913366,-0.0015844428749621,0.0015844301302161,-0.0015844302995895,0.0015844426914734,-0.0015844435206267,0.0015844294516946,-0.0013834620160159,0.0013835000244758,-0.0013835008643624,0.0013834611141567,-9.1599591583589e-10,1.1099190815293e-09,-2.7522932094313e-09,2.9155340005038e-09,-0.001508200520365,0.0015082006797065,-0.0015844376669183,0.0015844353031696,-0.001584435818122,0.0015844371776096,-0.0015844370423131,0.0015844359706636,-0.0015844351829073,0.0015844378550353,-0.0013834833566979,0.0013834786173379,-0.0013834778203369,0.0013834842374493,-0.0014822271869974,0.0014822272218179,-0.0014822252201264,0.0014822292826213,-1.9719325176041e-08,2.0095089048e-08,-0.0010860263872065,0.0010860267336171,2.993019140533e-09,-2.6999149920165e-09,-0.0011773438330484,0.0011773328151268,-0.0011773457503593,0.001177330913009,-0.0011773305488939,0.0011773460754046,-0.0011773324601962,0.0011773441877078,-0.0011667910432027,0.0011668284930025,-0.0011668300317768,0.0011667895221965,0.71909628817661,125803,2834,0.0062638984211374,0.0062638984217191,0.0045165917385808,37.193609208887,5.7548873671095e-05,5.7548873671095e-05,5.7548873671095e-05,2365866.6312223,0.01719120719562
