time,ASR_ext,ASR_strain,ASR_strain_xx,ASR_strain_yy,ASR_strain_zz,disp_x_101,disp_x_102,disp_x_103,disp_x_104,disp_x_105,disp_x_106,disp_x_p1_neg,disp_x_p1_pos,disp_x_p2_neg,disp_x_p2_pos,disp_x_p3_neg,disp_x_p3_pos,disp_x_p4_neg,disp_x_p4_pos,disp_x_p5_neg,disp_x_p5_pos,disp_x_p6_neg,disp_x_p6_pos,disp_y_101,disp_y_102,disp_y_103,disp_y_104,disp_y_105,disp_y_106,disp_y_p1_neg,disp_y_p1_pos,disp_y_p2_neg,disp_y_p2_pos,disp_y_p3_neg,disp_y_p3_pos,disp_y_p4_neg,disp_y_p4_pos,disp_y_p5_neg,disp_y_p5_pos,disp_y_p6_neg,disp_y_p6_pos,disp_y_p7_neg,disp_y_p7_pos,disp_y_p8_neg,disp_y_p8_pos,disp_z_101,disp_z_102,disp_z_103,disp_z_104,disp_z_105,disp_z_106,disp_z_p1_neg,disp_z_p1_pos,disp_z_p2_neg,disp_z_p2_pos,disp_z_p3_neg,disp_z_p3_pos,disp_z_p4_neg,disp_z_p4_pos,disp_z_p5_neg,disp_z_p5_pos,disp_z_p6_neg,disp_z_p6_pos,humidity,ndof,nelem,strain_xx,strain_yy,strain_zz,temp,thermal_strain_xx,thermal_strain_yy,thermal_strain_zz,vonmises,vstrain
2419200,0,0,0,0,0,0,0,0,0,0,0,0,0,0,0,0,0,0,0,0,0,0,0,0,0,0,0,0,0,0,0,0,0,0,0,0,0,0,0,0,0,0,0,0,0,0,0,0,0,0,0,0,0,0,0,0,0,0,0,0,0,0,0,0,0,0,0,0,0,0,0,0,0,0,0
2619200,0.019498700622449,0.00040001563913155,0.00013333854637718,0.00013333854637718,0.00013333854637718,-3.5095080933637e-05,3.5097385705494e-05,1.0785774047319e-09,1.21249285349e-09,-2.2661844165205e-09,4.6668848782583e-09,-3.4372005762959e-05,3.4371975970694e-05,-3.4371934712276e-05,3.4371993687355e-05,-3.4369777609711e-05,3.4374276292716e-05,-3.4369734601399e-05,3.4374322750859e-05,-3.5533110415356e-05,3.5537565651603e-05,-3.5532971802235e-05,3.5537690646959e-05,2.2678126465807e-09,-4.6702077011974e-09,-7.5847923703195e-09,5.2920401325635e-09,-3.5097386471788e-05,3.5095080166889e-05,-3.4374095521606e-05,3.4369861316161e-05,-3.4369974338973e-05,3.4374180533446e-05,-3.4376311830855e-05,3.4367544462246e-05,-3.4372189935329e-05,3.4371863668966e-05,-3.5543841142843e-05,3.5526614928965e-05,-3.5531382145795e-05,3.5539427629643e-05,-3.5727606445738e-05,3.5736342473656e-05,-3.5734365561852e-05,3.5729407411867e-05,-1.588561270106e-09,-1.7222916034385e-09,-3.3920194304177e-05,3.3916858661956e-05,4.6008036352642e-09,-8.1332311228741e-09,-3.3397251325262e-05,3.3398238812269e-05,-3.3401470067574e-05,3.3394010970147e-05,-3.3397301480375e-05,3.339819914729e-05,-3.3401518729444e-05,3.3393971002482e-05,-3.4880291172449e-05,3.4872607766486e-05,-3.4880140416969e-05,3.4872717780779e-05,0.81992964373001,125803,2834,0.0001462235602572,0.00014622356025661,0.00014131716640987,31.500021992279,1.2000175938231e-05,1.2000175938231e-05,1.2000175938231e-05,450045.79731313,0.00043385859462855
2819200,0.041095232784849,0.00083771573144318,0.00027986022678177,0.00027986022672608,0.00027799527793534,-7.2878588464287e-05,7.2876473802121e-05,-1.0719502988711e-09,-1.0417774999125e-09,4.6400316136016e-10,-2.626970629049e-09,-7.2156607946544e-05,7.2155510943487e-05,-7.2156575814341e-05,7.2155496858845e-05,-7.2157583900108e-05,7.2154466840113e-05,-7.2157568364856e-05,7.2154473030498e-05,-7.3235925564742e-05,7.3232760879884e-05,-7.3235877606614e-05,7.3232776398622e-05,-4.6967700346568e-10,2.6397736276822e-09,-3.0610792320497e-09,5.1817129622243e-09,-7.2876470297783e-05,7.2878591941835e-05,-7.2156802681053e-05,7.2155191828428e-05,-7.2154154113479e-05,7.2157943095035e-05,-7.2155813816261e-05,7.2156230873386e-05,-7.2153163324907e-05,7.215898390318e-05,-7.3236770862368e-05,7.3231821673062e-05,-7.3228772946528e-05,7.3240015683851e-05,-7.3664179718585e-05,7.3666006531117e-05,-7.3661165705628e-05,7.3669107959273e-05,-1.2773662594939e-10,-1.5155208879801e-10,-6.9912365034451e-05,6.991206083591e-05,3.863184710951e-09,-4.2837033192753e-09,-6.9827609033267e-05,6.9830050781829e-05,-6.9830325548081e-05,6.9827336631328e-05,-6.9827617392699e-05,6.9830040955147e-05,-6.9830331412799e-05,6.9827328435612e-05,-7.1521509631085e-05,7.1518486731171e-05,-7.1521492951009e-05,7.1518512456338e-05,0.82138487959415,125803,2834,0.00030361018287432,0.00030361018281867,0.00029125846505951,32.733955671765,2.1871645374124e-05,2.1871645374124e-05,2.1871645374124e-05,442893.26378617,0.00089888291597071
3019200,0.062588552972999,0.0012737148963147,0.00042692903606785,0.00042692903601354,0.00041985682423332,-0.00010795655755206,0.00010795448611366,-9.9055655131701e-10,-1.0703470513933e-09,2.1214572615876e-09,-4.2867087144619e-09,-0.00010711927510851,0.00010711934409601,-0.00010711928656688,0.00010711930137072,-0.00010712130597109,0.00010711719854768,-0.00010712132726374,0.00010711716672378,-0.0001081925497609,0.00010818844266002,-0.00010819261455422,0.00010818835163311,-2.121795820653e-09,4.2838840662651e-09,-1.1992896041974e-09,3.2570837956741e-09,-0.00010795448769384,0.00010795655594574,-0.00010711999774801,0.00010711848995783,-0.00010711854478871,0.00010711996644148,-0.00010711796452929,0.00010712062771394,-0.00010711651035099,0.00010712210405318,-0.00010819058931163,0.00010819039191324,-0.00010818624311409,0.0001081948027233,-0.0001089724781546,0.00010896975841776,-0.00010896624574599,0.00010897617206989,2.935384940969e-10,3.7621017190881e-10,-0.00010243295121386,0.00010243360564973,2.5057801094387e-09,-1.9067025317336e-09,-0.00010274912978963,0.00010275124431404,-0.00010275061784647,0.00010274977251676,-0.00010274909583157,0.00010275126359524,-0.00010275058142289,0.00010274979222978,-0.00010499576305928,0.00010499503299864,-0.000104995865242,0.00010499497148882,0.8201332242424,125803,2834,0.00044971333019994,0.00044971333014556,0.00042671440376971,32.492056959251,1.9936455674011e-05,1.9936455674011e-05,1.9936455674011e-05,567599.33942392,0.0013270213678102
3219200,0.083867851829922,0.001697682560754,0.00057097417619212,0.00057097417614651,0.00055573420841535,-0.00014223203310529,0.00014223067208847,-5.8263867006063e-10,-7.7073033346001e-10,2.5606636648798e-09,-4.0104843619704e-09,-0.00014148522811592,0.00014148609439771,-0.0001414852771454,0.00014148601701126,-0.00014148731512457,0.00014148389862983,-0.00014148737045015,0.00014148382851575,-0.00014198332463202,0.00014197996718465,-0.00014198349560541,0.00014197977003545,-2.5668250975273e-09,4.0219080989187e-09,-4.6362707773923e-10,1.8220994498979e-09,-0.00014223066954326,0.00014223203562863,-0.00014148638414297,0.00014148482758914,-0.00014148562518341,0.00014148557564722,-0.00014148428960555,0.00014148702451405,-0.0001414835298822,0.0001414877727922,-0.00014198099714003,0.00014198230379623,-0.00014197875346419,0.00014198455295155,-0.00014329269502036,0.00014328835807656,-0.000143286272211,0.0001432949572664,3.8162280558648e-10,5.7243867704577e-10,-0.00013341494463543,0.00013341588778932,1.6002501651218e-09,-6.7937769800122e-10,-0.00013433233884506,0.00013433399233429,-0.00013433312184285,0.00013433323111712,-0.00013433226630763,0.00013433404502242,-0.00013433304679494,0.00013433328406191,-0.00013694942245471,0.00013694979218754,-0.00013694962936855,0.00013694962386564,0.80675911505233,125803,2834,0.00059245476424139,0.00059245476419588,0.00055574359130163,32.204506269923,1.7636050159382e-05,1.7636050159382e-05,1.7636050159382e-05,652268.97726695,0.0017421697200823
3419200,0.10490204794359,0.0021049747613578,0.00071054289064598,0.00071054289060028,0.00068388898011158,-0.00017543587645849,0.0001754349013254,-3.3811551217084e-10,-6.3439250025929e-10,2.5382230134263e-09,-3.5915166441465e-09,-0.00017507564072157,0.00017507678670988,-0.00017507572479582,0.00017507667219025,-0.00017507759550861,0.00017507473860363,-0.00017507768474935,0.00017507463029493,-0.0001742278690601,0.00017422513837116,-0.00017422814357664,0.00017422483309385,-2.5416440814959e-09,3.5956175673801e-09,-1.4662629119279e-11,9.878736922471e-10,-0.00017543490097019,0.00017543587679178,-0.00017507685681309,0.00017507547949299,-0.00017507651439534,0.00017507579848829,-0.00017507489929864,0.00017507752481429,-0.00017507455614585,0.00017507784412727,-0.00017422549035838,0.00017422752809551,-0.00017422449497347,0.00017422850486828,-0.00017629845064139,0.00017629373280834,-0.0001762924616133,0.00017629987574815,4.2290589104243e-10,7.2197957550485e-10,-0.00016253993024493,0.00016254106499103,1.0681842174108e-09,6.3563917648714e-11,-0.00016430858679736,0.00016430996784719,-0.00016430894531575,0.0001643096303021,-0.00016430847854864,0.00016431005694699,-0.00016430883463066,0.00016430971978539,-0.00016695554804058,0.00016695663973249,-0.00016695585685693,0.00016695636128287,0.7858983455924,125803,2834,0.00073071327411327,0.00073071327406762,0.00067702394967081,31.915044444733,1.5320355557864e-05,1.5320355557864e-05,1.5320355557864e-05,758945.31490924,0.0021407394532299
3619200,0.12620151236194,0.0025062374659178,0.00084897228284757,0.00084897228279935,0.00080829290027088,-0.00020908144319744,0.00020908077860274,-1.2949803044612e-10,-5.3437619379174e-10,2.3239130116777e-09,-3.0608481851449e-09,-0.00020943909091562,0.00020944034038481,-0.00020943921167854,0.00020944018995612,-0.00020944080974661,0.00020943854073953,-0.00020944093440181,0.00020943839511823,-0.00020636754442199,0.00020636547628852,-0.00020636792244759,0.00020636506186523,-2.3272270828322e-09,3.0649815248576e-09,-9.0718834657451e-11,7.5541596377132e-10,-0.00020908077822314,0.00020908144355404,-0.00020944037292825,0.00020943897987169,-0.00020944008059849,0.00020943924647841,-0.00020943865259137,0.00020944077753207,-0.00020943835906121,0.00020944104386341,-0.00020636569831861,0.00020636733293422,-0.00020636485176148,0.00020636815229389,-0.00020967275009359,0.0002096684012474,-0.00020966748960057,0.00020967380502841,3.6897636876685e-10,7.7515117720039e-10,-0.0001914313989148,0.00019143253136219,9.9779792060274e-10,1.4086073523827e-10,-0.0001940637707836,0.00019406506151096,-0.00019406407977382,0.0001940647731863,-0.00019406362766596,0.0001940651869488,-0.00019406393372155,0.00019406489843644,-0.00019679554297768,0.00019679678854567,-0.00019679595520032,0.00019679640396619,0.77011573254607,125803,2834,0.00087079135819991,0.00087079135815202,0.00079731732188082,31.993722866863,1.5949782934901e-05,1.5949782934901e-05,1.5949782934901e-05,936136.50461642,0.0025421266673168
3819200,0.14810790393386,0.0029154147169478,0.00099075043839585,0.00099075043830387,0.00093391384024811,-0.00024402651849523,0.00024402602983584,1.2559098776683e-11,-5.0089536501984e-10,2.1688040600615e-09,-2.7239324632257e-09,-0.00024526577017139,0.00024526706799766,-0.00024526592701125,0.00024526688373977,-0.00024526733063615,0.00024526543392815,-0.00024526749298877,0.00024526525148822,-0.00023963019578027,0.00023962857711138,-0.00023963068266169,0.00023962805180835,-2.1880026057502e-09,2.7595458427853e-09,-3.9104632556427e-10,8.9519583708019e-10,-0.00024402602194294,0.00024402652634401,-0.00024526715986239,0.00024526560609647,-0.0002452667217213,0.00024526602023953,-0.00024526558078309,0.00024526725672744,-0.00024526514390042,0.00024526766844456,-0.00023962894183907,0.00023962983907489,-0.00023962766666872,0.00023963108712231,-0.00024435267651995,0.00024434875134771,-0.00024434785339372,0.00024435370932245,2.57577790278e-10,7.7069993114613e-10,-0.00022104205388148,0.00022104306903253,1.1534819518864e-09,-1.2986221712217e-10,-0.00022450277052794,0.00022450404687902,-0.00022450321955591,0.00022450361778072,-0.0002245025909685,0.00022450420956087,-0.0002245030396694,0.00022450377814674,-0.00022760964193448,0.0002276107314325,-0.00022761015382355,0.00022761024411295,0.77140158992255,125803,2834,0.0010162585027873,0.0010162585026955,0.00092059027578904,32.324501666003,1.8596013328027e-05,1.8596013328027e-05,1.8596013328027e-05,1099132.5852644,0.0029574731570661
4019200,0.17061260542525,0.0033339225899613,0.0011363423136599,0.0011363423135674,0.001061237962734,-0.00027991905780336,0.00027991869475166,1.2910665198335e-10,-4.9179690582446e-10,2.1494594789295e-09,-2.5762684848839e-09,-0.00028215694449518,0.00028215834710265,-0.00028215713793589,0.00028215812679143,-0.00028215845024107,0.00028215676972222,-0.00028215864835583,0.00028215655231644,-0.00027368581379357,0.00027368447995251,-0.00027368640279652,0.00027368385034476,-2.1588037886438e-09,2.6025451014542e-09,-6.987726884607e-10,1.0778153785825e-09,-0.00027991868659754,0.00027991906591335,-0.00028215849955575,0.00028215671959122,-0.00028215790302263,0.00028215729753965,-0.00028215697896798,0.00028215830944738,-0.00028215638272092,0.00028215888592444,-0.00027368503457169,0.00027368526146657,-0.00027368328012173,0.00027368699671383,-0.0002799954180572,0.00027999170921333,-0.00027999077272675,0.00027999648459168,1.2026438525027e-10,7.4146130285145e-10,-0.00025102492493999,0.00025102577176443,1.3168629582681e-09,-4.6410413182154e-10,-0.00025529067125118,0.00025529190822875,-0.00025529128558093,0.00025529131366821,-0.00025529045617742,0.00025529210611292,-0.00025529106912943,0.00025529151069943,-0.00025904684070655,0.00025904770623545,-0.00025904746009661,0.00025904711071918,0.77299483206569,125803,2834,0.0011656473298147,0.0011656473297229,0.0010453978457055,32.661964431293,2.1295715450341e-05,2.1295715450341e-05,2.1295715450341e-05,1241050.8490663,0.0033824016250225
4219200,0.19368943388814,0.0037624066575098,0.0012859615596291,0.0012859615595334,0.0011904835383472,-0.00031680024846511,0.00031679996683312,2.2376246297506e-10,-5.0478182640876e-10,2.1626210201917e-09,-2.5071434247099e-09,-0.00032011673503913,0.00032011823587961,-0.00032011696392859,0.00032011797931826,-0.00032011822196929,0.00032011667696012,-0.00032011845616089,0.00032011642381782,-0.00030856903745173,0.00030856790965442,-0.00030856973021742,0.00030856717261114,-2.1705605249982e-09,2.5333357062987e-09,-9.6633022237185e-10,1.2650345169448e-09,-0.000316799958018,0.00031680025723461,-0.00032011844229915,0.00032011645230821,-0.00032011770035273,0.00032011718295261,-0.00032011694030828,0.00032011802335264,-0.00032011619872816,0.00032011875249137,-0.00030856863021192,0.00030856831173054,-0.00030856643550249,0.000308570498147,-0.00031666085161341,0.00031665726855629,-0.00031665626154223,0.00031666198785247,-2.0376077509294e-11,7.0870931782858e-10,-0.0002814210838606,0.00028142175506071,1.4522943169607e-09,-7.797912011133e-10,-0.00028646678303608,0.00028646795792136,-0.00028646754715439,0.00028646721397325,-0.00028646653167233,0.00028646819155179,-0.00028646729458644,0.00028646744668892,-0.00029116877365815,0.00029116942130536,-0.0002911694983625,0.00029116872022793,0.77488671255206,125803,2834,0.00131912744354,0.0013191274434451,0.0011719107182592,32.999699910118,2.3997599280942e-05,2.3997599280942e-05,2.3997599280942e-05,1368021.8860471,0.0038174359439928
4419200,0.21770659236866,0.0042080195826919,0.0014422019492899,0.0014422019491799,0.0013236156842221,-0.00035581137995586,0.00035581121912162,3.7214544930021e-10,-5.3251721694985e-10,2.1479030454187e-09,-2.3684911205897e-09,-0.00036026569825641,0.00036026731441152,-0.00036026597194627,0.00036026701154895,-0.00036026712229279,0.00036026581913286,-0.00036026742852643,0.00036026549467388,-0.00034542526156463,0.00034542451715879,-0.00034542616441934,0.00034542356714774,-2.1910354064164e-09,2.4646956633192e-09,-1.2689781347319e-09,1.4805533394803e-09,-0.00035581119352678,0.00035581140549698,-0.0003602675876743,0.00036026534443954,-0.00036026666760244,0.00036026626228171,-0.00036026608839314,0.00036026691238146,-0.00036026519498803,0.00036026780276142,-0.00034542532742566,0.00034542443733129,-0.00034542267074776,0.00034542709973566,-0.00035548967102296,0.00035548625647292,-0.00035548516476467,0.00035549088887152,-1.2149767935066e-10,6.4694824094003e-10,-0.0003131613531489,0.00031316185912447,1.5891438440359e-09,-1.087515042676e-09,-0.0003190662327193,0.00031906736377347,-0.00031906713170607,0.00031906648537285,-0.00031906595494421,0.00031906762355011,-0.00031906687902025,0.00031906671851187,-0.00032489953770657,0.00032489987431498,-0.00032490026002224,0.00032489917172762,0.77612066334174,125803,2834,0.001481445427324,0.0014814454272123,0.0013040019852309,33.593241304213,2.87459304337e-05,2.87459304337e-05,2.87459304337e-05,1489800.2264863,0.0042760124332416
4619200,0.24280162929498,0.0046734588214853,0.0016062616328807,0.0016062616327884,0.0014609355558161,-0.00039697360286491,0.0003969735014562,4.2944899240748e-10,-5.3034491531218e-10,2.1581248063274e-09,-2.3182143880094e-09,-0.00040264787032911,0.00040264955823171,-0.00040264817313734,0.0004026492235701,-0.00040264928621047,0.00040264807070893,-0.00040264960360778,0.00040264773505121,-0.00038421775616034,0.00038421710504492,-0.00038421867795773,0.00038421613363033,-2.1812154308511e-09,2.3867495455935e-09,-1.478251052547e-09,1.623459123804e-09,-0.00039697347940464,0.0003969736248705,-0.00040264986792588,0.0004026474763996,-0.00040264884422734,0.00040264850463889,-0.00040264840286814,0.00040264900965435,-0.0004026473858841,0.00040265002903424,-0.00038421810352505,0.00038421673767449,-0.00038421506996653,0.00038421978530712,-0.00039654311487238,0.00039653979841221,-0.00039653865378394,0.00039654437659331,-2.6751268334242e-10,6.6089786158281e-10,-0.00034599665835426,0.00034599703075153,1.7121201188836e-09,-1.3496120987733e-09,-0.00035285640322441,0.00035285748934228,-0.00035285744188134,0.00035285647163712,-0.00035285608641249,0.00035285778812778,-0.00035285712466516,0.00035285676865932,-0.00036000381084937,0.00036000407834438,-0.00036000472268603,0.00036000318369024,0.77693644943791,125803,2834,0.0016526846953547,0.0016526846952591,0.0014406335329294,34.290829620821,3.4326636966566e-05,3.4326636966566e-05,3.4326636966566e-05,1605746.6246966,0.0047572877595429
4819200,0.26894264222534,0.005158440460162,0.0017782543779073,0.0017782543778214,0.0016019317044333,-0.00044008908712264,0.00044008901778676,4.9631103377389e-10,-5.6509270348227e-10,2.1704547086132e-09,-2.2981122920264e-09,-0.00044703903063215,0.00044704078381449,-0.0004470393689175,0.00044704041206462,-0.00044704044583931,0.00044703929619238,-0.00044704079409585,0.00044703892973236,-0.00042472525909463,0.0004247247372112,-0.00042472627537274,0.00042472367026267,-2.1895747813611e-09,2.3608538825479e-09,-1.6178618091738e-09,1.7293733249239e-09,-0.00044008899656313,0.00044008910830362,-0.00044704111209985,0.00044703861500098,-0.00044704001302893,0.00044703972337583,-0.00044703965554717,0.00044704013963275,-0.00044703855779934,0.00044704124466069,-0.00042472581166817,0.00042472415966379,-0.00042472253589524,0.00042472745791024,-0.00043964728358797,0.00043964402489857,-0.00043964283315665,0.00043964859179177,-3.6756060070317e-10,6.746709438246e-10,-0.00037963193832149,0.00037963222354976,1.7897280510522e-09,-1.518630896693e-09,-0.00038754134885352,0.00038754239340677,-0.00038754247077976,0.0003875412927444,-0.00038754099510361,0.00038754272921985,-0.00038754211373398,0.00038754162921819,-0.00039621566345853,0.0003962158784923,-0.00039621669077259,0.00039621486652858,0.77792177873993,125803,2834,0.0018320178648296,0.0018320178647409,0.0015805764565354,34.991220740619,3.9929765924956e-05,3.9929765924956e-05,3.9929765924956e-05,1718145.9794183,0.0052583955245485
5019200,0.29607878095081,0.0056606743286639,0.001957506149233,0.0019575061491478,0.001745662030283,-0.00048496917406057,0.00048496912130801,5.5890417671399e-10,-6.1106099759421e-10,2.1798749403463e-09,-2.2909291506723e-09,-0.0004932683912323,0.00049327019736014,-0.0004932687647461,0.00049326978911749,-0.00049326980651442,0.00049326870865256,-0.00049327019042043,0.00049326830662476,-0.00046671519868078,0.00046671480005682,-0.00046671632268749,0.000466713625279,-2.1977146917365e-09,2.3519466542125e-09,-1.7102918225987e-09,1.804829390054e-09,-0.0004849691002792,0.0004849691950466,-0.00049327053347441,0.00049326796509505,-0.00049326938122485,0.00049326913001376,-0.00049326907785333,0.00049326948919898,-0.00049326792667062,0.00049327065101839,-0.00046671590178781,0.00046671406882579,-0.00046671246577553,0.00046671753355255,-0.00048457172026114,0.00048456850139299,-0.00048456727158054,0.00048457306684775,-4.490929332789e-10,7.000983091831e-10,-0.0004138688023057,0.00041386903088278,1.8427951569032e-09,-1.6316945005801e-09,-0.00042294527331145,0.00042294628090256,-0.00042294645014857,0.00042294512560946,-0.00042294488347892,0.00042294665284483,-0.00042294605735538,0.0004229454975159,-0.00043329376194309,0.00043329397043547,-0.0004332948938039,0.00043329285256596,0.77677324622812,125803,2834,0.00201865599564,0.002018655995551,0.0017230045271274,35.691726737166,4.5533813897324e-05,4.5533813897324e-05,4.5533813897324e-05,1833836.5646554,0.0057769472306692
5219200,0.32351155684647,0.0061687850485549,0.0021399276636201,0.0021399276635333,0.0018889297214015,-0.00052990400982263,0.00052990389949519,5.8826973089588e-10,-6.9759058588057e-10,2.2731396840548e-09,-2.4447319115594e-09,-0.00053956842724864,0.00053957029436931,-0.00053956883793043,0.00053956984902687,-0.00053956992007871,0.00053956872466116,-0.0005395703438558,0.00053956828283935,-0.00050858197853254,0.00050858155866669,-0.00050858322070299,0.00050858026642256,-2.2915875060747e-09,2.5076488233321e-09,-1.6017096456637e-09,1.7546799307105e-09,-0.00052990387784403,0.00052990403143074,-0.00053957058488959,0.00053956804389081,-0.00053956948276173,0.00053956915737092,-0.00053956904834847,0.00053956965253683,-0.00053956794992741,0.00053957076016012,-0.00050858252187796,0.00050858098965956,-0.00050857924501689,0.00050858429345704,-0.00052967614427276,0.00052967269152678,-0.00052967145642059,0.0005296775016343,-4.8913189585771e-10,7.598366976134e-10,-0.00044725237814814,0.00044725262660543,1.7724692182398e-09,-1.5405356310712e-09,-0.00045756089822391,0.00045756183711075,-0.00045756202030078,0.00045756073716922,-0.00045756047362655,0.00045756224361958,-0.00045756159529767,0.0004575611407307,-0.00046976045294052,0.00046976082866186,-0.00046976167889471,0.00046975961697523,0.77855551234181,125803,2834,0.0022054861281873,0.0022054861280978,0.0018618663933181,36.022061972971,4.8176495783765e-05,4.8176495783765e-05,4.8176495783765e-05,1940669.698124,0.0062925645039946
5419200,0.35103348703893,0.0066719341554749,0.0023216725996216,0.0023216725995305,0.0020285889563228,-0.00057457429096445,0.00057457412039821,6.006703731383e-10,-7.6988716465206e-10,2.3265098961314e-09,-2.5603623087772e-09,-0.00058575856762676,0.00058576046095521,-0.00058575901005555,0.00058575998466649,-0.00058576011668172,0.00058575883246667,-0.00058576056612231,0.00058575836512479,-0.0005499093524985,0.00054990889102259,-0.00054991066881492,0.00054990752482624,-2.336522065443e-09,2.6098242088205e-09,-1.4831118720694e-09,1.6912001761352e-09,-0.00057457410114629,0.00057457431017136,-0.00058576070322652,0.00058575823155961,-0.00058575966194225,0.00058575928138668,-0.00058575912299506,0.00058575988653478,-0.00058575807963012,0.00058576093622699,-0.00054990974031154,0.00054990848093389,-0.00054990663068621,0.00054991161284877,-0.00057441628836392,0.00057441267817852,-0.00057441144832122,0.00057441764371941,-5.3761456591965e-10,8.4235695236744e-10,-0.00047964997065849,0.00047965025339304,1.7032085109276e-09,-1.4347603920843e-09,-0.00049138300246848,0.00049138387634008,-0.00049138406965392,0.00049138283170069,-0.0004913825374084,0.00049138432324246,-0.00049138359783249,0.00049138328153672,-0.00050518753541651,0.0005051881402429,-0.00050518889874528,0.0005051867922721,0.76958002278413,125803,2834,0.0023911808993816,0.002391180899288,0.001996611729436,36.275145533384,5.0201164267071e-05,5.0201164267071e-05,5.0201164267071e-05,2054028.7307195,0.0068020159110164
5619200,0.37855982870423,0.0071509518984646,0.0024957593502922,0.0024957593501909,0.0021594331979815,-0.00061770146094107,0.00061770125698278,6.419480593392e-10,-8.4431708781018e-10,2.3502387154676e-09,-2.6178313319615e-09,-0.00063091868490927,0.00063092060911075,-0.00063091916495198,0.0006309200961466,-0.00063092026002798,0.00063091895398935,-0.00063092074800199,0.0006309184481429,-0.00058930312133384,0.00058930271608618,-0.00058930455399031,0.00058930123278171,-2.3628291178688e-09,2.6695791170747e-09,-1.3978816254163e-09,1.6387982883832e-09,-0.00061770123787491,0.00061770148000563,-0.00063092081131819,0.0006309183897351,-0.00063091981268896,0.00063091939395916,-0.00063091920364729,0.00063092007294867,-0.00063091820449075,0.00063092107584357,-0.0005893034386963,0.00058930237854316,-0.00058930046518734,0.00058930536972351,-0.00061697251323875,0.0006169688101615,-0.00061696759358777,0.00061697385755166,-5.7245153895262e-10,9.0770534819528e-10,-0.00050998721193813,0.00050998752519261,1.6511584536994e-09,-1.3495884203559e-09,-0.00052378919849944,0.000523790021293,-0.00052379021916506,0.0005237890235924,-0.00052378869833253,0.00052379050343978,-0.00052378971450924,0.00052378950585164,-0.0005378181098838,0.00053781888634295,-0.00053781956906428,0.00053781744300561,0.7363704768557,125803,2834,0.002570426999735,0.002570426999645,0.0021227749699062,36.526073312896,5.2208586503167e-05,5.2208586503167e-05,5.2208586503167e-05,2213437.5046179,0.0072900903664226
5819200,0.40600356443416,0.0076075830202831,0.0026623741143298,0.0026623741141832,0.00228283479177,-0.00065969212527845,0.00065969190988637,6.9014814727137e-10,-9.0370425045548e-10,2.3619211188723e-09,-2.6406433964216e-09,-0.00067531872115891,0.00067532068069698,-0.00067531923734564,0.00067532013224439,-0.00067532030735492,0.00067531901456949,-0.00067532083107108,0.00067531847286376,-0.00062735999958188,0.00062735967705656,-0.00062736153749664,0.00062735808804306,-2.3746823302319e-09,2.6921100348479e-09,-1.347400169342e-09,1.5990881165715e-09,-0.00065969189098089,0.00065969214412823,-0.00067532085107322,0.00067531845893413,-0.00067531988066201,0.0006753194328279,-0.00067531923251702,0.0006753201531813,-0.00067531826160585,0.00067532112580436,-0.00062736030369779,0.00062735935414465,-0.00062735741678061,0.00062736225476348,-0.00065785632719694,0.00065785257159564,-0.00065785137385708,0.00065785765239916,-6.185245096051e-10,9.6978039181589e-10,-0.00053865240653241,0.00053865273572871,1.6159265996012e-09,-1.2964171804829e-09,-0.00055525674099728,0.00055525751380872,-0.00055525773238878,0.00055525654547282,-0.00055525620487038,0.00055525803188942,-0.00055525719171004,0.00055525706364958,-0.000568387699115,0.00056838862675875,-0.00056838926461041,0.00056838707748322,0.71317582983097,125803,2834,0.0027449169274747,0.0027449169273589,0.0022419748018407,36.776912022144,5.4215296177149e-05,5.4215296177149e-05,5.4215296177149e-05,2330216.3275428,0.0077618001021634
6019200,0.43288625963831,0.0080444455468168,0.0028224844727324,0.0028224844725845,0.0023994766015,-0.00070013376352872,0.00070013350978888,7.1378725540696e-10,-9.6527348741049e-10,2.4192360273529e-09,-2.737930191612e-09,-0.00071820725651608,0.00071820926278267,-0.00071820780696448,0.00071820868066802,-0.00071820889814551,0.00071820753965657,-0.00071820944487709,0.00071820697503259,-0.00066374225785553,0.00066374191369743,-0.00066374386328348,0.00066374025783263,-2.4481069313961e-09,2.8123560521514e-09,-1.2379957804387e-09,1.5341650990023e-09,-0.00070013348754621,0.00070013378569994,-0.00071820938758559,0.00071820703960871,-0.0007182084783895,0.00071820794935441,-0.00071820771213341,0.00071820879239061,-0.00071820679199892,0.00071820971241736,-0.00066374242034402,0.00066374173419717,-0.00066373968673565,0.00066374447839067,-0.00069707381195847,0.00069706983738932,-0.00069706865316186,0.00069707512782383,-6.7238585670514e-10,1.0461750454528e-09,-0.000565532817304,0.00056553316915907,1.5387668587967e-09,-1.1940546585794e-09,-0.0005853962453854,0.00058539694284022,-0.00058539718247967,0.00058539602866306,-0.00058539567115615,0.00058539749870297,-0.00058539659333764,0.00058539659576568,-0.0005972244594864,0.00059722561326417,-0.00059722616876677,0.00059722392005235,0.70261522340283,125803,2834,0.0029129395176026,0.0029129395174542,0.0023537450044583,36.775463556178,5.4203708449427e-05,5.4203708449427e-05,5.4203708449427e-05,2362353.8235913,0.0082132014795841
6219200,0.45914081897951,0.0084737384247736,0.0029801562803359,0.00298015628021,0.0025134258642278,-0.00073982789249668,0.00073982760734291,7.5525907329492e-10,-1.0379857316896e-09,2.4352391197342e-09,-2.7865283044731e-09,-0.00076014546930262,0.00076014750017105,-0.0007601460560991,0.00076014688245935,-0.00076014712893455,0.00076014575794696,-0.0007601477140091,0.00076014515485532,-0.0006995722500396,0.00069957196995271,-0.00069957397209294,0.00069957019752196,-2.4586294277351e-09,2.8562960658594e-09,-1.1649564908244e-09,1.4931269071027e-09,-0.00073982758472347,0.00073982791506398,-0.00076014758795114,0.00076014528916838,-0.00076014671393176,0.00076014616212108,-0.00076014589343532,0.00076014706254606,-0.0007601450107429,0.00076014794317964,-0.00069957236191378,0.00069957184261897,-0.00069956974470029,0.00069957446907619,-0.00073578784214587,0.00073578381426613,-0.00073578263663376,0.00073578915606726,-7.1668061513037e-10,1.1033708283962e-09,-0.0005917907909591,0.00059179115581151,1.4910647056714e-09,-1.1315716679985e-09,-0.00061492317215766,0.00061492381020252,-0.00061492407133568,0.00061492293335572,-0.00061492256220239,0.00061492440152492,-0.00061492344877658,0.00061492353443501,-0.00062568148621103,0.00062568278524071,-0.0006256832910434,0.00062568099606728,0.70745490905278,125803,2834,0.003077827732527,0.0030778277324187,0.0024629191074639,36.758801647238,5.4070413177908e-05,5.4070413177908e-05,5.4070413177908e-05,2355457.1854654,0.0086558647525864
6419200,0.48472590974477,0.0088895666739555,0.0031331259604977,0.0031331259603705,0.0026233147530874,-0.00077824841941674,0.00077824811505516,8.0019893270718e-10,-1.1021027358121e-09,2.4226460377089e-09,-2.793683521239e-09,-0.00080077231449791,0.00080077435941565,-0.00080077293669988,0.00080077370661129,-0.00080077397092951,0.00080077261995468,-0.00080077459279622,0.00080077197985769,-0.00073427215644401,0.0007342719681334,-0.00073427398757968,0.00073427008644352,-2.443914973781e-09,2.8621002310837e-09,-1.1192883982772e-09,1.4673475562526e-09,-0.00077824809207228,0.0007782484423471,-0.00080077441746596,0.00080077216403679,-0.00080077356550064,0.00080077301399309,-0.00080077272564926,0.00080077393558651,-0.00080077186644414,0.00080077479135751,-0.00073427226993036,0.00073427183997506,-0.00073426972494484,0.00073427439315617,-0.00077324768175986,0.00077324366147268,-0.00077324248777421,0.00077324899344522,-7.4932235380652e-10,1.1771629955668e-09,-0.00061717159624882,0.00061717200230012,1.4772166910717e-09,-1.0755381724993e-09,-0.0006434794219687,0.0006434800424522,-0.00064348029793713,0.0006434791886155,-0.00064347877652456,0.0006434806693347,-0.00064347963978535,0.00064347982548922,-0.00065316058992112,0.00065316205850338,-0.00065316249938085,0.00065316016381045,0.70210891876033,125803,2834,0.0032373981190163,0.0032373981189072,0.0025684384979188,36.741645811903,5.3933166495223e-05,5.3933166495223e-05,5.3933166495223e-05,2374280.358319,0.0090843035681302
6619200,0.51001481590597,0.0093245640493764,0.0032925497874742,0.0032925497873434,0.0027394644745588,-0.00081785499602104,0.00081785471125989,8.7473859730689e-10,-1.157301933838e-09,2.3079642094835e-09,-2.6580080785013e-09,-0.00084212990384852,0.0008421319227304,-0.00084213056332879,0.00084213123234969,-0.00084213147241929,0.00084213027189964,-0.00084213214259783,0.00084212958358438,-0.00077075998760009,0.00077076004488849,-0.00077076196248542,0.00077075801933981,-2.3176043868357e-09,2.7111369032985e-09,-1.1787586454978e-09,1.5039348583151e-09,-0.00081785468997339,0.00081785501723177,-0.00084213197885125,0.00084212975655934,-0.00084213108939768,0.00084213064393402,-0.00084213037169325,0.00084213144130556,-0.00084212948624479,0.00084213232406439,-0.00077076031970181,0.00077075969725875,-0.00077075769746864,0.00077076232889095,-0.0008127698075075,0.00081276608580061,-0.00081276490242401,0.00081277112640254,-7.893374315222e-10,1.2228373838044e-09,-0.00064393589363662,0.00064393630511587,1.5321778827748e-09,-1.1254371175739e-09,-0.00067285754505319,0.00067285817208087,-0.00067285845015401,0.00067285728747946,-0.00067285686548297,0.00067285883249182,-0.00067285776839286,0.00067285794897937,-0.0006827133620366,0.00068271487035844,-0.00068271533996655,0.00068271290629071,0.74070665281088,125803,2834,0.003401867571397,0.0034018675712397,0.0026796994579395,37.008335906353,5.6066687250828e-05,5.6066687250828e-05,5.6066687250828e-05,2329029.0790632,0.0095286093497937
6819200,0.5361000133267,0.0098079554594719,0.0034688715676654,0.0034688715675618,0.0028702123242447,-0.00086191409614923,0.00086191391317525,1.0586521041696e-09,-1.2402697185232e-09,2.0190697496874e-09,-2.2622319555725e-09,-0.00088735677923561,0.00088735874123785,-0.00088735750594015,0.00088735798228423,-0.00088735810253507,0.00088735733724811,-0.00088735888204741,0.00088735654023795,-0.00081234210424713,0.00081234281140489,-0.00081234440169542,0.00081234046097116,-1.985269489174e-09,2.2509425220958e-09,-1.4484767142772e-09,1.6528400026427e-09,-0.00086191390169248,0.00086191410749659,-0.00088735883636229,0.00088735659582628,-0.00088735778894965,0.00088735764349116,-0.00088735746482485,0.00088735803679908,-0.00088735646384693,0.00088735904004644,-0.00081234312665892,0.00081234177056215,-0.00081234015546049,0.00081234475398907,-0.00085786310102943,0.00085786023908302,-0.00085785903536587,0.00085786443059029,-7.9085347364462e-10,1.16926156645e-09,-0.00067485640317925,0.00067485675893477,1.7453164444148e-09,-1.3978933818186e-09,-0.00070560101460977,0.00070560174331171,-0.00070560205632017,0.00070560071443662,-0.00070560032888396,0.00070560240624006,-0.00070560141332559,0.00070560134085699,-0.00071749284270298,0.00071749401767173,-0.00071749470485573,0.00071749216837842,0.79221449551096,125803,2834,0.0035847952561256,0.0035847952558441,0.0028082226263247,38.071483521613,6.4571868172903e-05,6.4571868172903e-05,6.4571868172903e-05,2282880.7257815,0.01002782653607
7019200,0.56288569829872,0.010268664511071,0.0036379477325712,0.0036379477325991,0.0029927690459005,-0.00090563610192342,0.00090563604424668,1.1457121252222e-09,-1.2026932571642e-09,1.8208762093935e-09,-1.933820047272e-09,-0.00093272365630247,0.00093272560537808,-0.00093272441362226,0.00093272481486899,-0.00093272482208853,0.00093272436703363,-0.00093272561911477,0.00093272355178907,-0.00085258773161152,0.00085258875836939,-0.00085259004995792,0.00085258638712642,-1.80741527241e-09,1.9395288694458e-09,-1.7153855030027e-09,1.7926246530804e-09,-0.00090563603431283,0.00090563611181031,-0.00093272575312098,0.00093272342406771,-0.00093272458314182,0.00093272460030082,-0.00093272455015418,0.00093272469273463,-0.00093272341153674,0.00093272583589927,-0.00085258927195168,0.00085258719814445,-0.00085258587625374,0.00085259061157967,-0.00090139837870246,0.00090139597840137,-0.00090139476726001,0.00090139970115382,-9.0480113286536e-10,1.2182138962546e-09,-0.00070506360763612,0.00070506389787671,1.9017133986908e-09,-1.623388938699e-09,-0.00073829752828509,0.0007382982761152,-0.00073829870367423,0.00073829711457098,-0.00073829679859554,0.00073829898348027,-0.0007382980060755,0.00073829779547445,-0.0007505520257315,0.00075055318087653,-0.00075055405979056,0.00075055115907857,0.73335806119386,125803,2834,0.0037662885447713,0.0037662885446727,0.0029337688143735,39.155520380314,7.3244163042516e-05,7.3244163042516e-05,7.3244163042516e-05,2297625.0121789,0.010521389339665
7219200,0.59021795316538,0.010720907942629,0.003804215086284,0.0038042150864641,0.003112477769881,-0.00094910542273777,0.00094910548083992,1.2562637373287e-09,-1.1978231198553e-09,1.7415629059781e-09,-1.7351679344283e-09,-0.00097830335924311,0.00097830537115704,-0.0009783041541362,0.00097830454174398,-0.00097830443858437,0.00097830422370727,-0.00097830527105635,0.00097830337305136,-0.00089213643318903,0.0008921377670736,-0.00089213885128405,0.0008921352971238,-1.7323887233901e-09,1.7429506489877e-09,-1.9326928550465e-09,1.8923173701798e-09,-0.00094910547207223,0.00094910543153227,-0.00097830555438459,0.00097830309386414,-0.00097830428405213,0.00097830437434343,-0.00097830443819926,0.00097830427088485,-0.00097830319664346,0.00097830552133115,-0.0008921383857443,0.00089213578848947,-0.00089213467830938,0.00089213952254932,-0.00094412536056639,0.00094412320818585,-0.00094412200952592,0.00094412666345378,-9.9455798037602e-10,1.2376149027437e-09,-0.00073510904229705,0.00073510926185935,2.0216113012047e-09,-1.8174557306317e-09,-0.00077104917249835,0.00077104991720078,-0.00077105045081648,0.00077104865320575,-0.00077104840508761,0.00077105066222111,-0.0007710497187462,0.00077104936820232,-0.00078301542197769,0.00078301650216673,-0.00078301755673182,0.00078301438110979,0.70718847533047,125803,2834,0.003946698310421,0.0039466983104758,0.0030586306486335,40.240412102564,8.1923296820509e-05,8.1923296820509e-05,8.1923296820509e-05,2346876.6043623,0.011012314381
7419200,0.61710469265526,0.011149644180101,0.0039619696060033,0.003961969606248,0.0032257049678495,-0.00098971688250898,0.00098971695454255,1.3358614209682e-09,-1.2630645338926e-09,1.9587502616711e-09,-1.9402215594455e-09,-0.0010214262198643,0.0010214284233698,-0.0010214270521297,0.0010214275562448,-0.0010214274272598,0.0010214271462102,-0.0010214283195827,0.0010214262357218,-0.00092862490567376,0.00092862628919082,-0.00092862749820843,0.00092862364439844,-1.9349286924331e-09,1.9249855567014e-09,-1.9165894652085e-09,1.8537994091417e-09,-0.00098971694981845,0.00098971688730571,-0.001021428580975,0.0010214259779228,-0.0010214273192272,0.0010214272515792,-0.0010214273259083,0.0010214272949317,-0.001021426114882,0.0010214285159009,-0.00092862678811756,0.00092862438111781,-0.0009286231661554,0.00092862802966713,-0.00098349328152057,0.00098349074364014,-0.00098348958578531,0.00098349454634946,-1.0427600361762e-09,1.2602868927476e-09,-0.0007628612814541,0.00076286147555012,1.9831803520508e-09,-1.8053037831778e-09,-0.00080166473442459,0.00080166540149885,-0.00080166598386955,0.00080166416646295,-0.00080166393078765,0.00080166618146242,-0.00080166523997549,0.00080166489239568,-0.0008127577133692,0.00081275881618135,-0.00081275988262417,0.00081275666601715,0.68501443369494,125803,2834,0.0041152148347008,0.0041152148348507,0.0031739540929347,40.769602802601,8.6156822420809e-05,8.6156822420809e-05,8.6156822420809e-05,2418871.2883253,0.011469774251707
7619200,0.64280819776329,0.011549511927254,0.0041091199056903,0.0041091199059368,0.0033312721156268,-0.0010270331005431,0.0010270330927973,1.3219126783868e-09,-1.32771528618e-09,2.1831598195249e-09,-2.2490268246567e-09,-0.0010613988072746,0.0010614011494412,-0.001061399679144,0.0010614002425769,-0.0010614002110091,0.0010613996724723,-0.0010614011029697,0.0010613987628188,-0.00096199470769979,0.0009619958245483,-0.0009619972885791,0.00096199319286735,-2.200825061011e-09,2.2875203568682e-09,-1.7365880540825e-09,1.7638593291502e-09,-0.0010270330822837,0.001027033111087,-0.0010614012386773,0.0010613986307531,-0.0010614000856678,0.0010613997934717,-0.0010613998005482,0.0010614001347545,-0.0010613986588546,0.0010614012859203,-0.00096199620846997,0.00096199430040832,-0.00096199278655542,0.00096199774543588,-0.001019337413503,0.0010193341965162,-0.0010193330365283,0.0010193386850807,-1.1148783116989e-09,1.3523222791297e-09,-0.00078796489565164,0.00078796510999039,1.8539841652733e-09,-1.6543783102606e-09,-0.0008299029187199,0.00082990348011596,-0.00082990409593126,0.0008299023194032,-0.00082990208221491,0.00082990429250648,-0.00082990327963718,0.00082990311687284,-0.00083941594676951,0.00083941738460824,-0.00083941833827549,0.00083941501420061,0.67223240600562,125803,2834,0.0042700301792157,0.0042700301792783,0.0032782655979518,40.851498042057,8.6811984336456e-05,8.6811984336456e-05,8.6811984336456e-05,2481101.6687485,0.011888572725876
7819200,0.66729454881469,0.011925662883045,0.0042475421079787,0.004247542108222,0.0034305786668446,-0.0010624122171292,0.0010624121493587,1.3540762650466e-09,-1.4194237974891e-09,2.3333572730076e-09,-2.4614579010331e-09,-0.0010993423408915,0.0010993447739091,-0.0010993432465599,0.0010993438338165,-0.0010993438533181,0.0010993431853333,-0.001099344792203,0.0010993422288338,-0.00099366578668276,0.00099366686974042,-0.00099366851209027,0.00099366409319377,-2.3375113448682e-09,2.4842777885476e-09,-1.5862188623935e-09,1.6709997145947e-09,-0.0010624121398845,0.0010624122266591,-0.0010993448076198,0.0010993422185387,-0.0010993437269515,0.0010993433063884,-0.0010993432517967,0.0010993438424022,-0.0010993421963735,0.0010993449058854,-0.00099366705589687,0.00099366557960137,-0.00099366389466771,0.00099366876108604,-0.0010532888104872,0.0010532852706447,-0.0010532841344169,0.0010532900641657,-1.1454703712902e-09,1.4138331789257e-09,-0.00081152136830841,0.0008115216138587,1.750472688794e-09,-1.5180016227873e-09,-0.00085672241460003,0.00085672288612846,-0.00085672350277058,0.00085672181449645,-0.00085672153698011,0.00085672373926435,-0.00085672266397954,0.0008567226341574,-0.00086456804679072,0.00086456965249518,-0.0008645704966346,0.00086456722640276,0.66655083144137,125803,2834,0.0044167857166198,0.0044167857167349,0.0033761431756127,40.921460558099,8.7371684464794e-05,8.7371684464794e-05,8.7371684464794e-05,2496645.0950345,0.012284715977982
8019200,0.69055813318178,0.012279711555713,0.0043778840065268,0.0043778840067718,0.003523943542414,-0.0010958229526714,0.001095822851362,1.3899659266127e-09,-1.4886901431557e-09,2.4328420062879e-09,-2.5953004595289e-09,-0.0011352244343575,0.0011352269469446,-0.0011352253763055,0.0011352259710428,-0.0011352260236059,0.0011352252799443,-0.0011352269968356,0.0011352242891134,-0.0010235780617731,0.0010235791349903,-0.001023580888203,0.0010235762571885,-2.4367964174245e-09,2.6181078536907e-09,-1.4669489681418e-09,1.5852294296673e-09,-0.0010958228418181,0.0010958229622705,-0.0011352269280213,0.0011352243641619,-0.0011352259147683,0.0011352253823967,-0.0011352252971748,0.0011352260645847,-0.001135224307741,0.0011352270604399,-0.0010235791720497,0.001023578005762,-0.0010235762079885,0.0010235809864282,-0.0010852933751379,0.0010852895689326,-0.0010852884667104,0.0010852945953735,-1.184754778314e-09,1.4849465729309e-09,-0.00083365331121612,0.00083365358881647,1.6650165541574e-09,-1.3989218930279e-09,-0.00088206249876094,0.00088206289811496,-0.00088206351989068,0.00088206189404395,-0.00088206158525915,0.00088206378721812,-0.00088206264363607,0.00088206275068528,-0.00088830284371873,0.00088830466300052,-0.00088830540717737,0.00088830212331265,0.66097248818714,125803,2834,0.004555355349381,0.0045553553494951,0.0034680969367279,40.990932095122,8.7927456760974e-05,8.7927456760974e-05,8.7927456760974e-05,2505618.1880896,0.012658437897778
8219200,0.71274338847828,0.012614443650717,0.004501132684676,0.0045011326849264,0.0036121782811142,-0.001127714218901,0.0011277141100227,1.4428190111637e-09,-1.5491393302098e-09,2.4651765651952e-09,-2.6348510123455e-09,-0.0011695178314126,0.0011695203940381,-0.0011695188075823,0.0011695193841811,-0.0011695194402599,0.0011695187070535,-0.0011695204550241,0.0011695176746675,-0.0010519393249777,0.0010519404883394,-0.0010519422728023,0.0010519374890735,-2.459689521997e-09,2.6458398927186e-09,-1.4099009613583e-09,1.5334860980707e-09,-0.0011277141016198,0.0011277142273592,-0.001169520340079,0.0011695177968137,-0.0011695193579937,0.0011695187821843,-0.0011695186888294,0.0011695195177045,-0.0011695177383257,0.0011695204735451,-0.0010519404110307,0.0010519393844943,-0.001051937563208,0.0010519422468781,-0.001115801387665,0.001115797513836,-0.0011157964418416,0.0011158025760607,-1.224234492258e-09,1.547688328831e-09,-0.00085473269470351,0.00085473299567513,1.623259321724e-09,-1.3328119543424e-09,-0.0009062548800461,0.00090625522918637,-0.0009062558617777,0.00090625426437906,-0.00090625392897719,0.00090625615571139,-0.0009062549551668,0.00090625515147795,-0.00091080680062344,0.00091080876777001,-0.00091080945230016,0.00091080613898506,0.65549139275967,125803,2834,0.0046876037138079,0.0046876037139221,0.0035556727533903,41.181072527324,8.9448580218591e-05,8.9448580218591e-05,8.9448580218591e-05,2511827.2223365,0.013015057033056
8419200,0.7339028752822,0.012932972376291,0.0046183656012243,0.0046183656014881,0.0036962411735789,-0.0011581550725896,0.0011581549695788,1.4973839362427e-09,-1.5978816727529e-09,2.4676800587152e-09,-2.6307128426461e-09,-0.0012022609856195,0.001202263590859,-0.0012022619985716,0.0012022625443832,-0.0012022625967265,0.0012022619020067,-0.0012022636444939,0.0012022608365813,-0.0010790293214522,0.0010790305852669,-0.0010790323638899,0.0010790274913876,-2.46601820766e-09,2.6462901113611e-09,-1.3880252134681e-09,1.5064499212537e-09,-0.0011581549608389,0.0011581550813855,-0.0012022635105347,0.0012022609783373,-0.0012022625456661,0.0012022619453348,-0.0012022618591926,0.0012022626988422,-0.0012022609224514,0.0012022636402142,-0.0010790304387021,0.0010790294504136,-0.0010790276317396,0.0010790322711741,-0.0011449355812012,0.0011449316736791,-0.0011449306223992,0.0011449367468335,-1.2723748932065e-09,1.6115918668571e-09,-0.00087483278469277,0.00087483310151916,1.6068327752477e-09,-1.3000061700485e-09,-0.00092937038092761,0.00092937069393739,-0.00092937134804019,0.00092936974405873,-0.0009293693946419,0.00092937165609351,-0.00092937040286003,0.00092937066943262,-0.00093225072147427,0.00093225283660616,-0.00093225348878541,0.00093225009179291,0.65380934836136,125803,2834,0.0048138201056516,0.0048138201057673,0.0036391755172401,41.430244535749,9.1441956285993e-05,9.1441956285993e-05,9.1441956285993e-05,2509309.6954152,0.013355449659112
8619200,0.75402242227792,0.013235498899535,0.0047296531006076,0.0047296531008833,0.0037761926980439,-0.0011870019800969,0.001187001885754,1.5547437251758e-09,-1.6466079119645e-09,2.47715347425e-09,-2.6308182076626e-09,-0.0012333301805157,0.001233332833908,-0.0012333312296374,0.001233331751329,-0.0012333317960798,0.0012333311412025,-0.0012333328787926,0.0012333300408134,-0.0011046640501528,0.0011046654219614,-0.0011046671957122,0.0011046622253711,-2.4763878519333e-09,2.6472791796159e-09,-1.379993929586e-09,1.4897597855303e-09,-0.0011870018770326,0.0011870019888798,-0.001233332731982,0.0012333301959103,-0.0012333317751677,0.0012333311538813,-0.0012333310769016,0.0012333319193346,-0.0012333301473253,0.0012333328531546,-0.0011046652122261,0.0011046642424678,-0.0011046624280683,0.0011046670399925,-0.0011725919810306,0.0011725880447858,-0.0011725870098913,0.0011725931285272,-1.3213171358682e-09,1.6719606526909e-09,-0.00089388601891136,0.00089388634720854,1.6003632125869e-09,-1.2817510045861e-09,-0.00095115088865549,0.00095115116907009,-0.00095115184772115,0.00095115022671351,-0.00095114986636254,0.00095115216728252,-0.00095115086591742,0.00095115118926937,-0.00095268175516469,0.00095268399727637,-0.00095268462974652,0.00095268114472066,0.65260875221101,125803,2834,0.0049334116218958,0.0049334116220229,0.0037183252894986,41.68101039657,9.3448083172559e-05,9.3448083172559e-05,9.3448083172559e-05,2504970.266259,0.013678112744885
8819200,0.7730942051729,0.013511648888788,0.0048314572792756,0.0048314572795587,0.0038487343299534,-0.0012137880280961,0.0012137879446169,1.6133986678958e-09,-1.6944050554416e-09,2.4991650153419e-09,-2.6412405326206e-09,-0.00126240600901,0.0012624087202412,-0.0012624070941559,0.0012624076016446,-0.0012624076365108,0.0012624070163006,-0.0012624087543984,0.0012624058806974,-0.0011281106012219,0.0011281120766645,-0.0011281138507282,0.0011281087763258,-2.4987885913708e-09,2.6579943999889e-09,-1.3817252465326e-09,1.4805396182791e-09,-0.0012137879359517,0.0012137880368282,-0.0012624085996081,0.0012624060441549,-0.0012624076451409,0.001262406999061,-0.0012624069331479,0.0012624077780359,-0.0012624060053447,0.0012624087098696,-0.0011281118114735,0.0011281108488186,-0.001128109033952,0.0011281136395785,-0.0011979580798785,0.0011979540973724,-0.0011979530753359,0.0011979592126288,-1.3716085174331e-09,1.7305466563111e-09,-0.0009114527816255,0.00091145311820201,1.6008202833076e-09,-1.2737135655269e-09,-0.00097133957902445,0.00097133982927088,-0.00097134053571944,0.00097133888912087,-0.00097133852074739,0.00097134086351988,-0.00097133951764406,0.00097133988814345,-0.00097134695447861,0.00097134931413317,-0.0009713499358058,0.0009713463546428,0.62941992598164,125803,2834,0.0050444447753257,0.0050444447754637,0.0037912971443476,41.931842011777,9.5454736094219e-05,9.5454736094219e-05,9.5454736094219e-05,2526851.3862018,0.013977261530879
9019200,0.79072100595628,0.013766950272349,0.0049254868994648,0.0049254868997541,0.0039159764731304,-0.0012376682303245,0.0012376681418436,1.6636520068673e-09,-1.7495215630819e-09,2.6227131330317e-09,-2.7701065472053e-09,-0.0012884228425445,0.0012884256663647,-0.0012884239613172,0.0012884245141792,-0.0012884245523337,0.0012884238797468,-0.0012884257069216,0.0012884227074898,-0.0011487831143664,0.0011487846094229,-0.0011487864724069,0.0011487812005346,-2.6222412260364e-09,2.7865936260149e-09,-1.3297705442104e-09,1.4332023775427e-09,-0.0012376681333118,0.0012376682389267,-0.0012884255136754,0.0012884229101237,-0.0012884245898203,0.0012884238332014,-0.00128842376154,0.0012884247294125,-0.0012884228678032,0.0012884256267339,-0.0011487842390713,0.0011487834674574,-0.0011487815634562,0.0011487861551321,-0.0012206132451822,0.0012206089927688,-0.0012206079989231,0.0012206143502142,-1.419485073453e-09,1.7928865501054e-09,-0.00092681452367184,0.0009268148747565,1.5572146938935e-09,-1.2149270763752e-09,-0.00098900398012012,0.00098900417239338,-0.00098900490085305,0.00098900326772102,-0.00098900288333113,0.0009890052448593,-0.00098900384789236,0.00098900430190593,-0.00098784489631473,0.00098784740738981,-0.00098784798074953,0.000987844344827,0.62977529984814,125803,2834,0.005143421609091,0.0051434216092363,0.0038551083120875,41.750418085582,9.4003344684653e-05,9.4003344684653e-05,9.4003344684653e-05,2529917.8017769,0.014242749486391
9219200,0.80689684086317,0.013998635221309,0.0050108295598691,0.0050108295601551,0.0039769761012852,-0.0012591237269505,0.0012591235824235,1.6888914029387e-09,-1.8301878814283e-09,2.6481870397037e-09,-2.8551084669256e-09,-0.0013119296997319,0.0013119325391781,-0.0013119308537439,0.0013119313518757,-0.0013119314441961,0.0013119307158563,-0.0013119326343511,0.0013119295080255,-0.001167133382293,0.0011671348902123,-0.0011671368443784,0.0011671313778853,-2.6487682981232e-09,2.8727388455081e-09,-1.2529733538567e-09,1.4119676448613e-09,-0.0012591235738165,0.0012591237356332,-0.001311932352022,0.001311929799941,-0.0013119314600581,0.0013119306905043,-0.0013119305644017,0.0013119316569221,-0.0013119297030371,0.0013119325214257,-0.0011671344199498,0.0011671338365862,-0.0011671318404334,0.0011671364279561,-0.0012409576974431,0.0012409533588611,-0.0012409523416381,0.0012409588310414,-1.4676775737196e-09,1.8543804330977e-09,-0.00094049736645273,0.00094049773094032,1.5148076775789e-09,-1.1585913222752e-09,-0.0010047846443108,0.0010047847799346,-0.0010047855318217,0.0010047839089875,-0.0010047835103126,0.0010047858893944,-0.0010047844428092,0.0010047849788792,-0.0010026230203017,0.0010026256844062,-0.0010026262125951,0.0010026225164501,0.62300580096694,125803,2834,0.0052323393149224,0.0052323393150788,0.0039119444682073,41.452884118457,9.1623072947658e-05,9.1623072947658e-05,9.1623072947658e-05,2532907.6944471,0.014480820287679
9419200,0.82173112909819,0.01420871196346,0.0050882213136084,0.0050882213138971,0.0040322693359548,-0.0012785237236842,0.0012785235586313,1.7327865241494e-09,-1.8944777997683e-09,2.6196451783439e-09,-2.8479321139818e-09,-0.00133329625885,0.001333299102349,-0.0013332974500232,0.001333297877982,-0.0013332979913167,0.0013332972899685,-0.0013332992164359,0.0013332960471536,-0.001183738349948,0.0011837399519463,-0.0011837419141379,0.0011837363373632,-2.6200133448025e-09,2.8653431642675e-09,-1.2085350366798e-09,1.3878897315501e-09,-0.0012785235500435,0.0012785237323577,-0.0013332988844219,0.0013332963890567,-0.0013332980157775,0.0013332972557322,-0.0013332971110712,0.0013332982328794,-0.0013332962708788,0.001333299075625,-0.0011837393994346,0.0011837388872838,-0.0011837368828534,0.0011837414150986,-0.0012593405668967,0.0012593362562112,-0.0012593352418916,0.0012593416990967,-1.5150099877875e-09,1.9144369365304e-09,-0.00095282222512871,0.0009528226023645,1.4882650304973e-09,-1.1187684746879e-09,-0.0010190410146466,0.0010190411061274,-0.0010190418813115,0.0010190402563286,-0.0010190398458086,0.001019042250143,-0.0010190407552946,0.0010190413629676,-0.001015900561251,0.0010159033683092,-0.0010159038622654,0.0010159000927316,0.61620823856346,125803,2834,0.0053127310221487,0.0053127310223258,0.0039631380163268,41.152137201943,8.9217097615541e-05,8.9217097615541e-05,8.9217097615541e-05,2540106.4506818,0.014695917751488
9619200,0.83533044316297,0.014399048312596,0.0051583468472054,0.0051583468474964,0.0040823546178946,-0.0012960639638209,0.0012960637890574,1.7814099022091e-09,-1.9527934770291e-09,2.5559780955649e-09,-2.7939911966045e-09,-0.0013527057877587,0.0013527086181913,-0.0013527070149922,0.0013527073578484,-0.0013527074811464,0.0013527068447568,-0.0013527087416489,0.0013527055665459,-0.0011987061669704,0.001198707902895,-0.0011987098353615,0.0011987041840484,-2.5565019212682e-09,2.811555952178e-09,-1.1816552067884e-09,1.3707069932154e-09,-0.0012960637804745,0.0012960639724906,-0.0013527083749992,0.0013527059434085,-0.0013527075208261,0.0013527067949701,-0.0013527066412192,0.0013527077476899,-0.0013527058150271,0.001352708576108,-0.0011987072771458,0.0011987067781081,-0.0011987048028917,0.0011987092630698,-0.0012759382706853,0.0012759340690497,-0.0012759330598312,0.0012759393980785,-1.5637161772156e-09,1.974230733018e-09,-0.00096392815399566,0.00096392854235332,1.4720910912876e-09,-1.0910665628272e-09,-0.0010319139003664,0.0010319139525145,-0.0010319147528174,0.0010319131169953,-0.0010319126956718,0.0010319151323062,-0.0010319135903107,0.0010319142600719,-0.0010278602101544,0.0010278631492699,-0.0010278636177235,0.0010278597675822,0.60938040335733,125803,2834,0.0053854101053435,0.0053854101055228,0.0040092670596171,40.851257152214,8.6810057217712e-05,8.6810057217712e-05,8.6810057217712e-05,2549051.2683898,0.014890264837724
9819200,0.84756179360136,0.014571088425115,0.0052216583887889,0.0052216583890815,0.0041277716472441,-0.0013110316327765,0.0013110314517563,1.8191434829447e-09,-1.9967102963416e-09,2.5048586569933e-09,-2.7490387215776e-09,-0.0013693735514405,0.0013693763672646,-0.0013693748018261,0.0013693750841795,-0.0013693752096129,0.0013693746305027,-0.0013693765024806,0.00136937332017,-0.0012114159574813,0.0012114178118795,-0.0012114197195517,0.0012114140008821,-2.521978097712e-09,2.7866344869787e-09,-1.1418284124954e-09,1.3402143818357e-09,-0.0013110314416156,0.0013110316430058,-0.0013693761078543,0.0013693737244568,-0.0013693752722369,0.0013693745570908,-0.0013693743894991,0.0013693755130937,-0.0013693735911983,0.0013693763133265,-0.0012114170911992,0.0012114166630835,-0.0012114146994998,0.0012114190659189,-0.0012901313262628,0.0012901271832681,-0.0012901261879804,0.0012901324391168,-1.6235580603694e-09,2.0480428796076e-09,-0.00097315299706027,0.00097315339951809,1.4307260581154e-09,-1.0349870921691e-09,-0.0010426828063672,0.0010426827915078,-0.0010426836225328,0.0010426819937094,-0.0010426815530813,0.0010426840205196,-0.0010426824205176,0.0010426831759392,-0.0010379152844344,0.0010379183884177,-0.0010379188100548,0.0010379148890076,0.61213710820852,125803,2834,0.0054474247979566,0.0054474247981399,0.0040475838126496,40.185797888508,8.1486383108066e-05,8.1486383108066e-05,8.1486383108066e-05,2552121.7673672,0.015055066097177
10019200,0.85855405371217,0.014726715283808,0.0052788625965362,0.0052788625968222,0.0041689900904498,-0.001324264898679,0.0013242647168686,1.8828896420727e-09,-2.0612771345749e-09,2.4476100863096e-09,-2.6923405247274e-09,-0.0013841014222598,0.0013841042444525,-0.0013841027186154,0.001384102914777,-0.0013841030448741,0.0013841025417172,-0.0013841043754775,0.0013841011937847,-0.0012226954307128,0.0012226974346437,-0.0012226993043049,0.0012226935109928,-2.4511262227764e-09,2.7138176812731e-09,-1.1098752612153e-09,1.30687135315e-09,-0.0013242647078279,0.0013242649078133,-0.001384103946553,0.0013841016339141,-0.0013841031353079,0.0013841024401733,-0.0013841022786168,0.0013841033709026,-0.0013841014972001,0.001384104154498,-0.0012226966383467,0.0012226962126379,-0.0012226942963823,0.001222698564777,-0.0013027308810665,0.0013027268414717,-0.0013027258708117,0.0013027319725753,-1.6616267748808e-09,2.0971725451124e-09,-0.00098126069645727,0.00098126110994364,1.4152574330205e-09,-1.0080034990113e-09,-0.0010521498500608,0.0010521498053396,-0.001052150654174,0.0010521490171118,-0.001052148569937,0.0010521510597609,-0.0010521494191669,0.0010521502336014,-0.0010468333530221,0.0010468365794562,-0.0010468369756323,0.0010468329818655,0.61574676595739,125803,2834,0.0055022498847131,0.0055022498849063,0.0040812604538412,39.481758630179,7.5854069041431e-05,7.5854069041431e-05,7.5854069041431e-05,2550770.1168281,0.015200582666401
10219200,0.8684463930424,0.014867882987275,0.005330691924471,0.0053306919247556,0.0042064991380482,-0.0013360464860629,0.0013360463100107,1.9383846886195e-09,-2.1110691358164e-09,2.3706567831802e-09,-2.6089457522628e-09,-0.0013971923742429,0.0013971951835859,-0.0013971937053652,0.0013971938197142,-0.0013971939437788,0.0013971935350261,-0.001397195310019,0.0013971921513739,-0.0012327984549199,0.001232800622874,-0.001232802433473,0.0012327965941168,-2.3751757370116e-09,2.6319874190992e-09,-1.1024133580347e-09,1.2941200554526e-09,-0.0013360463007384,0.0013360464954347,-0.0013971948656773,0.001397192606393,-0.0013971940609688,0.0013971934069625,-0.0013971932498333,0.001397194291737,-0.0013971924752796,0.0013971950675753,-0.0012327997625997,0.0012327993008705,-0.0012327974418448,0.0012328016310127,-0.001313993495251,0.0013139896006796,-0.0013139886410483,0.0013139945737136,-1.7124717608296e-09,2.1563984752715e-09,-0.00098845345076594,0.00098845387267227,1.4087030372326e-09,-9.9275104893746e-10,-0.0010605496566673,0.001060549576621,-0.0010605504540925,0.0010605487959538,-0.0010605483404536,0.0010605508680349,-0.0010605491822614,0.001060550048761,-0.0010548070173681,0.0010548103658032,-0.0010548107464413,0.0010548066620105,0.62007022405346,125803,2834,0.0055510578427838,0.0055510578429894,0.0041111370065001,38.776567850501,7.0212542804011e-05,7.0212542804011e-05,7.0212542804011e-05,2546735.7421109,0.015330040315142
10419200,0.87737652857255,0.014996479754015,0.0053778523911515,0.0053778523914369,0.0042407749714268,-0.0013466340564572,0.0013466338901736,1.9979839172569e-09,-2.1609760547825e-09,2.2900907665344e-09,-2.5178140248628e-09,-0.0014089191593387,0.0014089219582111,-0.0014089205273223,0.0014089205575288,-0.0014089206727121,0.0014089203666446,-0.0014089220750586,0.0014089189468282,-0.001241928075741,0.0012419304168444,-0.0012419321607712,0.0012419262812575,-2.2925679537403e-09,2.5387840097128e-09,-1.1143190055218e-09,1.2962904094752e-09,-0.0013466338809493,0.0013466340657843,-0.0014089216240476,0.0014089194087074,-0.0014089208147528,0.0014089202135827,-0.0014089200662991,0.0014089210350602,-0.0014089192865503,0.0014089218159966,-0.0012419295112814,0.0012419289670617,-0.0012419271758699,0.0012419313114873,-0.0013241699089518,0.0013241661814349,-0.0013241652265519,0.0013241709814285,-1.7629975457824e-09,2.2115761277203e-09,-0.00099491646469768,0.00099491689125105,1.4193800228098e-09,-9.9873925618015e-10,-0.0010680860243827,0.001068085919361,-0.0010680868273727,0.0010680851329636,-0.0010680846730489,0.0010680872459903,-0.0010680855202482,0.0010680864212057,-0.0010620169043292,0.0010620203556674,-0.001062020737172,0.0010620165479273,0.62506142165942,125803,2834,0.0055949170142356,0.0055949170144477,0.0041379827267365,38.101447417259,6.4811579338075e-05,6.4811579338075e-05,6.4811579338075e-05,2539636.8929504,0.015446383943696
10619200,0.88571197427349,0.015114296558289,0.0054210986296117,0.0054210986298993,0.0042720992987778,-0.0013574789302988,0.0013574787854236,2.084854119726e-09,-2.2265781525658e-09,2.1571865775485e-09,-2.3619695425694e-09,-0.0014208519178934,0.0014208546936976,-0.0014208533378554,0.0014208532412587,-0.0014208533376707,0.001420853198046,-0.0014208547889073,0.0014208517285384,-0.001251380505112,0.0012513831090733,-0.0012513847346884,0.0012513788274134,-2.1255007081183e-09,2.3446495560937e-09,-1.1973239578365e-09,1.3543137872023e-09,-0.0013574787782692,0.0013574789376307,-0.0014208543475443,0.0014208521802436,-0.0014208534934002,0.0014208530317004,-0.0014208529102414,0.0014208536859182,-0.0014208520816519,0.0014208545145988,-0.0012513822151171,0.0012513813849063,-0.0012513797373382,0.0012513838713825,-0.0013345800112952,0.0013345766552252,-0.0013345756785656,0.0013345811032238,-1.7987626836866e-09,2.2388865859634e-09,-0.0010019206584067,0.001001921076438,1.5070846456629e-09,-1.0958887577395e-09,-0.0010761205495377,0.0010761204774348,-0.0010761214156557,0.0010761196289752,-0.0010761191786203,0.0010761218247803,-0.0010761200855773,0.0010761209393272,-0.0010696768198112,0.0010696802666556,-0.0010696807179349,0.0010696763936184,0.61395111892388,125803,2834,0.0056398405340336,0.0056398405344005,0.0041670723429494,38.029742488367,6.423793990694e-05,6.423793990694e-05,6.423793990694e-05,2537118.9433707,0.015567181568949
10819200,0.89349517383103,0.015222425604715,0.0054608202689604,0.0054608202692403,0.0043007850665146,-0.0013675074634416,0.0013675073407918,2.1286167115147e-09,-2.2483486859616e-09,2.03678595994e-09,-2.2179964625541e-09,-0.0014319278578896,0.0014319305915289,-0.0014319292995992,0.0014319291170698,-0.0014319291911861,0.001431929183143,-0.0014319306658726,0.0014319276903457,-0.0012600721553423,0.0012600749355918,-0.0012600764534626,0.0012600705862704,-2.0364386910782e-09,2.2349727902292e-09,-1.2986549238616e-09,1.4363151554017e-09,-0.0013675073320971,0.0013675074722042,-0.0014319302731848,0.0014319280930539,-0.001431929358072,0.0014319290058197,-0.0014319289014251,0.0014319295315549,-0.0014319280139288,0.0014319304206345,-0.0012600740835948,0.0012600729907095,-0.0012600714306423,0.0012600756547474,-0.0013441620902325,0.001344158976128,-0.0013441579555106,0.0013441632211376,-1.8783081996819e-09,2.3089352473778e-09,-0.0010083946311107,0.001008395039472,1.5734196872281e-09,-1.1725859114138e-09,-0.0010835646484011,0.0010835645650546,-0.0010835655611796,0.0010835636688327,-0.001083563227502,0.0010835659620567,-0.0010835641837194,0.0010835650274841,-0.0010767078403965,0.0010767113726057,-0.0010767118810266,0.0010767073556833,0.60386753273307,125803,2834,0.0056813806642708,0.0056813806644106,0.0041939585761758,37.973813162681,6.3790505301446e-05,6.3790505301446e-05,6.3790505301446e-05,2540567.9560674,0.015678882622075
11019200,0.9007595172874,0.015321461740428,0.0054972326336541,0.0054972326339337,0.00432699647284,-0.0013767398889919,0.0013767397822118,2.1920786502666e-09,-2.2960470839847e-09,1.9753134469419e-09,-2.1397783719454e-09,-0.00144216400423,0.0014421667450127,-0.0014421654834367,0.0014421652326666,-0.0014421652919158,0.0014421653828625,-0.0014421668037169,0.0014421638531083,-0.0012680264315737,0.0012680293816051,-0.0012680308375966,0.0012680249242059,-1.9726677757065e-09,2.1538999710693e-09,-1.3802027354477e-09,1.5015261775493e-09,-0.0013767397738017,0.0013767398974859,-0.0014421664317127,0.0014421642348998,-0.0014421654685909,0.0014421651960915,-0.001442165107414,0.0014421656246405,-0.00144216417161,0.0014421665631599,-0.0012680285486449,0.0012680272467014,-0.0012680257514484,0.0012680300562012,-0.0013529427447455,0.0013529398038252,-0.0013529387511164,0.0013529439066388,-1.9358855275112e-09,2.355389512526e-09,-0.001014331024662,0.0010143314217622,1.6421657681119e-09,-1.2534144589283e-09,-0.0010904114470442,0.0010904113678492,-0.0010904124098541,0.0010904104215178,-0.0010904099917404,0.0010904127994944,-0.0010904109973099,0.0010904118153502,-0.0010831310029686,0.0010831345766788,-0.001083135145379,0.0010831304569423,0.59320719191749,125803,2834,0.0057196214674463,0.0057196214676193,0.0042186115664987,37.91852893789,6.3348231503123e-05,6.3348231503123e-05,6.3348231503123e-05,2547328.066516,0.01578162445457
11219200,0.90752761732216,0.015413642675635,0.005531107670023,0.0055311076703034,0.0043514273353081,-0.0013852430369135,0.0013852429386893,2.2505923528308e-09,-2.3460669636764e-09,1.965144068727e-09,-2.1207222920956e-09,-0.0014516003581388,0.0014516031341096,-0.0014516018733679,0.0014516015853575,-0.0014516016364277,0.0014516017814414,-0.0014516031843227,0.0014516002157456,-0.0012753533109891,0.0012753563858303,-0.0012753578237234,0.0012753518220293,-1.9617201652073e-09,2.133354091726e-09,-1.4419608613322e-09,1.5540856253722e-09,-0.0013852429305511,0.0013852430451082,-0.001451602821487,0.0014516005882387,-0.0014516018206348,0.0014516015873582,-0.0014516015070921,0.0014516019671087,-0.0014516005338631,0.0014516029442542,-0.0012753555554107,0.0012753541221836,-0.0012753526469895,0.0012753570444147,-0.001361045031011,0.0013610421503401,-0.0013610410681303,0.0013610462204855,-1.9943293287201e-09,2.4038276609503e-09,-0.0010197807136227,0.0010197811005781,1.6944198886667e-09,-1.3164592164128e-09,-0.0010966840070462,0.0010966839204917,-0.0010966850081081,0.0010966829356325,-0.0010966825160487,0.0010966853878404,-0.0010966835599188,0.0010966843653119,-0.0010890602832938,0.001089063913075,-0.0010890645300041,0.0010890596887543,0.59263235709669,125803,2834,0.0057548402955706,0.0057548402956871,0.0042412427887019,37.837791175391,6.2702329403131e-05,6.2702329403131e-05,6.2702329403131e-05,2553005.7959179,0.015876181697264
11419200,0.91378985030435,0.015499503004971,0.0055626289042463,0.0055626289045291,0.0043742451961954,-0.0013928632118236,0.0013928631118535,2.3021955200954e-09,-2.3993572933405e-09,2.0159893733791e-09,-2.17362440509e-09,-0.0014600715146626,0.0014600743588821,-0.0014600730652656,0.0014600727747263,-0.0014600728277701,0.0014600729714574,-0.0014600744106019,0.0014600713706411,-0.0012819059835766,0.0012819091244497,-0.0012819105983215,0.0012819044583097,-2.0141835507222e-09,2.1885156068112e-09,-1.4661120308034e-09,1.5804841346108e-09,-0.0013928631034924,0.0013928632202825,-0.0014600740370003,0.0014600717536248,-0.001460073020024,0.0014600727695705,-0.001460072687272,0.0014600731682938,-0.0014600716972137,0.0014600741622806,-0.0012819082669902,0.0012819068216642,-0.0012819053087943,0.0012819097943635,-0.0013683276682311,0.0013683247004175,-0.00136832359943,0.0013683288776379,-2.0525546354625e-09,2.4560560540558e-09,-0.0010245885831512,0.0010245889640526,1.7152758353867e-09,-1.3437431916681e-09,-0.0011022318151315,0.001102231702172,-0.0011022328325837,0.0011022307013144,-0.0011022302876833,0.0011022332061986,-0.0011022313474753,0.0011022321676255,-0.0010943538207896,0.0010943575370145,-0.0010943581763769,0.0010943532045169,0.59626237535911,125803,2834,0.0057864007415419,0.0057864007417438,0.004261209188547,37.631042206663,6.1048337653308e-05,6.1048337653308e-05,6.1048337653308e-05,2554773.6438378,0.015960605267918
11619200,0.91958423152012,0.015579320359981,0.0055919092717292,0.0055919092720128,0.004395501816239,-0.0013998850847079,0.0013998849792132,2.3534147780293e-09,-2.456021385762e-09,2.0790932715983e-09,-2.2427732823451e-09,-0.0014678666657916,0.0014678695844661,-0.0014678682523575,0.0014678679643037,-0.0014678680226686,0.0014678681529283,-0.0014678696414568,0.0014678665161526,-0.001287971177043,0.0012879743741975,-0.0012879758973032,0.0012879696024597,-2.0770795880561e-09,2.2573444055786e-09,-1.475367304532e-09,1.5950928176233e-09,-0.0013998849709039,0.0013998850931114,-0.001467869248244,0.0014678669185252,-0.0014678682236064,0.0014678679425456,-0.0014678678549453,0.0014678683772272,-0.0014678668570669,0.0014678693791835,-0.0012879734757695,0.0012879720559317,-0.0012879704941587,0.0012879750524151,-0.0013750598615113,0.0013750567775014,-0.0013750556632426,0.001375061084691,-2.1083121587591e-09,2.5077673824279e-09,-0.0010290139212416,0.0010290142980595,1.7251885610781e-09,-1.357953612453e-09,-0.0011073342031069,0.001107334058328,-0.0011073352286365,0.0011073330493975,-0.0011073326397692,0.0011073355980826,-0.0011073337075899,0.0011073345516378,-0.0010992473531824,0.0010992511626659,-0.0010992518143268,0.0010992467251102,0.59873358467671,125803,2834,0.0058154822127006,0.0058154822128951,0.004279587141168,37.420992303053,5.9367938424427e-05,5.9367938424427e-05,5.9367938424427e-05,2553413.5333,0.016038383137543
11819200,0.92494708465979,0.015653674408402,0.005619162888098,0.0056191628883815,0.0044153486319225,-0.0014063660514772,0.0014063659387908,2.4032302433187e-09,-2.5129514721163e-09,2.1402113789527e-09,-2.3116611783966e-09,-0.0014750453718109,0.0014750483621882,-0.0014750469940233,0.0014750467064265,-0.0014750467716844,0.0014750468872831,-0.0014750484260898,0.0014750452149041,-0.0012935993516378,0.0012936026029189,-0.0012936041761413,0.0012935977268576,-2.1386870004037e-09,2.326740151243e-09,-1.4738829946577e-09,1.6007380938331e-09,-0.0014063659304737,0.0014063660598885,-0.0014750480087139,0.0014750456412182,-0.001475046982954,0.0014750466667832,-0.0014750465721793,0.0014750471437883,-0.0014750455729311,0.0014750481470671,-0.0012936016543141,0.0012936002806425,-0.0012935986684341,0.0012936032817929,-0.0013812959357076,0.0013812927313302,-0.0013812916086088,0.0013812971680939,-2.1637730697607e-09,2.5609164404665e-09,-0.0010330987310604,0.0010330991055442,1.7257952999544e-09,-1.360993199103e-09,-0.0011120390009002,0.0011120388188996,-0.0011120400277672,0.0011120378087299,-0.0011120374013834,0.0011120403947276,-0.0011120384703807,0.0011120393472094,-0.0011037735094875,0.0011037774218016,-0.0011037780771931,0.0011037728782603,0.6021809157718,125803,2834,0.0058423226386591,0.0058423226388535,0.0042965510723873,37.210807403274,5.7686459226191e-05,5.7686459226191e-05,5.7686459226191e-05,2550063.2480489,0.016110174612941
12019200,0.92991933310368,0.015724732786127,0.0056451455911109,0.0056451455913947,0.0044344416036211,-0.0014124873977339,0.0014124872790296,2.4518935554526e-09,-2.5675535523544e-09,2.1834605086038e-09,-2.3613495512745e-09,-0.0014817781593009,0.0014817812094012,-0.0014817798163205,0.0014817795188616,-0.0014817795902313,0.0014817797032433,-0.0014817812789254,0.0014817779965148,-0.0012989977973409,0.0012990011121611,-0.0012990027220774,0.0012989961357426,-2.1850220408412e-09,2.3801832776276e-09,-1.4644847531131e-09,1.5978865951761e-09,-0.0014124872704353,0.0014124874064337,-0.001481780837021,0.0014817784472635,-0.0014817798157194,0.001481779468557,-0.0014817793678548,0.0014817799829216,-0.0014817783724496,0.0014817809822605,-0.00129900010652,0.0012989987835183,-0.0012989971318543,0.0012990017736764,-0.0013872622333305,0.0013872589327125,-0.0013872578076899,0.0013872634690291,-2.2200809062447e-09,2.6166720595236e-09,-0.001037003940388,0.0010370043143237,1.7175259137384e-09,-1.3532686399516e-09,-0.0011164906537221,0.0011164904288168,-0.0011164916755981,0.0011164894238322,-0.0011164890171124,0.0011164920417046,-0.0011164900806381,0.001116490999743,-0.0011081386052659,0.0011081426323834,-0.0011081432833037,0.0011081379791924,0.6192984957471,125803,2834,0.0058676731991507,0.0058676731993686,0.0043127690606753,37.028382897909,5.6227063183275e-05,5.6227063183275e-05,5.6227063183275e-05,2542080.6860555,0.016178183182493
12219200,0.93454729552767,0.015793021761948,0.0056700583018571,0.0056700583021411,0.0044529051579503,-0.0014184115606801,0.0014184114362901,2.5201568005867e-09,-2.6414584367285e-09,2.2145473520397e-09,-2.3984959752414e-09,-0.0014882301403342,0.0014882332526616,-0.0014882318430186,0.0014882315163941,-0.0014882315920784,0.0014882317254574,-0.0014882333289329,0.0014882299705615,-0.0013043084286487,0.0013043118592288,-0.0013043134965569,0.001304306739203,-2.1877835829486e-09,2.3844737523956e-09,-1.4452018944772e-09,1.5800504065778e-09,-0.0014184114297869,0.0014184115672782,-0.0014882328443792,0.001488230464173,-0.0014882318338279,0.0014882314745003,-0.0014882313710862,0.0014882320038257,-0.0014882303890246,0.0014882329898566,-0.0013043107734427,0.0013043094949365,-0.0013043078386711,0.0013043124444373,-0.0013931121310512,0.0013931088167923,-0.001393107702166,0.0013931133548974,-2.2568324220453e-09,2.6531374845887e-09,-0.00104084676171,0.0010408471353604,1.7150173685547e-09,-1.3510385004466e-09,-0.0011208320679578,0.0011208318147471,-0.0011208330868026,0.0011208308128915,-0.0011208304051416,0.0011208334537849,-0.0011208314680851,0.0011208324124083,-0.0011124676751877,0.001112471770937,-0.0011124724207367,0.0011124670510088,0.63789980279825,125803,2834,0.0058922065041261,0.0058922065043219,0.0043287283561916,36.914566251134,5.5316530009071e-05,5.5316530009071e-05,5.5316530009071e-05,2527941.2600575,0.016244270634928
12419200,0.93885533633165,0.015854557104496,0.0056925568528788,0.0056925568531627,0.0044694433984547,-0.0014238604857735,0.00142386036063,2.5611600562007e-09,-2.6831944620745e-09,2.2095174668757e-09,-2.3942164982118e-09,-0.0014941830423116,0.0014941861804767,-0.0014941847740282,0.0014941844152392,-0.0014941844925603,0.0014941846547569,-0.0014941862565643,0.0014941828727245,-0.0013091266766966,0.0013091301873812,-0.0013091318228826,0.0013091249893739,-2.2037630590807e-09,2.4037723168026e-09,-1.4346023680774e-09,1.5725423389477e-09,-0.0014238603529327,0.0014238604935612,-0.0014941857596098,0.0014941833786417,-0.0014941847562674,0.0014941843818256,-0.0014941842763027,0.0014941849285427,-0.0014941832995195,0.0014941859092157,-0.001309129046922,0.001309127797667,-0.0013091261271861,0.0013091307325972,-0.0013984314648368,0.0013984281105579,-0.0013984269988475,0.0013984326864754,-2.3222100571503e-09,2.720282615704e-09,-0.0010443305419293,0.0010443309173663,1.6953861294576e-09,-1.3294528652672e-09,-0.0011248304251677,0.0011248301176903,-0.0011248314315285,0.0011248291283078,-0.0011248287197591,0.0011248317993595,-0.001124829768303,0.001124830772339,-0.0011163539777014,0.0011163582212579,-0.0011163588560678,0.0011163533689792,0.61826605631929,125803,2834,0.0059147705578658,0.0059147705580523,0.0043431977985432,36.802550655455,5.4420405243643e-05,5.4420405243643e-05,5.4420405243643e-05,2516111.7604068,0.016304846308795
12619200,0.94286577463446,0.015908830536265,0.0057124723080369,0.005712472308322,0.0044838859199063,-0.0014287563404881,0.0014287562146387,2.613293035574e-09,-2.7360246868533e-09,2.2066961928872e-09,-2.3920987123793e-09,-0.0014995939446897,0.0014995971160291,-0.0014995957118401,0.0014995953154073,-0.0014995953935969,0.0014995955916892,-0.0014995971926678,0.0014995937745943,-0.0013133533127121,0.0013133569265295,-0.0013133585612165,0.0013133516262045,-2.2025266724397e-09,2.4034793348797e-09,-1.417706490781e-09,1.5565575464101e-09,-0.0014287562068335,0.0014287563483894,-0.0014995966722429,0.0014995943039903,-0.0014995956800553,0.0014995952959485,-0.0014995951897218,0.0014995958531386,-0.0014995942237197,0.0014995968229013,-0.0013133557185714,0.001313354501243,-0.001313352830384,0.0013133574044224,-0.0014031169782562,0.0014031136148729,-0.0014031125132574,0.001403118189824,-2.3762953331183e-09,2.7764280690871e-09,-0.0010474280409921,0.0010474284185128,1.679101784764e-09,-1.3109162260948e-09,-0.0011284201374191,0.0011284197838582,-0.0011284211323642,0.001128418805923,-0.0011284183954615,0.0011284215020999,-0.0011284194322693,0.0011284204868082,-0.0011197423387473,0.0011197467042617,-0.0011197473251431,0.0011197417435688,0.58731201332336,125803,2834,0.0059350438243434,0.0059350438245417,0.0043560621050372,36.690608700534,5.3524869604272e-05,5.3524869604272e-05,5.3524869604272e-05,2514921.0904263,0.016359138524532
12819200,0.94656571192508,0.015959287029937,0.0057309695187786,0.0057309695190635,0.0044973479920946,-0.0014328848466952,0.0014328847113321,2.7318435402904e-09,-2.8638422212918e-09,2.2690495131537e-09,-2.4640205789215e-09,-0.001504208143251,0.0015042114181636,-0.001504209985167,0.001504209545674,-0.001504209627073,0.0015042098609904,-0.0015042115121641,0.0015042079561607,-0.0013168700521099,0.0013168738691445,-0.0013168755551345,0.0013168683011025,-2.1512716773034e-09,2.3539238374016e-09,-1.3532055855924e-09,1.4921102341338e-09,-0.0014328847090274,0.0014328848495488,-0.0015042108919876,0.0015042085839711,-0.0015042099376376,0.0015042095440657,-0.001504209434619,0.0015042101127158,-0.0015042085140022,0.0015042110310408,-0.0013168725098939,0.0013168714009048,-0.0013168697553654,0.0013168741488092,-0.0014070695760615,0.0014070662944924,-0.0014070652256214,0.0014070707415604,-2.3598119907363e-09,2.7622061877911e-09,-0.0010499597226727,0.001049960102572,1.6789420593549e-09,-1.3088453411843e-09,-0.0011313514142913,0.0011313510631942,-0.0011313524007021,0.0011313500938717,-0.0011313496731705,0.0011313527796733,-0.0011313507146578,0.0011313517598149,-0.001122544221419,0.0011225485332276,-0.0011225491628165,0.0011225436320832,0.59134552643558,125803,2834,0.0059521395103458,0.0059521395114791,0.0043665760076814,36.407546366547,5.1260370932377e-05,5.1260370932377e-05,5.1260370932377e-05,2518659.4145648,0.016404583919478
13019200,0.94993650663684,0.016005400073767,0.0057478648195273,0.0057478648198001,0.0045096704344391,-0.0014361200495355,0.0014361199165821,2.7136410049535e-09,-2.8434307991997e-09,2.2285923777973e-09,-2.4214795372858e-09,-0.0015078800620894,0.0015078833131446,-0.001507881898192,0.0015078814442063,-0.0015078815283269,0.001507881771461,-0.0015078833977936,0.0015078798841479,-0.0013195685131114,0.0013195723088022,-0.0013195739680262,0.0013195668009856,-2.234320968087e-09,2.4422129430593e-09,-1.3336915352342e-09,1.4788795662168e-09,-0.0014361199091499,0.0014361200570636,-0.0015078828111386,0.0015078804796285,-0.0015078818717947,0.0015078814186718,-0.0015078813058212,0.001507882052087,-0.0015078803940142,0.0015078829669409,-0.0013195709155744,0.0013195698877696,-0.0013195681865953,0.0013195726281164,-0.0014101565891034,0.0014101531130368,-0.0014101520558546,0.0014101577513673,-2.4815398674529e-09,2.894064887716e-09,-0.0010517517127209,0.0010517521027547,1.6011966815368e-09,-1.2196205948995e-09,-0.001133500373145,0.0011334999023139,-0.0011335013116128,0.001133498980996,-0.0011334985573061,0.0011335016943349,-0.0011334995390482,0.0011335007340988,-0.0011245790031641,0.0011245836529965,-0.0011245842079983,0.0011245784776483,0.5930269567497,125803,2834,0.0059655354266001,0.0059655354267973,0.0043740201867745,35.875424987271,4.7003399898166e-05,4.7003399898166e-05,4.7003399898166e-05,2519603.5839419,0.016439389096147
13219200,0.95301089765117,0.016047624388291,0.0057633258213657,0.0057633258216382,0.0045209727452868,-0.0014389703126295,0.0014389701774665,2.7816026340077e-09,-2.9135425595689e-09,2.2449440776759e-09,-2.44008045457e-09,-0.0015111189842694,0.0015111222901861,-0.0015111208663871,0.0015111203754168,-0.0015111204609089,0.0015111207381421,-0.0015111223777187,0.001511118803176,-0.0013219435421973,0.0013219474612463,-0.001321949133966,0.0013219418160538,-2.2243461235763e-09,2.4315103671516e-09,-1.2853061478255e-09,1.4297628873631e-09,-0.0014389701715437,0.0014389703186776,-0.0015111217421854,0.001511119447956,-0.0015111208345975,0.0015111203551249,-0.0015111202426788,0.0015111210150033,-0.0015111193636967,0.0015111218959017,-0.0013219459618344,0.0013219450240941,-0.0013219433297862,0.00132194766639,-0.001412884678714,0.0014128811915053,-0.0014128801686588,0.0014128858080128,-2.516543363531e-09,2.9355929718263e-09,-0.0010532899436977,0.0010532903403518,1.5701759221887e-09,-1.1816298577653e-09,-0.0011353582092125,0.001135357694655,-0.0011353591235691,0.0011353567975059,-0.0011353563663413,0.0011353595136978,-0.0011353573255605,0.001135358575872,-0.0011263475698072,0.0011263523209705,-0.0011263528451438,0.0011263470734711,0.59512402527093,125803,2834,0.0059773371453643,0.0059773371456227,0.0043804108688674,35.336742255074,4.2693938040592e-05,4.2693938040592e-05,4.2693938040592e-05,2518610.4470903,0.016469882879147
13419200,0.95581907420383,0.016085578159872,0.0057772346547041,0.005777234654977,0.0045311088501905,-0.0014414556508508,0.0014414555163704,2.8292352724516e-09,-2.9604797659047e-09,2.2352669386e-09,-2.4296217447235e-09,-0.0015139630205616,0.0015139663531603,-0.0015139649352955,0.0015139644059213,-0.0015139644916513,0.0015139648068633,-0.0015139664392381,0.0015139628411116,-0.0013239823026209,0.0013239863188938,-0.0013239879845426,0.0013239805845078,-2.2231541377554e-09,2.4308683526379e-09,-1.2523694047556e-09,1.3973739410052e-09,-0.0014414555098107,0.0014414556575186,-0.001513965779994,0.0015139635096884,-0.0015139648948598,0.0015139643941435,-0.0015139642821548,0.0015139650751568,-0.0015139634237877,0.0015139659350259,-0.0013239847404843,0.0013239838641218,-0.001323982169684,0.0013239864448369,-0.0014152445819468,0.0014152410725668,-0.0014152400709187,0.0014152456903033,-2.5736104711746e-09,2.9992924199695e-09,-0.0010545795726492,0.0010545799759911,1.5359120220817e-09,-1.1402486688035e-09,-0.001136947485626,0.0011369469134513,-0.0011369483758214,0.0011369460405537,-0.0011369456036532,0.0011369487716645,-0.0011369465369083,0.0011369478598104,-0.0011278348248014,0.0011278397286225,-0.0011278402213512,0.0011278343603011,0.58608286391381,125803,2834,0.0059876275173594,0.0059876275175823,0.0043857694853767,34.797791360598,3.8382330884786e-05,3.8382330884786e-05,3.8382330884786e-05,2517616.6939535,0.016496255698838
13619200,0.95840151625863,0.016120033791433,0.0057898684986922,0.0057898684989664,0.0045402967937747,-0.0014438083117687,0.0014438081873132,2.842907304251e-09,-2.963973643228e-09,2.1693977182712e-09,-2.3528456452394e-09,-0.0015166521202128,0.0015166554292785,-0.0015166540484041,0.0015166534699095,-0.0015166535517071,0.0015166539264079,-0.0015166555022085,0.001516651955937,-0.00132591419157,0.0013259182631307,-0.0013259198729254,0.0013259125282228,-2.2276216286883e-09,2.4409605572886e-09,-1.2581360910223e-09,1.4085767319992e-09,-0.0014438081737074,0.0014438083257994,-0.0015166548682113,0.0015166525971782,-0.0015166539848832,0.0015166534836179,-0.0015166533735011,0.0015166541639054,-0.0015166525036566,0.0015166550304291,-0.0013259166705455,0.0013259157706051,-0.0013259140678498,0.0013259183838934,-0.0014174737905394,0.0014174702598448,-0.0014174692528189,0.001417474917498,-2.6705192612428e-09,3.1003788993175e-09,-0.0010558481975487,0.0010558486052551,1.5056343081003e-09,-1.105543731408e-09,-0.001138484724441,0.0011384840767497,-0.0011384856004973,0.0011384832220077,-0.0011384827846093,0.0011384859956306,-0.0011384836920605,0.0011384851084461,-0.0011292780136989,0.0011292831527969,-0.0011292836203457,0.0011292775752162,0.57889841910051,125803,2834,0.0059973686668602,0.0059973686677382,0.0043910398479954,34.356875024516,3.4855000196127e-05,3.4855000196127e-05,3.4855000196127e-05,2518749.3427872,0.016521422524392
13819200,0.96079060452555,0.016151887227691,0.0058015443281491,0.0058015443284151,0.0045487985711272,-0.0014460752877615,0.0014460751642323,2.937850981375e-09,-3.0581773436637e-09,2.1607569644168e-09,-2.3434311213173e-09,-0.0015192304337216,0.0015192337934101,-0.001519232418489,0.0015192317762779,-0.0015192318532419,0.001519232300726,-0.0015192338687554,0.0015192302670605,-0.001327795927039,0.0013278002064294,-0.0013278018076799,0.0013277942732876,-2.1528142897659e-09,2.3508413904979e-09,-1.25225469878e-09,1.3887588379848e-09,-0.0014460751566642,0.0014460752954352,-0.0015192331851627,0.0015192309591464,-0.0015192323040354,0.0015192318397314,-0.0015192317375712,0.0015192324740132,-0.0015192308809004,0.0015192333317878,-0.0013277985233592,0.0013277975937014,-0.0013277959574422,0.0013278001686992,-0.0014196310990165,0.0014196277203045,-0.0014196267317984,0.0014196321939746,-2.6835907649629e-09,3.1133895644389e-09,-0.0010571271107716,0.0010571275182754,1.5303440886047e-09,-1.1303744940006e-09,-0.0011400007887918,0.0011400001409172,-0.0011400016751198,0.0011399992733561,-0.0011399988328524,0.0011400020739645,-0.001139999759991,0.0011400011683484,-0.0011307217433726,0.0011307268798036,-0.0011307273608575,0.0011307212877251,0.57842146472765,125803,2834,0.0060067551663926,0.0060067551666099,0.0043963520016832,34.004422492223,3.2035379937784e-05,3.2035379937784e-05,3.2035379937784e-05,2520638.9668298,0.016545910915172
14019200,0.96300312467894,0.016181379608996,0.0058123511947513,0.0058123511950156,0.0045566772192291,-0.0014481253544859,0.001448125236343,3.000979566193e-09,-3.1160011910084e-09,2.1272676229049e-09,-2.304136109047e-09,-0.0015215668215912,0.0015215702002226,-0.0015215688445748,0.0015215681447304,-0.0015215682149312,0.0015215687331533,-0.0015215702710968,0.0015215666587825,-0.0013294943598646,0.0013294987911541,-0.0013295003623961,0.0013294927360494,-2.1122243442903e-09,2.3033026581636e-09,-1.2666363182708e-09,1.3964374967599e-09,-0.0014481252293617,0.0014481253615834,-0.0015215695758555,0.0015215673630906,-0.0015215686857841,0.0015215682524973,-0.0015215681553025,0.0015215688502786,-0.0015215672922529,0.0015215697146588,-0.001329497058221,0.0013294960757027,-0.0013294944747944,0.0013294986692497,-0.0014215833677129,0.0014215800818141,-0.0014215790914882,0.0014215844641653,-2.7315179726218e-09,3.1602053238966e-09,-0.0010582683234486,0.0010582687298127,1.5457736924395e-09,-1.1470795528508e-09,-0.0011413585790408,0.0011413579075382,-0.0011413594741435,0.0011413570298581,-0.0011413565896738,0.0011413598733603,-0.0011413575285073,0.0011413589559538,-0.0011320208500934,0.0011320260630563,-0.0011320265572367,0.0011320203827883,0.57820995450563,125803,2834,0.0060152434333776,0.0060152434336169,0.0044010923965754,33.654309734734,2.9234477877872e-05,2.9234477877872e-05,2.9234477877872e-05,2521724.7740914,0.016567992028309
14219200,0.96505399887075,0.016207732059835,0.0058220296857667,0.0058220296860307,0.004563672688038,-0.0014499301796418,0.0014499300674214,3.0516667596164e-09,-3.1608442532013e-09,2.0911505592564e-09,-2.2616905696115e-09,-0.0015236466661403,0.0015236500575091,-0.0015236487217736,0.001523647969399,-0.0015236480345541,0.0015236486156848,-0.001523650121928,0.0015236465100996,-0.001330957678747,0.0013309622328989,-0.0013309637725901,0.0013309560866793,-2.0847957709203e-09,2.270871493008e-09,-1.288078637788e-09,1.4131326867995e-09,-0.0014499300598524,0.00144993018734,-0.0015236494251237,0.0015236472158206,-0.001523648523278,0.0015236481172758,-0.0015236480252345,0.0015236486821705,-0.001523647148868,0.0015236495598996,-0.0013309604705693,0.0013309594236654,-0.0013309578477827,0.0013309620572322,-0.0014232711141493,0.0014232678924773,-0.0014232668940485,0.0014232722184774,-2.7921163642673e-09,3.2193925349444e-09,-0.0010592349570808,0.0010592353620004,1.5589935490929e-09,-1.161862436799e-09,-0.0011425387342064,0.0011425380318465,-0.0011425396396136,0.0011425371439225,-0.0011425367060542,0.0011425400366321,-0.0011425376534505,0.0011425391105492,-0.0011331073528578,0.0011331126740096,-0.0011331131790431,0.001133106874733,0.55856304461695,125803,2834,0.0060227160286354,0.0060227160289018,0.0044051080040635,33.304292542963,2.6434340343706e-05,2.6434340343706e-05,2.6434340343706e-05,2523788.2002104,0.016587271956931
14419200,0.96692522052914,0.016232024796292,0.0058309410284432,0.0058309410287062,0.004570142739143,-0.0014509060513553,0.001450905922259,3.2240573023213e-09,-3.3501644967743e-09,2.2080921777114e-09,-2.3967158863866e-09,-0.0015248781882035,0.0015248817439462,-0.0015248803459017,0.0015248795537342,-0.0015248796198287,0.0015248802380065,-0.0015248818393117,0.0015248779988905,-0.0013316275216224,0.0013316323820917,-0.0013316340178021,0.0013316258307699,-2.0019622150756e-09,2.1754244242029e-09,-1.2341497780134e-09,1.3468711977815e-09,-0.0014509059292051,0.0014509060445502,-0.0015248809964488,0.0015248788525375,-0.0015248801177346,0.0015248797310876,-0.0015248796359834,0.0015248802798155,-0.0015248788121958,0.0015248811026156,-0.0013316304186062,0.0013316294683548,-0.0013316279582775,0.0013316319346865,-0.0014241509386077,0.0014241478966572,-0.0014241469449688,0.0014241519896735,-2.7213072207142e-09,3.1441082893558e-09,-0.0010594957898098,0.0010594961898873,1.6099980097542e-09,-1.2179135592192e-09,-0.0011429558277683,0.0011429551842818,-0.0011429567513249,0.0011429542768488,-0.0011429538291293,0.0011429571584557,-0.0011429548257869,0.0011429561828629,-0.0011334670750556,0.0011334721639663,-0.0011334727112314,0.0011334665618297,0.56383116817729,125803,2834,0.0060267561188098,0.0060267561191003,0.0044061936180471,32.649370345335,2.1194962762682e-05,2.1194962762682e-05,2.1194962762682e-05,2527755.4670459,0.016596593801219
14619200,0.96861949904223,0.016254131741362,0.0058390442771084,0.0058390442773715,0.0045760431868823,-0.001451351913527,0.0014513517921228,3.1679962743002e-09,-3.2864402290363e-09,2.1513290981963e-09,-2.3316920354089e-09,-0.0015255450992981,0.0015255486000246,-0.0015255472299407,0.001525546438134,-0.0015255465056144,0.0015255471203425,-0.0015255486786448,0.0015255449273854,-0.0013318135046872,0.0013318182608312,-0.0013318198538982,0.0013318118612934,-2.134254147589e-09,2.3264498607894e-09,-1.2658586563943e-09,1.3960916025179e-09,-0.0014513517862897,0.0014513519194451,-0.0015255479227749,0.0015255456921763,-0.0015255470292158,0.0015255465881274,-0.0015255464845454,0.0015255472003685,-0.0015255456254311,0.0015255480573223,-0.001331816349561,0.0013318153983468,-0.0013318137832021,0.001331817978417,-0.0014245177479027,0.0014245144385078,-0.0014245134412189,0.0014245188463939,-2.8860938532039e-09,3.3146940189024e-09,-0.001059311297918,0.0010593117041321,1.5499917666831e-09,-1.15139805151e-09,-0.0011429050466682,0.0011429042723899,-0.0011429059408951,0.0011429033962515,-0.0011429029517597,0.0011429063451826,-0.0011429038981228,0.0011429054179482,-0.0011333655120052,0.0011333710071058,-0.0011333715103968,0.0011333650453386,0.56645232125098,125803,2834,0.0060286013417164,0.0060286013418909,0.0044054314960536,31.825438952907,1.4603511623259e-05,1.4603511623259e-05,1.4603511623259e-05,2527551.4384345,0.016599574155181
14819200,0.9701562618899,0.016274307068845,0.0058464331652684,0.0058464331655342,0.0045814407380424,-0.0014516058553941,0.0014516057308094,3.1972564087173e-09,-3.3187078119897e-09,2.169340707954e-09,-2.3531502402284e-09,-0.0015259910018059,0.0015259945430446,-0.0015259931614799,0.001525992351438,-0.0015259924287795,0.0015259930422291,-0.0015259946186784,0.0015259908336086,-0.0013318445774604,0.0013318493573451,-0.0013318509675319,0.0013318429152959,-2.1740369391344e-09,2.3727146256726e-09,-1.2666817171928e-09,1.4030579654889e-09,-0.0014516057236342,0.0014516058627094,-0.001525993854261,0.0015259916069845,-0.0015259929646209,0.0015259924970529,-0.0015259923944452,0.0015259931350603,-0.0015259915282172,0.0015259940013143,-0.0013318474316786,0.0013318464865065,-0.0013318448373749,0.0013318490908926,-0.0014247067488867,0.0014247033391023,-0.001424702337892,0.0014247078548468,-2.9614557052988e-09,3.3915381241913e-09,-0.0010590040803581,0.0010590044881152,1.5383080269773e-09,-1.1380500706355e-09,-0.0011427148823663,0.0011427140576497,-0.0011427157748601,0.001142713183421,-0.0011427127432749,0.0011427161740191,-0.0011427136757674,0.0011427152620663,-0.0011331337036267,0.001133139375828,-0.0011331398651185,0.0011331332433173,0.56961683684975,125803,2834,0.0060296518236182,0.0060296518239071,0.0044041600196801,30.997000317553,7.9760025404224e-06,7.9760025404224e-06,7.9760025404224e-06,2525194.4538418,0.016600420351187
15019200,0.97153150511203,0.016292292186317,0.0058530192465557,0.0058530192468224,0.0045862536929387,-0.0014511330515098,0.0014511329187693,3.2573496962027e-09,-3.3868891687431e-09,2.2210022860812e-09,-2.4135764474257e-09,-0.0015256887087205,0.0015256923212185,-0.0015256909108713,0.0015256900870745,-0.0015256901721561,0.0015256907839208,-0.0015256924054446,0.0015256885321784,-0.0013311786494089,0.0013311835126065,-0.0013311851680525,0.001331176942422,-2.2114098810638e-09,2.4169151931124e-09,-1.240632215766e-09,1.3833389350591e-09,-0.0014511329124724,0.0014511330579188,-0.0015256915999644,0.0015256893464794,-0.0015256907248518,0.0015256902214519,-0.0015256901123843,0.0015256909022229,-0.0015256892618795,0.0015256917530794,-0.0013311815053802,0.0013311806404601,-0.0013311789576379,0.001331183196807,-0.0014241726205958,0.001424169124128,-0.0014241681322545,0.0014241737175964,-3.0039131205639e-09,3.4357825069087e-09,-0.0010580683957669,0.0010580688053011,1.5249526577798e-09,-1.1226865891347e-09,-0.001141877165073,0.0011418763024931,-0.0011418780474059,0.0011418754384555,-0.0011418749959064,0.0011418784483672,-0.0011418759195995,0.001141877546257,-0.001132248692519,0.0011322544588608,-0.0011322549359143,0.0011322482445427,0.56737758218525,125803,2834,0.0060276926694606,0.0060276926696921,0.0044002807012692,29.894640528112,-8.4287577510694e-07,-8.4287577510694e-07,-8.4287577510694e-07,2519980.0888167,0.016592495953433
15219200,0.97274398240588,0.01630745688125,0.0058585873356448,0.0058585873359113,0.0045902822096942,-0.0014498369947539,0.0014498368533875,3.3114558224742e-09,-3.4495437388655e-09,2.2743304470013e-09,-2.4761354690552e-09,-0.0015245517399096,0.0015245554193047,-0.0015245539795838,0.0015245531475746,-0.0015245532399728,0.0015245538442395,-0.0015245555123735,0.0015245515535866,-0.0013297061268365,0.0013297110586102,-0.0013297127597525,0.001329704372767,-2.258016083041e-09,2.4716466177207e-09,-1.2040424013151e-09,1.3542820659949e-09,-0.0014498368476172,0.0014498370006296,-0.0015245546673762,0.0015245524079445,-0.0015245538126906,0.0015245532618131,-0.0015245531449331,0.0015245539985335,-0.0015245523167307,0.0015245548272482,-0.0013297089632584,0.0013297082049996,-0.0013297064808189,0.0013297106969058,-0.0014228025993355,0.0014227989917416,-0.0014227980137078,0.0014228036819798,-3.0516930285272e-09,3.4866699853312e-09,-0.0010564226604645,0.0010564230731735,1.4978371362176e-09,-1.0921073020683e-09,-0.0011403067352804,0.0011403058222554,-0.0011403075970947,0.0011403049779991,-0.0011403045316548,0.0011403080019881,-0.0011403054365332,0.0011403071186672,-0.0011306119353415,0.0011306178176338,-0.0011306182733968,0.001130611509479,0.54391178932723,125803,2834,0.0060223242893556,0.0060223242895727,0.0043934545729404,28.489661316923,-1.2082709464612e-05,-1.2082709464612e-05,-1.2082709464612e-05,2513853.4170126,0.016574644408989
15419200,0.97381518798619,0.016322727327908,0.0058641402877321,0.0058641402879986,0.0045944467521775,-0.0014483983607986,0.0014483982156848,3.3637057632743e-09,-3.5055141870655e-09,2.2941757350943e-09,-2.5000082294058e-09,-0.0015232339368382,0.0015232376626693,-0.0015232362121632,0.0015232353554287,-0.0015232354509312,0.0015232360735292,-0.0015232377597829,0.001523233746289,-0.0013281554154047,0.0013281604354158,-0.0013281621541599,0.0013281536440761,-2.2785866066844e-09,2.4962780290215e-09,-1.1842758415603e-09,1.338366187328e-09,-0.001448398209863,0.0014483983667371,-0.0015232368873456,0.0015232346280885,-0.0015232360440603,0.0015232354706646,-0.0015232353496883,0.0015232362344868,-0.0015232345334684,0.0015232370506145,-0.0013281582686736,0.0013281575644687,-0.0013281558220342,0.0013281600226185,-0.0014213609483698,0.0014213572891281,-0.0014213563198657,0.0014213620240593,-3.1042326922707e-09,3.541240738938e-09,-0.0010547428959033,0.0010547433106726,1.4811384658138e-09,-1.0731528067631e-09,-0.0011386205141424,0.0011386195551616,-0.0011386213639476,0.0011386187233004,-0.0011386182745824,0.0011386217710873,-0.0011386191678383,0.0011386208991782,-0.0011289841273378,0.001128990128091,-0.0011289905696671,0.0011289837156791,0.61487578407592,125803,2834,0.0060163662596285,0.006016366259869,0.0043864856209771,27.076737788484,-2.3386097692129e-05,-2.3386097692129e-05,-2.3386097692129e-05,2508135.6347942,0.016555447343255
15619200,0.97478073973243,0.016336779893254,0.0058692427829529,0.0058692427832195,0.0045982943270811,-0.0014475410815246,0.0014475409426585,3.4201410715085e-09,-3.5557623557832e-09,2.2520824978373e-09,-2.4512245105973e-09,-0.0015224407527902,0.0015224444905299,-0.0015224430639228,0.0015224421473394,-0.0015224422372991,0.0015224429312602,-0.001522444581247,0.001522440568997,-0.0013272419444054,0.0013272471019161,-0.0013272487835758,0.0013272402099953,-2.235288602644e-09,2.4460092040432e-09,-1.2095845768804e-09,1.357305134179e-09,-0.0014475409369271,0.0014475410873662,-0.0015224437042472,0.0015224414552978,-0.0015224428466719,0.0015224423122006,-0.0015224421976596,0.0015224430300841,-0.0015224413665051,0.001522443861532,-0.0013272449072574,0.0013272441185776,-0.0013272424154135,0.0013272466263278,-0.001420514430292,0.0014205108696133,-0.001420509892278,0.0014205155136717,-3.1596926128185e-09,3.5945291817185e-09,-0.0010535535168351,0.0010535539293923,1.5020596214184e-09,-1.0965438402152e-09,-0.0011375212354001,0.0011375202530992,-0.0011375221003744,0.0011375194060951,-0.0011375189600169,0.0011375225049316,-0.0011375198675412,0.0011375216186955,-0.0011278659994903,0.001127872094096,-0.0011278725518863,0.0011278655700327,0.62694794935388,125803,2834,0.006012814424983,0.00601281442521,0.0043815553896869,25.967108089751,-3.2263135281992e-05,-3.2263135281992e-05,-3.2263135281992e-05,2488340.9728721,0.016543215518775
15819200,0.97568881453248,0.016350948424448,0.0058743655259913,0.0058743655262581,0.0046022173721986,-0.001448011142651,0.0014480110223907,3.4857542639529e-09,-3.6029675549908e-09,2.1336112237005e-09,-2.3128281461583e-09,-0.0015229456569666,0.0015229493644732,-0.0015229480045742,0.0015229469844442,-0.001522947055668,0.0015229478914491,-0.0015229494377968,0.0015229454911367,-0.001327675853877,0.0013276812276699,-0.0013276828059864,0.0013276742229592,-2.1155855593134e-09,2.3055999467044e-09,-1.3032609133404e-09,1.4316696921961e-09,-0.0014480110169968,0.0014480111481149,-0.0015229485882886,0.0015229463498535,-0.0015229476743954,0.001522947263519,-0.0015229471662484,0.0015229478386106,-0.0015229462806071,0.0015229487257357,-0.0013276790581273,0.0013276780014139,-0.0013276764046519,0.0013276806725403,-0.0014210264577684,0.0014210231921102,-0.0014210221771668,0.0014210275759159,-3.2153184449634e-09,3.6418524886122e-09,-0.0010536230223657,0.0010536234264843,1.5827190379794e-09,-1.1865624263131e-09,-0.0011377028263409,0.0011377018572725,-0.0011377037468183,0.0011377009536381,-0.0011377005154636,0.0011377041441298,-0.001137701480554,0.0011377032004257,-0.0011280544236555,0.0011280605514152,-0.0011280610739271,0.0011280539285925,0.66919697791465,125803,2834,0.0060147595170514,0.0060147595171952,0.0043818492058546,25.549248187803,-3.5606014497578e-05,-3.5606014497578e-05,-3.5606014497578e-05,2470657.3737391,0.016547469524475
16019200,0.97654440389572,0.016364268116018,0.0058791839787665,0.0058791839790339,0.0046059001582176,-0.0014485087968262,0.001448508690874,3.5557847348642e-09,-3.6587924455199e-09,2.0463267774157e-09,-2.2102495954509e-09,-0.0015234580233559,0.0015234617226216,-0.0015234604114758,0.0015234593021531,-0.0015234593584834,0.0015234603147115,-0.0015234617841077,0.0015234578708156,-0.0013281550953186,0.0013281606736996,-0.0013281621744863,0.0013281535414434,-2.0154703334119e-09,2.1888300463591e-09,-1.3878593854396e-09,1.5009642944314e-09,-0.0014485086861591,0.0014485088016601,-0.0015234609489234,0.0015234587143533,-0.0015234599831644,0.0015234596812796,-0.0015234595971388,0.0015234601324453,-0.0015234586621141,0.0015234610691865,-0.0013281585184403,0.0013281572278598,-0.001328155718787,0.0013281600460603,-0.0014215560544128,0.0014215530406698,-0.0014215519904079,0.001421557206612,-3.2643382675991e-09,3.6827362115249e-09,-0.001053664048789,0.0010536644446665,1.6600732311082e-09,-1.273079539009e-09,-0.0011379211104382,0.0011379201565485,-0.0011379220846311,0.001137919200394,-0.0011379187685824,0.0011379224752214,-0.0011379197895832,0.0011379214752851,-0.0011282051915695,0.0011282113403578,-0.0011282119254149,0.0011282046337411,0.66742790576823,125803,2834,0.0060168180396572,0.0060168180399028,0.0043820268486277,25.149350002651,-3.8805199978794e-05,-3.8805199978794e-05,-3.8805199978794e-05,2448238.4593961,0.016551836684579
16219200,0.9773511670092,0.016376774210681,0.0058837105668623,0.0058837105671295,0.0046093530766897,-0.0014489309144314,0.001448930819443,3.6039053502242e-09,-3.6960321463432e-09,1.9818647985085e-09,-2.1341005871037e-09,-0.0015238931941302,0.0015238968881645,-0.0015238956124225,0.0015238944371071,-0.0015238944847354,0.001523895524895,-0.001523896936911,0.0015238930543874,-0.0013285560410944,0.001328561754652,-0.0013285631980256,0.0013285545446775,-1.9667372713499e-09,2.1307573745827e-09,-1.461965349915e-09,1.5663491139167e-09,-0.0014489308136213,0.0014489309203623,-0.0015238961258226,0.0015238938737729,-0.00152389511582,0.0015238948851571,-0.0015238948111157,0.0015238952541214,-0.0015238938283377,0.0015238962394089,-0.0013285596245518,0.0013285581474545,-0.0013285566832401,0.0013285611091438,-0.0014220013923371,0.00142199851572,-0.0014219974277165,0.0014220025820241,-3.3325989673489e-09,3.7449143949064e-09,-0.0010536455352721,0.0010536459249608,1.7190569231638e-09,-1.338951163916e-09,-0.0011380756434861,0.001138074683691,-0.0011380766609147,0.0011380736836474,-0.0011380732600782,0.0011380770437285,-0.0011380743207776,0.0011380760040994,-0.001128286319495,0.0011282925539844,-0.0011282931863044,0.0011282857133985,0.66425603022412,125803,2834,0.0060185638386515,0.0060185638388765,0.0043819569214672,24.750177633339,-4.1998578933286e-05,-4.1998578933286e-05,-4.1998578933286e-05,2429524.0091753,0.016555316326928
16419200,0.97811521347856,0.016387413619613,0.0058875886379918,0.005887588638259,0.0046122363433627,-0.0014493506426834,0.0014493505512863,3.6596320306359e-09,-3.7481923980598e-09,1.9658154799218e-09,-2.1142615515256e-09,-0.0015243417049608,0.0015243454266908,-0.0015243441592598,0.0015243429394944,-0.0015243429836994,0.0015243440753699,-0.0015243454718791,0.0015243415688304,-0.0013289238620594,0.0013289296965064,-0.0013289311243647,0.001328922381109,-1.9506195747933e-09,2.1108406934044e-09,-1.5128806647129e-09,1.6136823015766e-09,-0.0014493505454702,0.0014493506486091,-0.0015243446625237,0.0015243423862565,-0.0015243436202431,0.0015243434304356,-0.001524343359664,0.0015243437546387,-0.0015243423445058,0.0015243447727288,-0.0013289275617023,0.0013289259725252,-0.0013289245243369,0.001328929031364,-0.0014224034636054,0.0014224006513093,-0.001422399534156,0.0014224046820609,-3.3888879100254e-09,3.7964623605044e-09,-0.0010536424901108,0.0010536428749905,1.765443130347e-09,-1.3907087354948e-09,-0.0011382514543576,0.0011382504865249,-0.0011382525044813,0.0011382494538441,-0.0011382490350016,0.0011382528826401,-0.0011382501282874,0.0011382518102521,-0.001128343358687,0.0011283496614584,-0.0011283503310796,0.0011283427151155,0.59981696008479,125803,2834,0.0060202998003655,0.0060202998005912,0.0043819504199072,24.412579014977,-4.4699367880185e-05,-4.4699367880185e-05,-4.4699367880185e-05,2416315.1207382,0.01655884104271
16619200,0.97884283579804,0.016399388463462,0.0058919082333489,0.0058919082336162,0.004615571996497,-0.0014498740740497,0.0014498739823721,3.7095439005684e-09,-3.7983687112667e-09,1.9760575486218e-09,-2.1248796423855e-09,-0.0015248974225666,0.0015249011849338,-0.0015248999107033,0.0015248986637359,-0.0015248987087582,0.0015248998260653,-0.0015249012298648,0.0015248972866596,-0.0013294081613389,0.0013294140850054,-0.0013294155199902,0.0013294066733177,-1.9664805204288e-09,2.1279859935636e-09,-1.5461812913497e-09,1.6481367176392e-09,-0.0014498739761142,0.001449874080414,-0.0015249004161766,0.0015248981082161,-0.0015248993520764,0.0015248991744436,-0.0015248991028991,0.0015248994869864,-0.0015248980650303,0.0015249005282799,-0.0013294119333181,0.0013294102880981,-0.0013294088283825,0.0013294134156034,-0.0014229610190019,0.0014229581961816,-0.0014229570556512,0.0014229622614197,-3.4483259315061e-09,3.8527177125303e-09,-0.0010538493039533,0.001053849685593,1.7942140004792e-09,-1.4230888162091e-09,-0.0011385212776208,0.0011385202889897,-0.0011385223486988,0.0011385192354609,-0.0011385188202568,0.0011385227231219,-0.0011385199334383,0.001138521630924,-0.0011286501858986,0.0011286565799652,-0.0011286572730298,0.0011286495186801,0.70235630189435,125803,2834,0.0060224667862784,0.0060224667864977,0.0043828110078786,24.158551929311,-4.6731584565512e-05,-4.6731584565512e-05,-4.6731584565512e-05,2413616.7957086,0.016564121664933
16819200,0.97953617110169,0.016410854950351,0.0058960457623414,0.0058960457626087,0.0046187634254011,-0.0014504945905389,0.0014504944940395,3.7630579272222e-09,-3.8566614794627e-09,2.0112218684348e-09,-2.1652394193632e-09,-0.0015255003279623,0.0015255041474513,-0.0015255028530398,0.001525501589264,-0.0015255016386716,0.0015255027637177,-0.0015255041971821,0.0015255001868793,-0.0013300396429337,0.0013300456469941,-0.0013300471116634,0.0013300381251524,-1.9984245672071e-09,2.1646691695164e-09,-1.5567672240033e-09,1.6630623961644e-09,-0.0014504944879961,0.0014504945966881,-0.0015255033635639,0.0015255010283469,-0.0015255022908023,0.0015255021033648,-0.001525502027336,0.0015255024303595,-0.0015255009812395,0.0015255034799707,-0.0013300434536964,0.0013300418112063,-0.0013300403244908,0.0013300449632897,-0.0014236192072723,0.0014236163308427,-0.0014236151774346,0.0014236204630022,-3.5008676423511e-09,3.9041509878084e-09,-0.0010540170643311,0.0010540174448401,1.8080246260299e-09,-1.438187525987e-09,-0.0011388793652655,0.0011388783500958,-0.0011388804457093,0.001138877287206,-0.0011388768728589,0.0011388808192121,-0.0011388779958305,0.001138879717233,-0.0011289221039959,0.0011289285884052,-0.0011289292923202,0.0011289214262356,0.70571570036255,125803,2834,0.0060250339357515,0.0060250339359695,0.0043835146711973,23.906700562911,-4.8746395496712e-05,-4.8746395496712e-05,-4.8746395496712e-05,2393856.233476,0.016570057448217
17019200,0.9801971304704,0.016421576424717,0.0058999203715624,0.0058999203718298,0.0046217356813246,-0.0014510564250104,0.0014510563229813,3.8137123347648e-09,-3.912799384547e-09,2.0496544342875e-09,-2.2096170901852e-09,-0.0015260457199674,0.0015260495970748,-0.0015260482806701,0.0015260470032239,-0.0015260470580027,0.0015260481856513,-0.0015260496520136,0.0015260455733306,-0.0013306058631811,0.0013306119386336,-0.00133061343618,0.00133060431252,-2.0377210851961e-09,2.2100851842202e-09,-1.5589775402389e-09,1.6709175466012e-09,-0.0014510563168548,0.0014510564312464,-0.0015260487970652,0.001526046436103,-0.0015260477210223,0.0015260475144011,-0.0015260474329623,0.0015260478662887,-0.0015260463834771,0.0015260489193795,-0.0013306096978659,0.0013306080789183,-0.0013306065586192,0.0013306112413415,-0.0014242058049425,0.0014242028542146,-0.0014242016918964,0.0014242070702706,-3.555436447945e-09,3.9585645332178e-09,-0.0010541296178511,0.0010541299981952,1.8125354047839e-09,-1.4429126990314e-09,-0.0011391865081589,0.0011391854596249,-0.0011391875917563,0.0011391843935987,-0.0011391839794336,0.0011391879649801,-0.0011391851054349,0.0011391868600544,-0.0011291269593358,0.0011291335474308,-0.001129134254646,0.0011291262784327,0.69245974276743,125803,2834,0.0060273580568968,0.0060273580571222,0.0043839890159637,23.654937056355,-5.0760503549163e-05,-5.0760503549163e-05,-5.0760503549163e-05,2376941.7234236,0.016575266118083
17219200,0.98081235469537,0.016431292734078,0.0059034383238283,0.0059034383240956,0.0046244160861546,-0.0014507279679875,0.0014507278536714,3.8636908668962e-09,-3.974950315114e-09,2.1298749129599e-09,-2.3029906427461e-09,-0.0015257133441485,0.0015257173036967,-0.0015257159419831,0.0015257146728371,-0.001525714738998,0.0015257158346841,-0.0015257173706576,0.0015257131846506,-0.0013302713056616,0.0013302774220637,-0.0013302789891997,0.0013302696852653,-2.1176922356617e-09,2.3031626351431e-09,-1.5078320406246e-09,1.6318741491719e-09,-0.001450727847582,0.0014507279741915,-0.0015257164700514,0.0015257140933713,-0.0015257154234412,0.001525715141888,-0.0015257150486616,0.0015257155816534,-0.0015257140291293,0.0015257166042611,-0.0013302750817634,0.0013302736216026,-0.0013302720312942,0.0013302766943771,-0.0014238844426838,0.0014238813054198,-0.0014238801609584,0.001423885691375,-3.6050623443673e-09,4.012624258495e-09,-0.0010534350697366,0.0010534354545761,1.7710777503088e-09,-1.3964975204842e-09,-0.0011386534983306,0.0011386523899835,-0.0011386545523222,0.0011386513535507,-0.0011386509346324,0.0011386549302382,-0.0011386520316106,0.001138653854233,-0.0011284900864822,0.0011284968087459,-0.0011284974826329,0.0011284894395473,0.67475985503604,125803,2834,0.0060259955622635,0.0060259955624997,0.0043811131560121,22.996022508991,-5.6031819928073e-05,-5.6031819928073e-05,-5.6031819928073e-05,2362711.6397433,0.016569573564233
17419200,0.98137385070574,0.016439787097995,0.0059065221094782,0.0059065221097456,0.0046267428787713,-0.0014496095953918,0.0014496094688173,3.8936445054801e-09,-4.0170393779691e-09,2.2075602610788e-09,-2.393803291835e-09,-0.0015246024025805,0.0015246064319667,-0.0015246050266236,0.0015246037752415,-0.0015246038552871,0.0015246049049807,-0.0015246065091685,0.0015246022329551,-0.0013291358713427,0.0013291419841032,-0.0013291436195825,0.0013291341835218,-2.2206773352435e-09,2.4239713305805e-09,-1.4292271680111e-09,1.569837687084e-09,-0.0014496094605253,0.0014496096037892,-0.0015246055678185,0.0015246031821494,-0.0015246045696001,0.0015246041818058,-0.0015246040748035,0.0015246047429942,-0.0015246030997368,0.0015246057206759,-0.001329139534685,0.0013291382965656,-0.0013291366158745,0.0013291412376475,-0.0014227580577417,0.0014227546644261,-0.0014227535506882,0.0014227592776175,-3.6728024779783e-09,4.0887044051223e-09,-0.0010520471988269,0.00105204759214,1.6913361880647e-09,-1.3073776467254e-09,-0.0011373831323453,0.0011373819303337,-0.0011373841324467,0.0011373809484821,-0.0011373805228285,0.0011373845164101,-0.0011373815619767,0.0011373834989164,-0.0011271262289819,0.0011271331632777,-0.0011271337722307,0.0011271256469704,0.6474779636611,125803,2834,0.0060213622879535,0.0060213622881708,0.0043753588652486,21.993669490234,-6.4050644078124e-05,-6.4050644078124e-05,-6.4050644078124e-05,2351102.4613933,0.016554304885554
17619200,0.98188670151874,0.01644725065863,0.0059092376375655,0.0059092376378327,0.0046287753832322,-0.0014483517972727,0.0014483516543082,4.0014093644553e-09,-4.1411053308982e-09,2.3084371756524e-09,-2.5121500827159e-09,-0.0015233638429904,0.0015233679970846,-0.0015233665360611,0.0015233652713932,-0.0015233653591626,0.001523366405323,-0.0015233680973179,0.0015233636484846,-0.0013278465231543,0.0013278527978527,-0.001327854521677,0.0013278447458999,-2.2374524174821e-09,2.4440362761959e-09,-1.3307811301702e-09,1.4743169270306e-09,-0.0014483516527087,0.0014483517990054,-0.0015233670472029,0.0015233647078702,-0.0015233661049428,0.0015233656507605,-0.001523365533694,0.0015233662896926,-0.001523364629757,0.0015233671946866,-0.0013278501537987,0.001327849144853,-0.0013278474470702,0.0013278518709299,-0.0014214840810022,0.0014214806144678,-0.0014214795613326,0.001421485239505,-3.6623133910966e-09,4.0830790387969e-09,-0.0010505961328904,0.0010505965311129,1.6434777119355e-09,-1.2540252812506e-09,-0.0011360024968603,0.0011360012623379,-0.0011360034548829,0.0011360003219152,-0.0011359998840225,0.0011360038514686,-0.0011360008964749,0.0011360028598561,-0.001125682870986,0.0011256898040463,-0.0011256903756537,0.0011256823287159,0.62390231917489,125803,2834,0.0060161522589754,0.0060161522592499,0.0043693403918875,20.982330082485,-7.2141359340116e-05,-7.2141359340116e-05,-7.2141359340116e-05,2344642.444795,0.016537594993189
17819200,0.98235631699482,0.016453849553541,0.0059116430789009,0.0059116430791682,0.004630563395472,-0.0014470343251913,0.0014470341786176,4.0467444253827e-09,-4.1900341987432e-09,2.3250972788153e-09,-2.5326057120457e-09,-0.0015220773100477,0.0015220815039217,-0.0015220800342323,0.0015220787474917,-0.0015220788381702,0.0015220799000702,-0.0015220816082464,0.0015220771115108,-0.0013264860714873,0.0013264924237943,-0.0013264941635617,0.0013264842775961,-2.267829153082e-09,2.4804714656646e-09,-1.2684080949412e-09,1.4174873874943e-09,-0.0014470341759895,0.0014470343279216,-0.0015220805228716,0.0015220782061845,-0.0015220796195224,0.0015220791098651,-0.001522078987118,0.0015220798105812,-0.0015220781229377,0.0015220806754221,-0.0013264896687078,0.0013264888050858,-0.0013264870787155,0.0013264914118006,-0.0014201439280666,0.0014201403643472,-0.0014201393438794,0.0014201450521338,-3.7198466852534e-09,4.1470577171158e-09,-0.0010491498921971,0.0010491502969725,1.5819032229498e-09,-1.1851880279461e-09,-0.0011345898359886,0.0011345885240309,-0.001134590749912,0.0011345876271041,-0.0011345871822121,0.0011345911534721,-0.0011345881521725,0.0011345902049732,-0.0011242307425975,0.0011242378423724,-0.0011242383649364,0.0011242302501094,0.60341626714568,125803,2834,0.0060106956638995,0.0060106956641096,0.0043633403263922,19.992578937744,-8.0059368498046e-05,-8.0059368498046e-05,-8.0059368498046e-05,2342419.5701884,0.016520402620061
18019200,0.98278731231092,0.016459898179813,0.0059138468556141,0.0059138468558817,0.004632204468317,-0.0014456736760159,0.0014456735322182,4.0774325678222e-09,-4.2179559696346e-09,2.3003183985578e-09,-2.504871820003e-09,-0.0015207547334109,0.0015207589366302,-0.0015207574809571,0.0015207561569448,-0.0015207562482865,0.0015207573467767,-0.0015207590355478,0.0015207545412241,-0.0013250786647469,0.0013250850850698,-0.0013250868049525,0.0013250768919521,-2.2723481072663e-09,2.4865475113744e-09,-1.2294062387994e-09,1.3801777166946e-09,-0.0014456735273799,0.0014456736809567,-0.0015207579374361,0.001520755648332,-0.0015207570624744,0.0015207565231072,-0.0015207564019331,0.0015207572524161,-0.0015207555601149,0.0015207580947649,-0.0013250822606448,0.0013250814672586,-0.0013250797364412,0.0013250840094172,-0.0014187620541353,0.0014187584453751,-0.0014187574500461,0.0014187631545322,-3.7956793271099e-09,4.2283358158315e-09,-0.0010477182853267,0.0010477186956265,1.5299062234739e-09,-1.1270368602589e-09,-0.0011331578097187,0.0011331564181279,-0.0011331586908314,0.0011331555550733,-0.0011331551076734,0.0011331590964708,-0.0011331560381294,0.0011331581875953,-0.0011227877210658,0.0011227950271844,-0.0011227955064932,0.0011227872703832,0.60265701712611,125803,2834,0.0060050607149059,0.0060050607151171,0.0043573997045,19.021145862349,-8.7830833101206e-05,-8.7830833101206e-05,-8.7830833101206e-05,2343108.2572129,0.016502908101398
18219200,0.98318328157813,0.016465559630959,0.0059159059268488,0.0059159059271164,0.0046337477769938,-0.0014442723615216,0.0014442722225805,4.1176569422304e-09,-4.2533421960214e-09,2.2645893585849e-09,-2.4639094793155e-09,-0.0015193877028696,0.0015193919140228,-0.0015193904787674,0.0015193891059003,-0.0015193891953054,0.0015193903464795,-0.0015193920052026,0.0015193875183895,-0.0013236390918953,0.0013236456074844,-0.0013236472972947,0.0013236373492874,-2.2541179330091e-09,2.4656297183498e-09,-1.2012794007421e-09,1.3496021395535e-09,-0.0014442722165574,0.0014442723676445,-0.0015193908945105,0.0015193886385169,-0.0015193900416274,0.0015193894904458,-0.0015193893747571,0.0015193902263187,-0.0015193885496062,0.0015193910520251,-0.0013236427187272,0.0013236419588334,-0.0013236402434609,0.0013236444523117,-0.0014173454492995,0.0014173418476687,-0.001417340875099,0.0014173465283046,-3.863760625867e-09,4.300408083485e-09,-0.0010462739818847,0.0010462743962307,1.4920352871256e-09,-1.0846870502234e-09,-0.0011317044127675,0.001131702954884,-0.0011317052698641,0.0011317021152974,-0.0011317016670083,0.0011317056767437,-0.0011317025678852,0.0011317047973825,-0.001121332008072,0.0011213394907216,-0.0011213399390489,0.0011213315874588,0.61338749526049,125803,2834,0.0059992573888244,0.00599925738903,0.0043514062904972,18.050190799734,-9.5598473602126e-05,-9.5598473602126e-05,-9.5598473602126e-05,2342835.6414005,0.016485017809519
18419200,0.98355662116314,0.01647093402187,0.0059178588279402,0.005917858828208,0.0046352163657221,-0.0014436296192313,0.001443629500029,4.135154909209e-09,-4.2510506287331e-09,2.1423184325836e-09,-2.3202763001517e-09,-0.0015187684373564,0.0015187725912632,-0.0015187712253164,0.0015187697726081,-0.0015187698480991,0.0015187711088653,-0.0015187726595915,0.0015187682772575,-0.001322965580787,0.0013229722006676,-0.0013229737840967,0.0013229639421014,-2.2109308257574e-09,2.419871590233e-09,-1.2400467713705e-09,1.3857500294275e-09,-0.001443629486114,0.0014436296335894,-0.0015187715977405,0.0015187693466098,-0.0015187707274729,0.0015187702205632,-0.0015187701143171,0.0015187709024198,-0.0015187692583028,0.0015187717541535,-0.0013229693227721,0.0013229684408291,-0.0013229667582362,0.0013229710222747,-0.0014166946741274,0.0014166911681413,-0.0014166901753159,0.0014166957822464,-3.9640789866446e-09,4.4008960199416e-09,-0.0010455491614952,0.0010455495760572,1.4857595660026e-09,-1.078448733273e-09,-0.0011309913057929,0.0011309897837978,-0.0011309921649578,0.0011309889443193,-0.0011309885000363,0.001130992567608,-0.0011309893922884,0.0011309916955748,-0.0011206134211948,0.001120621118167,-0.0011206215645958,0.0011206130053533,0.61738401409629,125803,2834,0.0059965954459288,0.0059965954468432,0.0043483989715607,17.476792687392,-0.00010018565850086,-0.00010018565850086,-0.00010018565850086,2342123.1181283,0.016476549441469
18619200,0.98391618870689,0.01647606071394,0.005919722342938,0.0059197223432055,0.0046366160277964,-0.0014436118404393,0.001443611731161,4.2396863929027e-09,-4.3459619456693e-09,2.0800151428475e-09,-2.2475914426242e-09,-0.0015187725487472,0.0015187767272313,-0.0015187753960869,0.0015187738475946,-0.0015187739090154,0.0015187752936077,-0.0015187767896213,0.0015187723947861,-0.0013229160021945,0.0013229228889269,-0.0013229244162602,0.0013229144218674,-2.072333707863e-09,2.2536824232004e-09,-1.2854221054796e-09,1.4057621015283e-09,-0.0014436117244614,0.0014436118472587,-0.0015187756969719,0.0015187734963882,-0.0015187747981779,0.0015187743951195,-0.0015187743067312,0.0015187749532046,-0.0015187734346828,0.0015187758262425,-0.0013229199626492,0.0013229189055719,-0.0013229173490767,0.0013229215386482,-0.0014166685498046,0.0014166653519285,-0.0014166643603512,0.0014166696451697,-3.9758679649057e-09,4.405663679587e-09,-0.0010454176496374,0.0010454180570405,1.5564900432976e-09,-1.1568390525338e-09,-0.0011308886882773,0.0011308871962715,-0.0011308895909633,0.0011308863109121,-0.0011308858700157,0.001130889990842,-0.0011308868156981,0.0011308890665232,-0.0011204974044239,0.0011205050485071,-0.0011205055487942,0.0011204969309587,0.61178638382948,125803,2834,0.0059965216238365,0.0059965216240833,0.0043478538209449,17.231237432652,-0.00010215010053878,-0.00010215010053878,-0.00010215010053878,2342599.3904927,0.016475845544437
18819200,0.98426278354003,0.01648132235382,0.0059216270549795,0.0059216270552471,0.0046380682435933,-0.0014436035954186,0.0014436034975838,4.2980024449756e-09,-4.3929255584926e-09,2.0124146871715e-09,-2.1677898186267e-09,-0.0015187862997975,0.0015187904762109,-0.0015187891824027,0.0015187875611183,-0.0015187876119034,0.0015187890913593,-0.0015187905272722,0.0015187861577424,-0.0013228812734046,0.0013228883225302,-0.0013228897895819,0.0013228797534181,-2.0065195633811e-09,2.1759001593139e-09,-1.3479245593724e-09,1.4571815396924e-09,-0.0014436034907566,0.0014436036023693,-0.001518789447583,0.0015187872461183,-0.0015187885115302,0.0015187881825956,-0.0015187881049663,0.0015187886546879,-0.0015187871950863,0.0015187895660623,-0.0013228854002321,0.0013228841720026,-0.0013228826747107,0.0013228869183522,-0.0014166599366545,0.0014166569053543,-0.0014166558871635,0.0014166610580659,-4.03403093471e-09,4.4582031370132e-09,-0.0010453090469927,0.0010453094486913,1.6092162160952e-09,-1.2158874511017e-09,-0.0011307994202356,0.001130797923313,-0.0011308003604649,0.0011307970004162,-0.0011307965654785,0.0011308007545397,-0.0011307975480815,0.0011307997931883,-0.0011204093556209,0.0011204170663005,-0.0011204176090048,0.0011204088390146,0.64922935187565,125803,2834,0.0059964874123835,0.0059964874126378,0.0043474034748694,16.994235627448,-0.00010404611498042,-0.00010404611498042,-0.00010404611498042,2343557.0072375,0.016475318375087
19019200,0.98459697709322,0.016486707840578,0.0059235699261338,0.0059235699264015,0.0046395679880432,-0.0014436437696935,0.0014436436796911,4.357906035315e-09,-4.4450709442515e-09,1.9674106583078e-09,-2.1144466285187e-09,-0.0015188256521374,0.001518829840644,-0.0015188285716138,0.0015188268884996,-0.0015188269314768,0.0015188284888984,-0.0015188298844419,0.0015188255176813,-0.0013229216024192,0.0013229288026424,-0.0013229302292458,0.0013229201227749,-1.9589700503979e-09,2.1195759580796e-09,-1.4052319390752e-09,1.5063224455432e-09,-0.0014436436730618,0.0014436437764478,-0.0015188288107238,0.0015188265998661,-0.0015188278392475,0.0015188275722181,-0.0015188275019193,0.0015188279741296,-0.0015188265572943,0.0015188289207846,-0.0013229258774741,0.0013229245032871,-0.0013229230490079,0.0013229273535276,-0.0014167114050074,0.0014167085038361,-0.0014167074582977,0.0014167125528847,-4.0887036151796e-09,4.5074272878374e-09,-0.0010451992529683,0.0010451996491358,1.660834692052e-09,-1.2736397212635e-09,-0.0011307526963775,0.0011307511954194,-0.0011307536726572,0.0011307502363873,-0.0011307498066192,0.0011307540616795,-0.0011307508259288,0.0011307530635763,-0.0011203317191002,0.0011203394885778,-0.001120340072994,0.0011203311604341,0.68719099313723,125803,2834,0.0059966530252939,0.0059966530255515,0.0043469502010035,16.757578148938,-0.00010593937480849,-0.00010593937480849,-0.00010593937480849,2337380.2746803,0.016475194668808
19219200,0.98492964759358,0.016492230216313,0.0059255593878482,0.0059255593881159,0.0046411114403489,-0.00144470684441,0.0014447067633727,4.4084507252094e-09,-4.4866923210411e-09,1.9139140867678e-09,-2.0514105941086e-09,-0.0015198649063463,0.0015198690967081,-0.0015198678572629,0.0015198661127558,-0.0015198661483052,0.001519867782786,-0.0015198691309976,0.0015198647820424,-0.001324000999225,0.0013240083344031,-0.001324009713194,0.0013239995671294,-1.9160416977708e-09,2.0690040168002e-09,-1.4920922668156e-09,1.5861871614056e-09,-0.0014447067558222,0.0014447068520763,-0.0015198680811781,0.0015198658399048,-0.0015198670555365,0.0015198668667843,-0.0015198668039502,0.0015198671817524,-0.0015198658035942,0.0015198681853627,-0.0013240054433493,0.0013240038647395,-0.001324002449155,0.0013240068820976,-0.0014177961427538,0.0014177933778769,-0.0014177922844015,0.0014177973379619,-4.1544208070237e-09,4.5656778375584e-09,-0.0010460022187589,0.0010460026073496,1.7337127711362e-09,-1.3549338558975e-09,-0.0011316779393503,0.0011316764418951,-0.0011316789680675,0.0011316754306937,-0.0011316750092351,0.0011316793486426,-0.0011316760789563,0.0011316783002937,-0.001121196327442,0.0011212041622922,-0.0011212048053105,0.001121195709383,0.70677986173331,125803,2834,0.006001054230867,0.0060010542311056,0.0043502863252358,17.021923697941,-0.00010382461041647,-0.00010382461041647,-0.00010382461041647,2328429.5275302,0.016487533883828
19419200,0.98526593167221,0.016497696912484,0.0059275320361562,0.0059275320364238,0.004642632839904,-0.0014462799697493,0.0014462798910181,4.4769804377913e-09,-4.5529629245197e-09,1.9017203947473e-09,-2.036755171057e-09,-0.0015214114975618,0.0015214157249086,-0.0015214144920379,0.0015214126972035,-0.0015214127289554,0.0015214144212562,-0.0015214157579841,0.0015214113738428,-0.0013255887215176,0.0013255962040113,-0.0013255975717923,0.0013255873002528,-1.8829822487731e-09,2.029687634653e-09,-1.5674940741037e-09,1.6556066097994e-09,-0.0014462798852786,0.0014462799756126,-0.0015214147062629,0.0015214124336532,-0.0015214136316802,0.001521413510374,-0.0015214134515372,0.001521413753074,-0.0015214124047105,0.0015214148033024,-0.0013255933229268,0.0013255915767229,-0.0013255901916533,0.0013255947324181,-0.0014193849134614,0.0014193822671575,-0.0014193811307724,0.0014193861510849,-4.1990252850256e-09,4.6023966921167e-09,-0.0010472501526445,0.0010472505332162,1.8123856738544e-09,-1.4425370422492e-09,-0.0011330851891711,0.0011330837106502,-0.0011330862716096,0.0011330826451785,-0.001133082230487,0.0011330866459244,-0.0011330833567342,0.001133085540485,-0.0011225116776528,0.001122519524275,-0.0011225202309038,0.0011225109966179,0.69264756301974,125803,2834,0.0060075673798179,0.0060075673800728,0.0043554695741947,17.53792313957,-9.9696614883438e-05,-9.9696614883438e-05,-9.9696614883438e-05,2320318.4742198,0.016506044812127
19619200,0.98560571266704,0.01650308579336,0.0059294802133099,0.0059294802135777,0.0046441253664724,-0.0014478427938791,0.0014478427110481,4.5535936787212e-09,-4.6336565175035e-09,1.9308467890148e-09,-2.070290946915e-09,-0.0015229606318736,0.0015229649251589,-0.0015229636756169,0.00152296184813,-0.0015229618808813,0.0015229636038357,-0.0015229649653128,0.0015229605009185,-0.0013271507365625,0.0013271583572584,-0.001327159749883,0.0013271492902191,-1.8809255237223e-09,2.0269134973903e-09,-1.6151321450468e-09,1.7025193552281e-09,-0.001447842707722,0.0014478427973266,-0.0015229638901794,0.0015229615838904,-0.0015229627815068,0.0015229626954618,-0.0015229626340172,0.0015229629049344,-0.0015229615589892,0.001522963983586,-0.0013271554499924,0.0013271536175182,-0.0013271522351803,0.001327156856973,-0.0014209545951727,0.0014209519932707,-0.0014209508258664,0.0014209558630171,-4.2314180836205e-09,4.6288344264033e-09,-0.001048498501661,0.0010484988761955,1.8728220382855e-09,-1.5097067059615e-09,-0.0011344783728037,0.0011344769080523,-0.0011344794947904,0.0011344758033087,-0.0011344753913495,0.0011344798661229,-0.0011344765630996,0.0011344787151925,-0.0011238213080586,0.001123829154874,-0.00112382991028,0.0011238205790848,0.67638952127418,125803,2834,0.0060140380723851,0.006014038072635,0.0043606536456672,18.060560991704,-9.5515512066371e-05,-9.5515512066371e-05,-9.5515512066371e-05,2316681.2726045,0.016524470555355
19819200,0.9859487208786,0.016508369985618,0.0059313944976235,0.0059313944978914,0.004645580990103,-0.0014493796127191,0.0014493795279709,4.5884549519685e-09,-4.6704030982148e-09,1.94652732275e-09,-2.0880701793599e-09,-0.0015244952740462,0.0015244996027233,-0.0015244983436487,0.0015244964996283,-0.0015244965363319,0.001524498267854,-0.0015244996425751,0.0015244951432765,-0.0013286716011285,0.0013286792728815,-0.0013286806782837,0.0013286701421154,-1.9234539028036e-09,2.0759334197946e-09,-1.6602539769308e-09,1.7536820863318e-09,-0.001449379522561,0.0014493796182534,-0.0015244985767731,0.0015244962165871,-0.0015244974383561,0.0015244973580594,-0.0015244972926346,0.0015244975657117,-0.0015244961839484,0.001524498678802,-0.0013286763719205,0.0013286744753532,-0.0013286730570147,0.0013286778160779,-0.001422491495361,0.0014224888354928,-0.0014224876303068,0.0014224928019755,-4.3052650228239e-09,4.6995971911788e-09,-0.0010497388104926,0.0010497391818915,1.9056678041126e-09,-1.5460862133968e-09,-0.0011358439460997,0.001135842455497,-0.0011358450932942,0.0011358413255632,-0.0011358409186717,0.0011358454594715,-0.0011358421116077,0.0011358442875987,-0.0011251182610948,0.0011251262295494,-0.0011251270108953,0.0011251175056818,0.65786893157161,125803,2834,0.0060204013420149,0.0060204013422711,0.0043658034200614,18.583466619012,-9.1332267047904e-05,-9.1332267047904e-05,-9.1332267047904e-05,2316792.5467608,0.01654264326087
20019200,0.98628547123401,0.016513745668274,0.0059333381278772,0.005933338128145,0.0046470694122522,-0.0014500466638523,0.0014500465678654,4.6132469792362e-09,-4.7063093411861e-09,2.0197759231143e-09,-2.1733767313621e-09,-0.0015251706769057,0.001525175070175,-0.0015251737695017,0.0015251719440732,-0.0015251719940801,0.0015251736796057,-0.0015251751182133,0.0015251705373651,-0.0013293197136666,0.0013293273733178,-0.0013293288426429,0.0013293181913928,-2.0313449456298e-09,2.2014218568535e-09,-1.6394635004488e-09,1.7491945945871e-09,-0.001450046559825,0.0014500466719945,-0.0015251740364826,0.0015251716265093,-0.0015251729089546,0.0015251727567332,-0.0015251726780831,0.0015251730505703,-0.0015251715753908,0.0015251741579659,-0.0013293244229836,0.0013293226369251,-0.0013293211253684,0.0013293259611192,-0.0014231591679905,0.0014231562791979,-0.0014231550665015,0.0014231604841322,-4.3814206337584e-09,4.7790221439187e-09,-0.0010501839090185,0.0010501842837283,1.8763494574297e-09,-1.5131423311379e-09,-0.0011363730305454,0.0011363714733247,-0.0011363741596516,0.0011363703614926,-0.0011363699538369,0.0011363745264019,-0.001136371123617,0.0011363733780231,-0.0011256040948967,0.0011256122476932,-0.0011256130047345,0.0011256033634011,0.68048382298769,125803,2834,0.0060231629928669,0.0060231629930764,0.0043676524128535,18.671396476564,-9.062882818749e-05,-9.062882818749e-05,-9.062882818749e-05,2317389.3837013,0.016550138039525
20219200,0.98661355933613,0.016519133011756,0.0059352831230542,0.005935283123322,0.00464856676538,-0.0014504959822562,0.0014504958704912,4.6707746745693e-09,-4.7794790919592e-09,2.1212065228321e-09,-2.2916716191228e-09,-0.0015256144299738,0.0015256189228273,-0.0015256175653748,0.0015256157542528,-0.0015256158183859,0.0015256174604572,-0.0015256189871306,0.0015256142733527,-0.0013297654591512,0.0013297731613524,-0.0013297747190324,0.0013297638481141,-2.111483760444e-09,2.2954194868286e-09,-1.5766912685642e-09,1.6992109587348e-09,-0.0014504958639247,0.0014504959889454,-0.001525617843538,0.001525615424558,-0.0015256167524083,0.0015256165184248,-0.0015256164267645,0.0015256169082609,-0.0015256153619927,0.0015256179766241,-0.0013297700983628,0.0013297684962061,-0.0013297669135238,0.0013297717061711,-0.0014236170334116,0.0014236139523749,-0.0014236127643215,0.00142361832609,-4.4218580559205e-09,4.8240517898233e-09,-0.0010504009321239,0.0010504013114932,1.8331668791242e-09,-1.4648176236846e-09,-0.0011366876894681,0.0011366860765655,-0.0011366887872309,0.0011366849965282,-0.0011366845831533,0.0011366891594071,-0.0011366857232376,0.0011366880404981,-0.0011258655069802,0.0011258737753802,-0.0011258744980121,0.0011258648113606,0.69908658173125,125803,2834,0.0060250226136506,0.0060250226139034,0.0043685560262184,18.638435491928,-9.0892516064574e-05,-9.0892516064574e-05,-9.0892516064574e-05,2313304.3959869,0.016554837911446
20419200,0.98693315526907,0.01652438828021,0.0059371807260919,0.0059371807263597,0.004650026827758,-0.0014509450864291,0.0014509449649133,4.7147526366609e-09,-4.8331209783541e-09,2.1829692363765e-09,-2.3638769552993e-09,-0.0015260496986468,0.0015260542592907,-0.0015260528669992,0.0015260510577941,-0.0015260511317059,0.0015260527516178,-0.0015260543324301,0.0015260495326509,-0.0013302187866453,0.0013302265291251,-0.0013302281407625,0.0013302171219254,-2.1825888838196e-09,2.3782674376557e-09,-1.5138846661277e-09,1.6473420540296e-09,-0.0014509449576919,0.001450945093766,-0.0015260531467353,0.0015260507263029,-0.001526052093672,0.0015260517812443,-0.0015260516796927,0.0015260522606313,-0.001526050652284,0.0015260532913973,-0.0013302233597126,0.0013302219306956,-0.0013302202855756,0.0013302250294279,-0.0014240757025383,0.0014240724417305,-0.0014240712812307,0.0014240769690895,-4.4780743829817e-09,4.8864882153157e-09,-0.0010505976157384,0.0010505980014126,1.7744508195911e-09,-1.3991136713089e-09,-0.0011369998669912,0.0011369981797525,-0.0011370009237859,0.0011369971406218,-0.0011369967215291,0.0011370013015912,-0.0011369978197534,0.0011370002246936,-0.0011261080575971,0.001126116491336,-0.001126117166212,0.0011261074096363,0.69998399407383,125803,2834,0.0060268810783342,0.0060268810785723,0.0043693760027457,18.602213352733,-9.1182293178132e-05,-9.1182293178132e-05,-9.1182293178132e-05,2306937.2519681,0.016559450549568
20619200,0.98724448958697,0.016528979152742,0.0059388500077949,0.0059388500080627,0.0046512791368842,-0.0014513553001131,0.0014513551696293,4.7711040757514e-09,-4.8983668648429e-09,2.2391240304155e-09,-2.4296070417609e-09,-0.0015264541927486,0.0015264588248104,-0.0015264574011406,0.0015264555834859,-0.0015264556653612,0.0015264572772156,-0.0015264589072682,0.001526454017066,-0.0013306191919678,0.0013306270060842,-0.001330628667047,0.0013306174779497,-2.2282164662224e-09,2.4317031671032e-09,-1.4465823178011e-09,1.5872863804612e-09,-0.0014513551632287,0.001451355306621,-0.0015264576685135,0.0015264552640734,-0.0015264566568311,0.0015264562771594,-0.001526456168208,0.0015264568321258,-0.0015264551833586,0.0015264578197101,-0.0013306237178031,0.0013306224554611,-0.0013306207698009,0.0013306254269597,-0.0014244779134838,0.0014244745221913,-0.0014244733968281,0.0014244791454277,-4.5226241575068e-09,4.936526755555e-09,-0.0010507591000178,0.0010507594912811,1.7201799774619e-09,-1.3386371208269e-09,-0.0011372813045048,0.0011372795522947,-0.0011372823225059,0.0011372785520994,-0.0011372781268335,0.0011372827063212,-0.0011372791874297,0.0011372816670476,-0.0011262998640216,0.0011263084322171,-0.0011263090636153,0.0011262992601143,0.63099123327819,125803,2834,0.006028578476772,0.0060285784769932,0.0043700497243765,18.565859139324,-9.147312688541e-05,-9.147312688541e-05,-9.147312688541e-05,2302145.6061506,0.016563587342618
20819200,0.98753330459543,0.016533562354872,0.0059405084868919,0.0059405084871598,0.0046525453808203,-0.0014501378698378,0.001450137721505,4.8430759634126e-09,-4.9878458134401e-09,2.351052006975e-09,-2.5605598368899e-09,-0.0015252631763564,0.0015252679231736,-0.0015252664372509,0.0015252646306765,-0.0015252647287944,0.0015252662986137,-0.0015252680267446,0.0015252629812404,-0.0013293747300469,0.0013293826100678,-0.0013293843670458,0.0013293729181344,-2.2927243490214e-09,2.5120785291056e-09,-1.3103649741231e-09,1.4664277631311e-09,-0.001450137716938,0.0014501378747739,-0.0015252666854791,0.001525264329575,-0.0015252657574904,0.0015252652605064,-0.0015252651368693,0.0015252659494748,-0.0015252642375287,0.0015252668471339,-0.001329379129586,0.0013293781887062,-0.0013293764375418,0.0013293809007549,-0.0014232516351318,0.0014232480330945,-0.0014232469823462,0.0014232527982215,-4.5454606888662e-09,4.9688024255555e-09,-0.0010494872407219,0.0010494876417157,1.6214216726184e-09,-1.2291645372458e-09,-0.0011360109326837,0.0011360091005523,-0.0011360118821174,0.0011360081750793,-0.0011360077365327,0.0011360122767236,-0.0011360087293874,0.0011360113036957,-0.0011250230793763,0.0011250317752666,-0.0011250323286521,0.0011250225557782,0.67642716610662,125803,2834,0.0060235366918668,0.0060235366926307,0.0043647721020671,17.744010557438,-9.8047915540499e-05,-9.8047915540499e-05,-9.8047915540499e-05,2303142.0697778,0.01654797175848
21019200,0.98779996530577,0.016537659285328,0.005941993733193,0.0059419937334602,0.0046536718186751,-0.0014487606753922,0.0014487605223753,4.8955234137084e-09,-5.044935428568e-09,2.3764484876006e-09,-2.590973584359e-09,-0.0015238876333915,0.0015238924311984,-0.0015238909310081,0.0015238891025829,-0.0015238892044581,0.001523890788307,-0.0015238925402576,0.0015238874332523,-0.0013279945530302,0.0013280025184946,-0.0013280042990414,0.0013279927178779,-2.3550211573084e-09,2.5853489389535e-09,-1.2035441414867e-09,1.3698118966133e-09,-0.0014487605150824,0.001448760683172,-0.0015238911517226,0.0015238888287146,-0.0015238902905627,0.0015238896924317,-0.0015238895586348,0.0015238904940184,-0.0015238887270592,0.0015238913227096,-0.001327998868338,0.0013279981834661,-0.0013279963768666,0.0013280006937781,-0.0014218700392421,0.0014218662482404,-0.0014218652554937,0.0014218711462943,-4.5938220335025e-09,5.0272837112276e-09,-0.00104802646977,0.0010480268809318,1.5216810225202e-09,-1.1180797859236e-09,-0.0011345917250911,0.0011345897971494,-0.0011345926042504,0.0011345889427259,-0.001134588493419,0.0011345930092404,-0.0011345894169171,0.0011345921055375,-0.0011235571786614,0.0011235660575763,-0.0011235665309267,0.0011235567353069,0.65601664012764,125803,2834,0.0060178325572616,0.0060178325582687,0.0043587126580165,16.833616463619,-0.00010533106829105,-0.00010533106829105,-0.00010533106829105,2295520.7354462,0.016530215386894
21219200,0.98804633720937,0.016541467522824,0.0059433733318261,0.0059433733320926,0.0046547208589051,-0.0014473231021592,0.0014473229515208,4.9745116114379e-09,-5.1217470488493e-09,2.353353125501e-09,-2.5653368660726e-09,-0.0015224590712856,0.0015224639016672,-0.0015224624150806,0.0015224605257449,-0.0015224606199335,0.0015224622776048,-0.0015224640107015,0.0015224588683496,-0.0013265474539497,0.001326555604513,-0.0013265573682337,0.0013265456365525,-2.3961515603911e-09,2.6298790267414e-09,-1.1139033832663e-09,1.2827970793967e-09,-0.0014473229409077,0.0014473231127818,-0.0015224625905517,0.001522460297769,-0.0015224617817261,0.0015224611051774,-0.0015224609633854,0.0015224619947163,-0.0015224601951388,0.0015224627624093,-0.0013265517521281,0.0013265512843662,-0.0013265494458414,0.0013265536066603,-0.0014204283091984,0.0014204243962897,-0.0014204234535129,0.0014204293583701,-4.6201923988437e-09,5.0614636256429e-09,-0.0010465526476103,0.0010465530667464,1.4451322536281e-09,-1.0324731961801e-09,-0.0011331261835366,0.0011331241836338,-0.0011331270010923,0.001133123384253,-0.0011331229244989,0.0011331274190756,-0.0011331237986776,0.0011331265666271,-0.0011220736008175,0.0011220825863228,-0.0011220829967495,0.0011220732180238,0.6596710101431,125803,2834,0.0060118788322313,0.0060118788322497,0.0043525977357647,15.92066036905,-0.0001126347170476,-0.0001126347170476,-0.0001126347170476,2291067.6836695,0.016511895208298
21419200,0.9882774233905,0.016545062908796,0.0059446748979199,0.0059446748981866,0.00465571311269,-0.0014463037744636,0.0014463036287461,4.994154342013e-09,-5.1364247778665e-09,2.321016628594e-09,-2.5276689772125e-09,-0.0015214444419317,0.0015214492712669,-0.0015214478034039,0.0015214458782188,-0.0015214459731754,0.0015214476662498,-0.0015214493711554,0.001521444249491,-0.0013255211553216,0.0013255293517139,-0.0013255310863223,0.0013255193667884,-2.3088638890872e-09,2.530148075727e-09,-1.0958852311619e-09,1.2536022606092e-09,-0.0014463036217073,0.0014463037817484,-0.0015214479259147,0.0015214457037904,-0.0015214471384206,0.0015214464906368,-0.0015214463657517,0.0015214473338481,-0.0015214456076878,0.0015214480899178,-0.0013255254981616,0.0013255249886984,-0.001325523222977,0.001325527280993,-0.0014194080343977,0.0014194042595303,-0.0014194033474342,0.0014194090574152,-4.7094618623615e-09,5.154435517239e-09,-0.0010454829782646,0.0010454834011249,1.4053888980508e-09,-9.8865389521666e-10,-0.001132071310469,0.0011320692318183,-0.0011320721068245,0.0011320684562983,-0.0011320679975829,0.0011320725230372,-0.0011320688383596,0.0011320717024964,-0.0011210025388827,0.0011210117507214,-0.0011210121299169,0.001121002187856,0.66373453053252,125803,2834,0.0060076571634845,0.0060076571639923,0.0043481599317181,15.231751564725,-0.0001181459874822,-0.0001181459874822,-0.0001181459874822,2287108.3504541,0.016498801411887
21619200,0.98849464892436,0.016548472207044,0.0059459082017581,0.0059459082020248,0.0046566558032612,-0.0014453199385756,0.0014453197882108,4.9781869156304e-09,-5.125263851531e-09,2.3496692323355e-09,-2.561103512281e-09,-0.0015204644902748,0.0015204693396428,-0.0015204678574401,0.0015204659416206,-0.0015204660537375,0.0015204677022362,-0.001520469430662,0.0015204643054306,-0.001324533345371,0.0013245414496445,-0.0013245432117571,0.0013245315300891,-2.1261341532375e-09,2.3182287128851e-09,-1.1109333199901e-09,1.2408044016651e-09,-0.0014453197975229,0.0014453199296294,-0.0015204679271377,0.0015204658189933,-0.0015204671533214,0.0015204665942558,-0.0015204665097129,0.0015204673067912,-0.0015204657371251,0.0015204680747509,-0.0013245377427971,0.0013245370328117,-0.001324535427699,0.0013245393672486,-0.0014184228276231,0.0014184193804861,-0.0014184184934952,0.0014184238268766,-4.8308065293695e-09,5.2768374354738e-09,-0.0010444516640639,0.0010444520878319,1.3920776038395e-09,-9.7426943397745e-10,-0.0011310590256308,0.0011310568717052,-0.0011310598255503,0.001131056091482,-0.0011310556454994,0.0011310602298635,-0.0011310564636881,0.001131059430333,-0.0011199681623348,0.0011199776612962,-0.0011199780335347,0.0011199678252592,0.66920854450245,125803,2834,0.0060035823961833,0.0060035823969382,0.0043438813659738,14.567351307394,-0.00012346118954085,-0.00012346118954085,-0.00012346118954085,2282762.7385587,0.016486168366255
21819200,0.98869897267276,0.016551632434408,0.0059470522365462,0.0059470522368131,0.0046575279610487,-0.0014443230903219,0.0014443229670018,5.0992511055555e-09,-5.2194221287073e-09,2.1751631895518e-09,-2.357802667394e-09,-0.0015194698280171,0.0015194746400533,-0.0015194732543457,0.0015194711820151,-0.001519471257524,0.0015194731371783,-0.001519474715729,0.0015194696605564,-0.0013235346583562,0.0013235431583886,-0.0013235447675093,0.0013235329962426,-2.1499187125767e-09,2.3433469075461e-09,-1.119211443325e-09,1.2508120815513e-09,-0.0014443229617195,0.001444323095763,-0.0015194732614609,0.0015194711242503,-0.0015194724693533,0.0015194719153404,-0.0015194718174664,0.0015194726359968,-0.001519471050557,0.0015194734018368,-0.0013235392364488,0.0013235385585561,-0.0013235369347594,0.0013235408784224,-0.0014174233153541,0.0014174198559469,-0.0014174189610613,0.0014174243165493,-4.8324187003667e-09,5.2764036771366e-09,-0.0010434103682272,0.0010434107900456,1.4087421947532e-09,-9.9302137732341e-10,-0.0011300409956083,0.0011300388387603,-0.0011300417957742,0.0011300380571687,-0.0011300376024512,0.0011300422089356,-0.0011300384436264,0.001130041388658,-0.0011189209846587,0.0011189304392231,-0.0011189308216829,0.0011189206299402,0.65988853956004,125803,2834,0.0059994537211037,0.0059994537214312,0.0043395615200337,13.903662639155,-0.00012877069888676,-0.00012877069888676,-0.00012877069888676,2277710.5904706,0.016473383997668
22019200,0.98890295012598,0.016554737166217,0.005948176987232,0.0059481769874989,0.0046583831914862,-0.0014450826313622,0.0014450825305822,5.164425540933e-09,-5.2622536516455e-09,2.0345734329429e-09,-2.1931071629051e-09,-0.0015202293794813,0.0015202341484804,-0.0015202328415747,0.0015202306543517,-0.0015202307083185,0.0015202327473584,-0.0015202342023679,0.0015202292348722,-0.0013242797705533,0.0013242884997873,-0.0013242899853959,0.0013242782318228,-2.0094001729687e-09,2.1786394356891e-09,-1.2353597840289e-09,1.3445317384599e-09,-0.0014450825253282,0.001445082636771,-0.0015202327871641,0.0015202306591042,-0.0015202319259103,0.0015202315202163,-0.0015202314435648,0.0015202320690834,-0.0015202306075111,0.0015202329050938,-0.0013242846272659,0.0013242836200776,-0.0013242821206586,0.0013242861465568,-0.0014181866161168,0.0014181835034198,-0.0014181825608529,0.0014181876626156,-4.8922477780981e-09,5.3257148655372e-09,-0.0010440450709838,0.0010440454821357,1.5073841456384e-09,-1.103480729401e-09,-0.0011307123616523,0.0011307102276154,-0.0011307132314477,0.0011307093763009,-0.0011307089322988,0.0011307136343179,-0.001130709842898,0.0011307127442204,-0.0011195871092054,0.0011195965905129,-0.0011195970527023,0.0011195866737823,0.64982377873212,125803,2834,0.0060025991289402,0.0060025991292593,0.0043421959128516,14.153017059294,-0.00012677586352565,-0.00012677586352565,-0.00012677586352565,2279493.8509185,0.016482456301423
22219200,0.98910778427989,0.016557830376155,0.0059492981603777,0.0059492981606446,0.0046592340551325,-0.0014460257303892,0.0014460256501261,5.2042056974412e-09,-5.2816519036892e-09,1.9106500825986e-09,-2.0472167971674e-09,-0.001521185033351,0.0015211897557403,-0.0015211885179775,0.0015211862393867,-0.0015211862756719,0.0015211884427798,-0.00152118978784,0.0015211849113671,-0.0013251977187339,0.0013252066084996,-0.0013252079848123,0.0013251962883439,-1.9317010405651e-09,2.088171170123e-09,-1.3637581875471e-09,1.4609920236929e-09,-0.001446025640791,0.0014460257399996,-0.0015211884353607,0.0015211862716359,-0.0015211874965608,0.0015211872131764,-0.0015211871502119,0.0015211876245236,-0.0015211862307849,0.0015211885428486,-0.0013252028129967,0.0013252014917848,-0.0013252000607693,0.0013252042652171,-0.0014191263907297,0.001419123507716,-0.0014191224950447,0.0014191275077552,-4.9762752651391e-09,5.3997137097468e-09,-0.0010448617150444,0.0010448621159887,1.6023747903901e-09,-1.2098621422498e-09,-0.0011315662496017,0.0011315641226523,-0.0011315671888942,0.0011315632022804,-0.0011315627704968,0.00113156758,-0.0011315637460151,0.0011315666241263,-0.0011204311518911,0.0011204407160375,-0.0011204412561979,0.0011204306392824,0.6449743434254,125803,2834,0.0060065048293524,0.0060065048299199,0.0043455848037273,14.499163319378,-0.00012400669344497,-0.00012400669344497,-0.00012400669344497,2284153.1641153,0.016493841473315
22419200,0.98931341707136,0.0165610692762,0.0059504691636949,0.0059504691639621,0.0046601309485432,-0.0014469774839988,0.0014469774085579,5.2834142279691e-09,-5.3561122108603e-09,1.8852159826517e-09,-2.016718161821e-09,-0.0015221509394834,0.0015221556964056,-0.0015221544722338,0.0015221521309946,-0.0015221521608489,0.0015221544038539,-0.0015221557256792,0.0015221508205195,-0.0013261240349008,0.0013261331054255,-0.0013261344578406,0.0013261226291805,-1.8663820237221e-09,2.0098491669253e-09,-1.4599402052559e-09,1.5451478948127e-09,-0.0014469774027122,0.0014469774899965,-0.0015221543720233,0.0015221521822379,-0.0015221533707874,0.0015221531852936,-0.0015221531309602,0.0015221534883525,-0.0015221521547533,0.0015221544664459,-0.0013261293331656,0.001326127781693,-0.0013261264113532,0.0013261307272188,-0.0014200784849457,0.0014200757953092,-0.0014200747350137,0.0014200796468929,-5.0133151623383e-09,5.4260412947513e-09,-0.0010456909708443,0.0010456913609531,1.7054992963841e-09,-1.3249702575314e-09,-0.0011324265788176,0.0011324244899847,-0.0011324275882936,0.0011324234987574,-0.0011324230756772,0.0011324279706543,-0.0011324241258157,0.0011324269408346,-0.0011212917206513,0.0011213012582542,-0.0011213018804641,0.0011212911240994,0.6713935303661,125803,2834,0.0060104463925034,0.0060104463928166,0.0043490258875644,14.848130420435,-0.00012121495663652,-0.00012121495663652,-0.00012121495663652,2289092.3424226,0.016505352654033
22619200,0.9895196080012,0.016564354075084,0.0059516561944185,0.0059516561946858,0.0046610416859799,-0.0014479447513074,0.0014479446783077,5.3286913328434e-09,-5.3989480994298e-09,1.8742523715236e-09,-2.0031662436463e-09,-0.0015231203759816,0.0015231251575854,-0.0015231239391126,0.001523121561734,-0.0015231215902601,0.0015231238723881,-0.0015231251836051,0.0015231202603592,-0.0013270787349247,0.0013270878991557,-0.0013270892410219,0.0013270773392869,-1.8693695572197e-09,2.0133395681603e-09,-1.5466037784851e-09,1.6322044987491e-09,-0.0014479446711211,0.0014479447586976,-0.0015231238499316,0.0015231216014144,-0.0015231227926548,0.0015231226617706,-0.0015231226078811,0.001523122909044,-0.0015231215733367,0.0015231239457532,-0.0013270841652269,0.001327082442977,-0.0013270810707404,0.0013270855622231,-0.0014210491011889,0.0014210464608342,-0.0014210453423607,0.0014210503219864,-5.0816452292321e-09,5.4867536677947e-09,-0.0010464969973465,0.0010464973797242,1.7804328266537e-09,-1.4085367556864e-09,-0.0011332967206864,0.0011332946351941,-0.001133297784058,0.0011332935903307,-0.0011332931756851,0.0011332981579224,-0.001133294277727,0.001133297076136,-0.0011221336078517,0.0011221432139135,-0.0011221438969125,0.0011221329508132,0.67880266796147,125803,2834,0.0060144516668532,0.0060144516672731,0.0043523720191254,15.186326019723,-0.00011850939184222,-0.00011850939184222,-0.00011850939184222,2289481.644349,0.016516897236072
22819200,0.98972336648636,0.016567590642004,0.0059528262568903,0.0059528262571574,0.0046619381279563,-0.0014484866439511,0.0014484865609301,5.3831744054818e-09,-5.4634262713718e-09,1.939146357704e-09,-2.0788254591327e-09,-0.0015236634472361,0.0015236683041673,-0.0015236670490241,0.0015236646691979,-0.0015236647065682,0.0015236669722128,-0.0015236683398097,0.0015236633207531,-0.0013276120500468,0.0013276212761702,-0.0013276226750043,0.001327610598247,-1.9286030241485e-09,2.0809092419439e-09,-1.5799514269122e-09,1.6730939010581e-09,-0.0014484865547255,0.0014484866502444,-0.001523666988056,0.0015236646802891,-0.0015236659053429,0.0015236657654927,-0.0015236657030154,0.0015236660303192,-0.0015236646449105,0.0015236670921993,-0.0013276175215407,0.0013276157775555,-0.0013276143564954,0.0013276189685562,-0.0014215922374613,0.0014215895074981,-0.001421588355513,0.0014215934904882,-5.1324438232659e-09,5.5340484121492e-09,-0.0010468893639864,0.0010468897427836,1.8189871296991e-09,-1.4510631531675e-09,-0.0011337551676723,0.0011337530720257,-0.0011337562566451,0.0011337519998517,-0.0011337515884941,0.0011337566275661,-0.001133752718237,0.0011337555188722,-0.0011225529080863,0.0011225625781229,-0.0011225632913882,0.0011225522205843,0.67691801963751,125803,2834,0.0060166951551396,0.0060166951553219,0.0043540019730797,15.3032582257,-0.0001175739341944,-0.0001175739341944,-0.0001175739341944,2287749.7353993,0.016523115668713
23019200,0.98992461612006,0.016570567764828,0.0059539074086739,0.0059539074089411,0.0046627529472128,-0.0014489983330098,0.0014489982379729,5.4345426488054e-09,-5.526639233965e-09,2.017835162815e-09,-2.170403168673e-09,-0.001524178897784,0.0015241838376577,-0.0015241825378857,0.0015241801646473,-0.0015241802134484,0.0015241824496257,-0.0015241838855541,0.0015241787588987,-0.0013281093082361,0.0013281185788067,-0.0013281200454542,0.0013281077882716,-1.9997046446899e-09,2.1649901171391e-09,-1.5925042534284e-09,1.6978229397114e-09,-0.0014489982319083,0.0014489983393504,-0.00152418250597,0.0015241801457369,-0.0015241814111276,0.0015241812441777,-0.001524181170142,0.0015241815482666,-0.0015241800996984,0.0015241826213971,-0.0013281147886185,0.0013281130727894,-0.0013281115882346,0.0013281163000797,-0.0014220997691216,0.0014220969110604,-0.0014220957365077,0.0014221010490368,-5.1846248251138e-09,5.5844198929232e-09,-0.0010472558479626,0.0010472562248673,1.8389915773233e-09,-1.4732502262408e-09,-0.0011341844008334,0.0011341822831793,-0.0011341855045203,0.0011341811982356,-0.0011341807879783,0.0011341858736002,-0.0011341819318932,0.0011341847499823,-0.0011229417655968,0.0011229515194899,-0.001122952249266,0.0011229410628021,0.63260002049071,125803,2834,0.0060188135892241,0.0060188135897939,0.004355524372113,15.414513367487,-0.00011668389306011,-0.00011668389306011,-0.00011668389306011,2286752.7221318,0.016528970602752
23219200,0.99012335446778,0.016573637481709,0.0059550189995256,0.0059550189997927,0.0046635994823903,-0.0014494565423715,0.001449456435875,5.4831201068563e-09,-5.5865758822357e-09,2.0903485661097e-09,-2.2551647853226e-09,-0.0015246589482233,0.0015246639648971,-0.0015246626242404,0.0015246602557214,-0.0015246603155875,0.0015246625241499,-0.0015246640235944,0.0015246587976859,-0.001328534793259,0.0013285441069715,-0.0013285456369824,0.0013285332099185,-2.0762498215226e-09,2.2537583334672e-09,-1.5957044468831e-09,1.7123374663044e-09,-0.0014494564296798,0.0014494565487114,-0.0015246626189398,0.0015246602097632,-0.0015246615180389,0.0015246613137945,-0.0015246612284566,0.0015246616670277,-0.0015246601523735,0.0015246627466102,-0.0013285402704419,0.0013285386032082,-0.0013285370525186,0.0013285418477434,-0.0014225555964497,0.0014225525936042,-0.0014225514012279,0.0014225568937322,-5.2393873505066e-09,5.6382599975568e-09,-0.0010476326457237,0.0010476330217599,1.8471245359332e-09,-1.4823653087224e-09,-0.001134564950288,0.001134562801251,-0.0011345660595245,0.0011345617102886,-0.0011345613008883,0.0011345664277053,-0.0011345624506407,0.0011345652987108,-0.001123340047941,0.0011233499014735,-0.0011233506378516,0.0011233393385114,0.6590000905376,125803,2834,0.0060207113995059,0.0060207113998042,0.0043570872831387,15.52554067758,-0.00011579567457936,-0.00011579567457936,-0.00011579567457936,2292437.6828338,0.016534417652914
23419200,0.99032042636025,0.016576649566117,0.0059561104819192,0.0059561104821865,0.0046644286020116,-0.0014500770429322,0.001450076924294,5.5536256243729e-09,-5.6692067568016e-09,2.1659687407888e-09,-2.3437498875203e-09,-0.0015252891045543,0.0015252942127377,-0.0015252928299998,0.0015252904539958,-0.0015252905234966,0.0015252927189274,-0.001525294284132,0.0015252889394763,-0.0013291342383231,0.0013291436405685,-0.0013291452376566,0.0013291325878729,-2.1096200224388e-09,2.2925729858439e-09,-1.5782772596889e-09,1.6996251850401e-09,-0.0014500769216903,0.0014500770456741,-0.0015252928260919,0.0015252904058078,-0.0015252917335086,0.0015252915013746,-0.0015252914098318,0.0015252918893226,-0.0015252903452032,0.0015252929569569,-0.0013291397284088,0.0013291381243805,-0.001329136545314,0.0013291413343659,-0.0014231756628819,0.0014231725917677,-0.0014231714037572,0.0014231769576516,-5.2715653775225e-09,5.6699951954212e-09,-0.0010481287914199,0.0010481291669449,1.8534096357659e-09,-1.4892013555633e-09,-0.0011351006297419,0.0011350984615175,-0.0011351017409374,0.001135097367038,-0.0011350969569339,0.0011351021104493,-0.0011350981126741,0.0011351009753394,-0.0011238631037445,0.0011238730094594,-0.0011238737514449,0.0011238623903788,0.65256367489795,125803,2834,0.0060232807898782,0.0060232807901623,0.0043591468686051,15.704076925372,-0.00011436738459702,-0.00011436738459702,-0.00011436738459702,2293805.6722804,0.016541735315184
23619200,0.99051999225767,0.016579769283361,0.0059572394096603,0.0059572394099277,0.0046652904637734,-0.001451347857302,0.0014513477415404,5.5885126811855e-09,-5.7011812299445e-09,2.1466072562689e-09,-2.3213315483852e-09,-0.0015265696078862,0.0015265747292097,-0.0015265733570719,0.0015265709467973,-0.0015265710154158,0.0015265732475819,-0.0015265747968065,0.001526569447802,-0.00133037930026,0.0013303887799488,-0.0013303903597647,0.0013303776669785,-2.1289083492525e-09,2.3154675511389e-09,-1.5867383897256e-09,1.7117328107358e-09,-0.0014513477357381,0.0014513478632426,-0.0015265733438619,0.0015265709082824,-0.0015265722459495,0.0015265720091556,-0.0015265719155945,0.0015265724036518,-0.0015265708428155,0.0015265734800979,-0.0013303848326443,0.0013303832211841,-0.0013303816242472,0.0013303864559876,-0.0014244506578871,0.0014244475486719,-0.0014244463508862,0.0014244519611051,-5.3462151624733e-09,5.7457935319517e-09,-0.0010492461912301,0.0010492465679626,1.8444928232751e-09,-1.4790132589966e-09,-0.001136258973404,0.001136256751585,-0.0011362600804223,0.0011362556625078,-0.0011362552523231,0.0011362604493443,-0.0011362564003025,0.0011362593223676,-0.0011250234713371,0.0011250335369186,-0.0011250342709389,0.0011250227647101,0.66669033132318,125803,2834,0.0060285434556996,0.0060285434559845,0.0043637840875813,16.218008313502,-0.00011025593349198,-0.00011025593349198,-0.00011025593349198,2297978.4320867,0.016557148959527
23819200,0.99072202870127,0.016583097097376,0.005958440212758,0.0059584402130255,0.0046662166715924,-0.0014526674491277,0.0014526673397743,5.6015312119489e-09,-5.7077397272928e-09,2.1065887229841e-09,-2.2744816556173e-09,-0.0015278934615095,0.0015278985722253,-0.0015278972228819,0.0015278947794379,-0.0015278948463546,0.0015278971164722,-0.0015278986315608,0.0015278933133837,-0.0013316816101321,0.0013316911305129,-0.0013316926751028,0.001331680013473,-2.1535293596857e-09,2.3469592184882e-09,-1.5931386571849e-09,1.7249500833101e-09,-0.0014526673278466,0.0014526674615392,-0.0015278971998849,0.0015278947495628,-0.0015278961013201,0.0015278958545579,-0.0015278957587487,0.0015278962602357,-0.0015278946751004,0.0015278973460253,-0.0013316871673881,0.0013316855491881,-0.0013316839278555,0.0013316888172979,-0.0014257781736621,0.0014257750067441,-0.0014257737984194,0.0014257794903929,-5.4432076095825e-09,5.846544289144e-09,-0.001050385627981,0.0010503860084828,1.8149128954657e-09,-1.4454720150051e-09,-0.0011374601041365,0.0011374578041759,-0.0011374611964201,0.0011374567341793,-0.0011374563230145,0.0011374615643385,-0.0011374574460887,0.0011374604619409,-0.0011262109117394,0.0011262212098973,-0.0011262219185837,0.0011262102303988,0.70079153599453,125803,2834,0.0060340077995768,0.0060340078005776,0.0043685135683309,16.74056417536,-0.00010607548659712,-0.00010607548659712,-0.00010607548659712,2299946.8685737,0.016573066832569
24019200,0.99092639638106,0.016586502625574,0.0059596687399843,0.0059596687402515,0.0046671651453382,-0.0014540335024978,0.0014540333895758,5.7007883221241e-09,-5.8106371921988e-09,2.1285028974034e-09,-2.3001811813379e-09,-0.0015292486794761,0.001529253864295,-0.0015292525026477,0.0015292500081766,-0.0015292500737688,0.0015292523964162,-0.0015292539296685,0.001529248522092,-0.0013330459444831,0.001333055658117,-0.0013330572221009,0.0013330443273459,-2.1110492605412e-09,2.2949274056656e-09,-1.5550263060667e-09,1.677601213054e-09,-0.0014540333836147,0.0014540335086291,-0.0015292524315402,0.0015292500276518,-0.001529251355278,0.0015292511069691,-0.0015292510155776,0.0015292515108602,-0.0015292499647943,0.0015292525647344,-0.0013330515688284,0.001333050007741,-0.001333048425803,0.0013330531771301,-0.0014271544812126,0.0014271513856282,-0.0014271502126345,0.0014271557597632,-5.4507193397326e-09,5.853857693901e-09,-0.0010515171351274,0.0010515175154669,1.814687726793e-09,-1.4452644856988e-09,-0.0011386966250291,0.0011386943140355,-0.0011386977107677,0.0011386932468801,-0.0011386928327777,0.0011386980834811,-0.0011386939595491,0.0011386969773382,-0.0011273963000171,0.0011274065978328,-0.0011274073066762,0.00112739561834,0.70866199302164,125803,2834,0.0060396638468586,0.0060396638472093,0.0043732118853017,17.263466307225,-0.0001018922695422,-0.0001018922695422,-0.0001018922695422,2297016.4744504,0.016589343362377
24219200,0.99113172122161,0.016589779824483,0.005960854437753,0.0059608544380203,0.0046680709487098,-0.0014552158507217,0.0014552157388829,5.750800080358e-09,-5.8595737520441e-09,2.1218003763961e-09,-2.2923167058864e-09,-0.0015304205460413,0.001530425760332,-0.001530424402428,0.0015304218710161,-0.0015304219360041,0.001530424296745,-0.0015304258241856,0.0015304203902731,-0.0013342253995316,0.0013342352145976,-0.0013342367727014,0.0013342237883787,-2.1109430919611e-09,2.2947333187721e-09,-1.5176490445419e-09,1.6401351583129e-09,-0.0014552157324109,0.0014552158573502,-0.001530424300365,0.0015304219217348,-0.0015304232490075,0.0015304229755695,-0.0015304228848859,0.0015304234042022,-0.0015304218582695,0.0015304244338392,-0.0013342310387848,0.0013342295495076,-0.0013342279674181,0.0013342326465975,-0.0014283410666795,0.0014283379452195,-0.0014283367970645,0.0014283423203335,-5.5077485435383e-09,5.9151523465679e-09,-0.0010524580939053,0.0010524584785719,1.7755765491236e-09,-1.4013698730057e-09,-0.001139751543999,0.0011397491708255,-0.0011397526024288,0.0011397481306043,-0.0011397477127409,0.0011397529789515,-0.0011397488116403,0.0011397519010101,-0.0011283846595156,0.0011283951063636,-0.001128395783312,0.0011283840095477,0.68010062059025,125803,2834,0.0060445589468011,0.0060445589471238,0.0043771198438921,17.69150378326,-9.8467969733918e-05,-9.8467969733918e-05,-9.8467969733918e-05,2293587.0928124,0.016603269638753
24419200,0.9913348621215,0.016593018901397,0.0059620266224051,0.0059620266226724,0.0046689656563192,-0.001455900318477,0.0014559002043898,5.800559632179e-09,-5.9115564113036e-09,2.1360973786914e-09,-2.3090114825195e-09,-0.0015311090763493,0.0015311143329596,-0.0015311129671508,0.0015311104094943,-0.0015311104769101,0.0015311128589043,-0.0015311143988304,0.001531108918652,-0.0013348939195182,0.0013349038208175,-0.0013349053915641,0.0013348922958631,-2.1305261495356e-09,2.3178862109139e-09,-1.4559741699678e-09,1.5817496291677e-09,-0.0014559001973997,0.0014559003256315,-0.0015311128373465,0.0015311104878754,-0.0015311118259448,0.0015311115014317,-0.0015311114081655,0.0015311119844431,-0.0015311104207682,0.0015311129741102,-0.0013348995350893,0.0013348981799724,-0.0013348965800845,0.0013349011597673,-0.0014290259287585,0.0014290227280356,-0.0014290216165292,0.0014290271461917,-5.5623611220245e-09,5.9759218171611e-09,-0.0010529652498877,0.0010529656408031,1.7163244173312e-09,-1.335190590991e-09,-0.0011403280485192,0.0011403256015659,-0.0011403290655581,0.0011403246029486,-0.0011403241791607,0.001140329447885,-0.00114032523605,0.0011403284119907,-0.0011289268212724,0.0011289374298702,-0.0011289380589343,0.0011289262194319,0.67934588367537,125803,2834,0.0060473927567589,0.0060473927570978,0.0043792261955711,17.884417188441,-9.6924662492471e-05,-9.6924662492471e-05,-9.6924662492471e-05,2293719.7162837,0.016611173136309
24619200,0.99153570480004,0.016596370259198,0.0059632363154769,0.0059632363157441,0.0046698976279768,-0.0014565720575338,0.0014565719407146,5.8598999826662e-09,-5.9736045063651e-09,2.1528957541596e-09,-2.3287416658347e-09,-0.0015317819611604,0.0015317872671528,-0.0015317858920059,0.0015317833038089,-0.001531783373219,0.0015317857815066,-0.0015317873362334,0.0015317818001616,-0.0013355529038694,0.0013355629109469,-0.0013355644964361,0.0013355512655231,-2.1374176121827e-09,2.3259723798026e-09,-1.3939195502925e-09,1.5208328207667e-09,-0.0014565719345445,0.0014565720639011,-0.0015317857287952,0.0015317834156922,-0.0015317847573388,0.0015317843887398,-0.001531784294126,0.0015317849178249,-0.0015317833477718,0.0015317858658173,-0.0013355585084346,0.0013355572817559,-0.0013355556751778,0.0013355601388978,-0.0014297043779584,0.001429701124134,-0.0014297000527249,0.0014297055558044,-5.6074978259376e-09,6.0264899118699e-09,-0.0010534652905309,0.001053465686943,1.6631594330879e-09,-1.2758958144214e-09,-0.0011408888027314,0.0011408862911782,-0.0011408897818016,0.0011408853306697,-0.0011408849009463,0.0011408901700386,-0.0011408859208204,0.0011408891709509,-0.0011294666980868,0.0011294774415802,-0.0011294780278578,0.0011294661392244,0.70944457032073,125803,2834,0.0060501739413992,0.0060501739418061,0.0043813028636359,18.071266863745,-9.5429865090041e-05,-9.5429865090041e-05,-9.5429865090041e-05,2293672.594218,0.016618939338496
24819200,0.9917342128924,0.016599446033608,0.0059643518298353,0.0059643518301025,0.0046707423736707,-0.0014572632930596,0.0014572631757027,5.9085097110841e-09,-6.0227390184572e-09,2.1564613152341e-09,-2.3328716836655e-09,-0.0015324652328224,0.0015324705737782,-0.0015324691966298,0.0015324665775205,-0.0015324666478778,0.0015324690850019,-0.001532470642885,0.0015324650717707,-0.001336238849253,0.0013362489477004,-0.0013362505362584,0.0013362372079164,-2.1491540867002e-09,2.3394245102741e-09,-1.3407265377946e-09,1.4692457759177e-09,-0.001457263168942,0.0014572632999692,-0.0015324690037837,0.0015324667192852,-0.0015324680671514,0.0015324676567614,-0.0015324675611919,0.0015324682291724,-0.001532466648972,0.001532469142886,-0.0013362444439587,0.0013362433286053,-0.0013362417115715,0.0013362460839274,-0.0014303963626476,0.0014303930495575,-0.0014303920111997,0.0014303975070593,-5.664580805498e-09,6.0888147724765e-09,-0.0010539446138226,0.0010539450155737,1.6100031442444e-09,-1.2167996055669e-09,-0.0011414670807078,0.0011414644976355,-0.0011414680227399,0.0011414635739151,-0.0011414631394519,0.0011414684157637,-0.0011414641215463,0.0011414674546634,-0.0011299818802851,0.0011299927846817,-0.0011299933281488,0.0011299813639162,0.66112226114611,125803,2834,0.0060530353216132,0.0060530353219202,0.004383294941533,18.257872965858,-9.3937016273132e-05,-9.3937016273132e-05,-9.3937016273132e-05,2289861.0242018,0.016626783096207
25019200,0.99193261278393,0.016602484086008,0.0059654544323127,0.00596545443258,0.0046715752211152,-0.001458251040801,0.0014582509260555,5.9671325760782e-09,-6.0787876101523e-09,2.1391814072999e-09,-2.3127915523939e-09,-0.0015334656687176,0.0015334710378663,-0.001533469670586,0.0015334670036657,-0.0015334670711998,0.001533469561828,-0.0015334711047001,0.0015334655100801,-0.0013371953543521,0.0013372055808299,-0.0013372071543518,0.0013371937278788,-2.1279929849221e-09,2.3147028136485e-09,-1.3157422457065e-09,1.4409595964676e-09,-0.0014582509196452,0.0014582510473628,-0.0015334694392449,0.0015334671840822,-0.0015334685199461,0.0015334681040529,-0.0015334680115199,0.0015334686789854,-0.0015334671170485,0.0015334695746154,-0.0013372009960796,0.0013371999152272,-0.0013371983162332,0.0013372026172036,-0.001431382445293,0.0014313791569073,-0.00143137813932,0.0014313835681177,-5.7147009625629e-09,6.1411612486217e-09,-0.0010547678820119,0.0010547682860304,1.5870796440085e-09,-1.1913302992654e-09,-0.0011423342405291,0.0011423316090715,-0.0011423351661365,0.0011423307016958,-0.0011423302648374,0.0011423355616835,-0.001142331230959,0.0011423346164048,-0.0011308434849164,0.0011308545071005,-0.0011308550322336,0.0011308429868435,0.6536253603842,125803,2834,0.0060571255154167,0.0060571255157288,0.0043867116935396,18.629016284839,-9.0967869721289e-05,-9.0967869721289e-05,-9.0967869721289e-05,2294737.2705963,0.016638573297643
25219200,0.99213409871862,0.01660567290634,0.0059666093801123,0.0059666093803797,0.0046724541458477,-0.0014597633543546,0.0014597632466735,6.0230260708644e-09,-6.1276820974593e-09,2.094198115038e-09,-2.2602599117877e-09,-0.0015349927487336,0.0015349981275593,-0.0015349967855507,0.0015349940582805,-0.0015349941191665,0.0015349966838433,-0.0015349981874868,0.0015349925974155,-0.001338671812194,0.0013386821803319,-0.0013386837146574,0.0013386702251386,-2.0855567826131e-09,2.2649715164308e-09,-1.3284241316352e-09,1.4468766256549e-09,-0.0014597632401197,0.0014597633610426,-0.0015349965154194,0.0015349942780546,-0.0015349955899579,0.0015349952039851,-0.0015349951180031,0.0015349957419421,-0.0015349942174137,0.0015349966441037,-0.0013386775524419,0.0013386764156218,-0.0013386748542908,0.0013386791364114,-0.0014328978737611,0.0014328946748415,-0.0014328936578408,0.0014328989953421,-5.7713585500958e-09,6.1969578053105e-09,-0.0010560977748711,0.0010560981780095,1.5943739447388e-09,-1.1995694291428e-09,-0.0011437051385879,0.0011437024740635,-0.0011437060693799,0.0011437015612703,-0.0011437011254649,0.0011437064639633,-0.0011437020967225,0.0011437055137235,-0.0011322244351208,0.0011322355617037,-0.001132236092594,0.001132223930783,0.67454672152848,125803,2834,0.0060633881599635,0.0060633881602401,0.0043922302570991,19.269373853233,-8.5845009174138e-05,-8.5845009174138e-05,-8.5845009174138e-05,2301931.2351837,0.016656917643135
25419200,0.99233855847233,0.016609176810825,0.0059678728763175,0.0059678728765849,0.0046734310579225,-0.0014613345695912,0.0014613344674671,6.0818717614042e-09,-6.1810149639416e-09,2.0597302468313e-09,-2.2198452391341e-09,-0.001536568583265,0.0015365739799913,-0.0015365726572429,0.001536569873408,-0.0015365699287944,0.0015365725614338,-0.0015365740347139,0.0015365684372984,-0.0013402212581621,0.0013402317673943,-0.0013402332712954,0.0013402197012977,-2.0513049982169e-09,2.2247898783274e-09,-1.344477770551e-09,1.4574188125763e-09,-0.0014613344608895,0.0014613345762737,-0.0015365723539294,0.0015365701267467,-0.0015365714194542,0.0015365710616835,-0.0015365709807764,0.0015365715660151,-0.0015365700716405,0.0015365724768085,-0.0013402270966006,0.0013402259042388,-0.0013402243731086,0.0013402286504095,-0.0014344799729258,0.0014344768511996,-0.0014344758308206,0.0014344810975624,-5.8247357421387e-09,6.2486275887752e-09,-0.0010574526525522,0.0010574530539395,1.6085030709897e-09,-1.2155952567201e-09,-0.0011451274827662,0.0011451247913263,-0.0011451284233433,0.0011451238686291,-0.0011451234344408,0.0011451288164556,-0.0011451244159355,0.0011451278559206,-0.0011336391788534,0.0011336503955749,-0.0011336509381622,0.0011336386626217,0.72789188443275,125803,2834,0.0060698942749577,0.0060698942751734,0.0043978536459754,19.916702513073,-8.0666379895415e-05,-8.0666379895415e-05,-8.0666379895415e-05,2305490.6696786,0.016675864115226
25619200,0.99254577743707,0.016612750443566,0.0059691617682775,0.005969161768545,0.0046744269067436,-0.0014629737256936,0.0014629736274447,6.138209977428e-09,-6.2335130332204e-09,2.0352295833686e-09,-2.1912142809078e-09,-0.001538189529145,0.0015381949483643,-0.001538193639412,0.0015381908055437,-0.0015381908572125,0.0015381935475636,-0.0015381949994299,0.0015381893871668,-0.0013418625026183,0.0013418731396325,-0.0013418746220852,0.0013418609673076,-2.0262992532428e-09,2.1956800460096e-09,-1.3627152701096e-09,1.4718746754853e-09,-0.0014629736208691,0.0014629737324028,-0.0015381933094863,0.0015381910855496,-0.0015381923643151,0.0015381920315238,-0.0015381919542283,0.0015381925068458,-0.0015381910342763,0.0015381934285238,-0.0013418684318056,0.0013418671856427,-0.0013418656763587,0.0013418699642129,-0.0014361327576969,0.0014361296958532,-0.0014361286684576,0.0014361338889906,-5.8798255395752e-09,6.3019559715121e-09,-0.0010587934159721,0.001058793815591,1.6237304692811e-09,-1.2327962019066e-09,-0.0011466038799167,0.0011466011614168,-0.0011466048313588,0.0011466002279998,-0.0011465997955069,0.0011466052227663,-0.0011466007877577,0.001146604251377,-0.0011350475250707,0.0011350588356037,-0.0011350593906226,0.0011350469962437,0.73243472206729,125803,2834,0.0060766806605392,0.0060766806608145,0.0044034212208845,20.564300967746,-7.5485592258031e-05,-7.5485592258031e-05,-7.5485592258031e-05,2301544.4452518,0.016695324636481
25819200,0.99275039165194,0.01661618571281,0.0059704032808896,0.0059704032811571,0.0046753791507631,-0.0014638139929758,0.0014638138822094,6.1765788671083e-09,-6.2845357993923e-09,2.1084896819111e-09,-2.277857168733e-09,-0.0015390153784467,0.0015390208659839,-0.0015390195162859,0.0015390166944323,-0.001539016756226,0.0015390194109719,-0.0015390209281185,0.0015390152222229,-0.0013427054796417,0.0013427161415548,-0.0013427176914029,0.0013427038786734,-2.0206896914935e-09,2.1847814461672e-09,-1.3470036526308e-09,1.450878460806e-09,-0.0014638138839225,0.0014638139910798,-0.0015390191862132,0.0015390169751434,-0.0015390182507256,0.0015390179080659,-0.0015390178335482,0.0015390183901481,-0.0015390169276532,0.0015390193014242,-0.0013427114061246,0.0013427101874008,-0.0013427086899567,0.0013427129274732,-0.0014369783149806,0.001436975256332,-0.0014369742429924,0.0014369794268026,-5.9431762901773e-09,6.3664089518707e-09,-0.001059367125781,0.0010593675264893,1.6165184243541e-09,-1.224194731501e-09,-0.0011473089225178,0.0011473061552147,-0.001147309864805,0.0011473052248782,-0.0011473047918395,0.0011473102586311,-0.0011473057798533,0.0011473092930481,-0.0011356696680438,0.0011356811070977,-0.0011356816552548,0.0011356691450631,0.71386316486473,125803,2834,0.0060801586315243,0.0060801586311446,0.0044058061089305,20.804389856181,-7.3564881150552e-05,-7.3564881150552e-05,-7.3564881150552e-05,2295979.3011875,0.016704822312437
26019200,0.99294786824335,0.016619370376968,0.005971557269116,0.0059715572693836,0.0046762558384683,-0.0014638931793289,0.0014638930664756,6.2563415783534e-09,-6.366105481965e-09,2.1286691503833e-09,-2.3002985575169e-09,-0.0015390905244308,0.00153909608037,-0.0015390947185101,0.0015390918534729,-0.0015390919192491,0.0015390946112876,-0.0015390961448181,0.0015390903677439,-0.0013427786812456,0.0013427894819993,-0.0013427910456116,0.0013427770646188,-2.1371598736446e-09,2.3246303195338e-09,-1.303710736827e-09,1.4296370987996e-09,-0.0014638930587105,0.0014638931871958,-0.0015390943871791,0.0015390921344909,-0.0015390934751791,0.0015390930459923,-0.0015390929529936,0.0015390936349867,-0.0015390920662585,0.0015390945236279,-0.0013427845948388,0.001342783543832,-0.0013427819374921,0.001342786223556,-0.0014370563772915,0.0014370530626585,-0.0014370520526165,0.0014370574936348,-5.9694892233991e-09,6.3958449749734e-09,-0.0010592506701455,0.0010592510740498,1.5792658573246e-09,-1.1835069619045e-09,-0.0011472836111375,0.0011472808045248,-0.0011472845311915,0.0011472799015456,-0.0011472794652794,0.0011472849264654,-0.0011472804262123,0.0011472839869312,-0.0011355816740269,0.0011355932001047,-0.0011355937200109,0.0011355811804469,0.68688289078063,125803,2834,0.0060804853621935,0.0060804853624033,0.0044053260629085,20.676009958615,-7.4591920331084e-05,-7.4591920331084e-05,-7.4591920331084e-05,2291691.0835437,0.016704999190039
26219200,0.99313838297829,0.0166226231719,0.0059727318492849,0.0059727318495525,0.0046771594730627,-0.0014639140128929,0.0014639138889988,6.284265354066e-09,-6.4050106002639e-09,2.1976746823705e-09,-2.3810908236627e-09,-0.0015391142342858,0.0015391198503649,-0.0015391184500824,0.0015391156020735,-0.0015391156780702,0.0015391183320388,-0.0015391199260051,0.0015391140660859,-0.0013427862028236,0.0013427970090888,-0.0013427986337992,0.0013427845254627,-2.1746913478486e-09,2.3685814757793e-09,-1.2749502352509e-09,1.4067582929483e-09,-0.0014639138837432,0.0014639140182399,-0.0015391181291654,0.001539115872063,-0.0015391172339675,0.0015391167668769,-0.0015391166677163,0.0015391174003649,-0.0015391157983785,0.0015391182712504,-0.0013427920773012,0.0013427911104429,-0.0013427894714413,0.0013427937381477,-0.0014370828312075,0.0014370794266767,-0.0014370784272658,0.0014370839362558,-6.0434835415861e-09,6.4724599662027e-09,-0.0010591258826296,0.0010591262892113,1.5522160562142e-09,-1.1534676972516e-09,-0.00114720356623,0.001147200692735,-0.0011472044671514,0.0011471998094967,-0.0011471993700355,0.0011472048653402,-0.0011472003122125,0.0011472039442534,-0.0011354873483359,0.0011354990426777,-0.0011354995411343,0.0011354868771169,0.72524658600039,125803,2834,0.0060805710785034,0.0060805710786913,0.004404809826055,20.538023105147,-7.5695815158824e-05,-7.5695815158824e-05,-7.5695815158824e-05,2291014.7673902,0.016704648655946
26419200,0.99332221672333,0.016625851056156,0.0059738958186008,0.0059738958188684,0.0046780594186869,-0.0014639703372593,0.0014639702083791,6.3438425186715e-09,-6.469511183933e-09,2.2300374026528e-09,-2.4187894761124e-09,-0.0015391568056599,0.0015391624818119,-0.0015391610632425,0.0015391581918261,-0.0015391582728049,0.0015391609399322,-0.0015391625620836,0.0015391566326268,-0.001342848343362,0.0013428592425525,-0.0013428608953308,0.0013428466379666,-2.2220905702466e-09,2.4239743222262e-09,-1.2503596410753e-09,1.3895950211715e-09,-0.0014639702018843,0.0014639703438515,-0.0015391607367407,0.001539158467053,-0.0015391598555803,0.0015391593477758,-0.0015391592417463,0.0015391600294678,-0.001539158385923,0.0015391608865234,-0.0013428542234792,0.001342853338532,-0.0013428516578304,0.001342855925748,-0.0014371492251606,0.0014371457127401,-0.0014371447199444,0.0014371503244417,-6.089148066343e-09,6.5198392405631e-09,-0.0010589931381923,0.0010589935465168,1.5323132376434e-09,-1.1315981923536e-09,-0.001147156009776,0.0011471530931674,-0.0011471568969731,0.0011471522236488,-0.0011471517826141,0.0011471572966164,-0.0011471527108018,0.0011471563897577,-0.0011353887203901,0.0011354005219564,-0.0011354010048429,0.0011353882648883,0.74502753021994,125803,2834,0.0060808031655652,0.0060808031657657,0.0044042622759408,20.399649339894,-7.680280528085e-05,-7.680280528085e-05,-7.680280528085e-05,2285002.2331951,0.016704564246238
26619200,0.99350367262244,0.016629008321486,0.0059750351837246,0.0059750351839922,0.0046789379537692,-0.0014647537508555,0.0014647536255397,6.3858220438729e-09,-6.5079690356015e-09,2.2074468735427e-09,-2.3923981687605e-09,-0.0015399168059184,0.0015399224966973,-0.001539921090702,0.0015399181793104,-0.0015399182575285,0.0015399209702595,-0.0015399225727404,0.0015399166372058,-0.0013436415474507,0.0013436525432802,-0.0013436541761736,0.0013436398619266,-2.197189977825e-09,2.3943306531107e-09,-1.2756987921128e-09,1.4106126417227e-09,-0.0014647536194137,0.0014647537570651,-0.0015399207447949,0.0015399184743303,-0.0015399198488026,0.0015399193696447,-0.0015399192682526,0.0015399200175813,-0.0015399183966097,0.0015399208911616,-0.0013436475106632,0.0013436465560157,-0.0013436448977214,0.0013436491908998,-0.0014379448467519,0.0014379413964523,-0.0014379403925509,0.0014379459561455,-6.1585828352925e-09,6.5874778190156e-09,-0.001059522951937,0.0010595233584308,1.547501978954e-09,-1.1487863734448e-09,-0.0011478037359898,0.0011478007831657,-0.0011478046345505,0.0011477999021179,-0.0011477994636855,0.0011478050317376,-0.0011478004018127,0.0011478041148323,-0.0011359690692317,0.0011359809943985,-0.001135981489603,0.0011359686008463,0.73848437579652,125803,2834,0.006084045862767,0.0060840458629388,0.0044064647421508,20.629361826333,-7.4965105389337e-05,-7.4965105389337e-05,-7.4965105389337e-05,2279398.9960307,0.016713397812582
26819200,0.99368494384427,0.016632085666831,0.0059761476098488,0.0059761476101164,0.004679790446866,-0.0014659210839587,0.0014659209680711,6.5537788163794e-09,-6.6662497369406e-09,2.1541704475127e-09,-2.3290574130712e-09,-0.0015410674723139,0.0015410732392561,-0.0015410718619473,0.0015410688185881,-0.0015410688837223,0.0015410717606339,-0.0015410733163014,0.001541067308435,-0.0013448085176194,0.0013448198986039,-0.0013448214804332,0.0013448068803577,-2.1439790699111e-09,2.3382175278434e-09,-1.2886773962121e-09,1.4219537593034e-09,-0.0014659209590879,0.0014659210935217,-0.0015410714407314,0.0015410691893408,-0.0015410705325505,0.0015410701013799,-0.0015410699971553,0.0015410707038272,-0.0015410691227767,0.0015410715752034,-0.0013448146964996,0.0013448136983342,-0.0013448120776114,0.001344816338723,-0.0014391194470699,0.0014391161210667,-0.0014391151190237,0.0014391205629277,-6.1080680881654e-09,6.5287217292091e-09,-0.0010604211864926,0.0010604215847775,1.6112005551937e-09,-1.2216990418373e-09,-0.0011488213793634,0.0011488184962965,-0.0011488223230009,0.0011488175820568,-0.0011488171423043,0.0011488227171164,-0.0011488181321604,0.0011488217459035,-0.0011369214199894,0.0011369331675735,-0.0011369337175613,0.0011369208990829,0.72121902721049,125803,2834,0.0060888785021521,0.0060888785033515,0.0044101954490877,21.063528768637,-7.1491769850901e-05,-7.1491769850901e-05,-7.1491769850901e-05,2277338.6244791,0.016727018365013
27019200,0.99386593551022,0.016635073891576,0.0059772298942307,0.0059772298944981,0.0046806141028473,-0.0014670736107849,0.0014670735009778,6.4913200973916e-09,-6.5980782879433e-09,2.1094762193024e-09,-2.2778055361927e-09,-0.0015422151420207,0.0015422208422316,-0.0015422194911435,0.001542216460082,-0.001542216524,0.0015422193862817,-0.0015422209028613,0.0015422149892578,-0.0013459478727463,0.0013459591438063,-0.0013459606908375,0.0013459462726119,-2.097241545181e-09,2.2780489875353e-09,-1.3645537121395e-09,1.4842935493693e-09,-0.0014670734948083,0.0014670736170869,-0.001542219084605,0.0015422168166408,-0.0015422181350339,0.001542217765909,-0.0015422176796312,0.001542218287418,-0.001542216753746,0.0015422192157708,-0.0013459540970029,0.0013459528949234,-0.0013459513239789,0.0013459556910421,-0.0014402737483275,0.0014402705483299,-0.0014402695055332,0.0014402748965684,-6.2825662873009e-09,6.7033676982476e-09,-0.0010613276608763,0.0010613280591477,1.6215861735342e-09,-1.2319855070055e-09,-0.0011498274313517,0.0011498244438054,-0.0011498283828774,0.0011498235100043,-0.0011498230800945,0.0011498287718208,-0.001149824070239,0.0011498278024606,-0.0011378765361119,0.0011378886368456,-0.0011378891926932,0.0011378760067357,0.7022850334401,125803,2834,0.0060936501291066,0.0060936501293786,0.0044139593789415,21.503077808486,-6.7975377532108e-05,-6.7975377532108e-05,-6.7975377532108e-05,2278538.079759,0.016740548711596
27219200,0.99404649126424,0.016637964089412,0.005978278848144,0.0059782788484116,0.0046814063928564,-0.001468198505605,0.0014681984023381,6.62568546621e-09,-6.7259502694832e-09,2.0681892808842e-09,-2.2295288675412e-09,-0.0015433459701497,0.0015433517319819,-0.001543350404118,0.0015433472652167,-0.0015433473188312,0.0015433503103761,-0.0015433517908789,0.0015433458200114,-0.0013470463856083,0.0013470579627336,-0.0013470594733421,0.0013470448216486,-2.0589971098164e-09,2.2336817803892e-09,-1.3875357184012e-09,1.5016856785443e-09,-0.0014681983957694,0.0014681985123189,-0.0015433499413523,0.001543347677927,-0.0015433489750822,0.0015433486450795,-0.0015433485598189,0.0015433491256884,-0.0015433476249184,0.0015433500625448,-0.0013470527928124,0.0013470515304108,-0.0013470499927757,0.001347054353971,-0.001441396988239,0.0014413938884673,-0.001441392838537,0.0014413981430188,-6.2624973703683e-09,6.6778909097813e-09,-0.001062237247718,0.0010622376405403,1.6729149153771e-09,-1.289355243995e-09,-0.0011508107855435,0.0011508078395005,-0.0011508117693323,0.0011508068740761,-0.0011508064451708,0.0011508121569477,-0.0011508074756631,0.0011508111473277,-0.0011388308907927,0.0011388428930154,-0.0011388434900422,0.0011388303199652,0.68191770184742,125803,2834,0.0060983076982617,0.0060983076985608,0.0044177351450836,21.942844063395,-6.4457247492837e-05,-6.4457247492837e-05,-6.4457247492837e-05,2282471.7125469,0.016753859183867
27419200,0.99422503793493,0.016640910770554,0.0059793462919468,0.0059793462922143,0.0046822181863927,-0.0014690456869624,0.0014690455846992,6.6388794182027e-09,-6.7381306743802e-09,2.0623627190581e-09,-2.2226337902987e-09,-0.0015442088396829,0.0015442146082408,-0.0015442132835558,0.001544210131519,-0.0015442101864321,0.0015442131886049,-0.0015442146640493,0.0015442086928766,-0.0013478598465338,0.0013478714468118,-0.0013478729522258,0.0013478582879879,-2.0526400334913e-09,2.226252478323e-09,-1.4160818523425e-09,1.5292649768944e-09,-0.0014690455781342,0.0014690456936733,-0.0015442128207853,0.0015442105443905,-0.0015442118379732,0.0015442115280975,-0.0015442114458764,0.0015442119851262,-0.0015442104902941,0.0015442129433238,-0.0013478662987204,0.0013478649691379,-0.0013478634373366,0.0013478678546204,-0.0014422439948119,0.0014422409195853,-0.0014422398518883,0.0014422451671419,-6.3591026429556e-09,6.7738536431857e-09,-0.0010629188937204,0.0010629192858956,1.6808528523822e-09,-1.2980613919859e-09,-0.0011515319862631,0.0011515289837404,-0.0011515329780097,0.001151528010573,-0.0011515275844182,0.0011515333627694,-0.0011515286183481,0.0011515323496992,-0.0011395522253481,0.0011395644166261,-0.0011395650199009,0.0011395516481806,0.70214876009872,125803,2834,0.0061018156629769,0.0061018156632774,0.0044205640186303,22.251411919966,-6.198870464027e-05,-6.198870464027e-05,-6.198870464027e-05,2287869.1986381,0.016763869045194
27619200,0.99440104980223,0.016643859915677,0.0059804137594596,0.0059804137597271,0.0046830323964901,-0.0014698337084876,0.001469833604619,6.6731289899017e-09,-6.7740014115538e-09,2.0726354927614e-09,-2.2346287757425e-09,-0.001545003146078,0.0015450089449905,-0.0015450076145996,0.001545004443754,-0.0015450045011603,0.0015450075170683,-0.0015450090014618,0.0015450029986746,-0.0013486249093064,0.0013486365667261,-0.0013486380814559,0.0013486233418525,-2.0648982107771e-09,2.2404342600848e-09,-1.4264997322511e-09,1.5414089255963e-09,-0.0014698335979221,0.0014698337153026,-0.0015450071489067,0.0015450048591706,-0.0015450061598512,0.0015450058495616,-0.0015450057663368,0.0015450063079114,-0.0015450048023766,0.0015450072744724,-0.0013486313972417,0.0013486300530372,-0.0013486285111073,0.0013486329634933,-0.0014430356439989,0.0014430325498708,-0.0014430314720856,0.0014430368252003,-6.4327987395496e-09,6.8474417214145e-09,-0.0010635238583721,0.0010635242504293,1.6837954922587e-09,-1.3011402120937e-09,-0.0011521956658045,0.0011521926169769,-0.0011521966604594,0.0011521916408038,-0.0011521912156824,0.0011521970441186,-0.0011521922507976,0.0011521960301361,-0.0011401993084091,0.0011402116444576,-0.0011402122498094,0.0011401987294707,0.71252804746084,125803,2834,0.0061050782927734,0.0061050782930166,0.0044230757204454,22.518523513482,-5.9851811892144e-05,-5.9851811892144e-05,-5.9851811892144e-05,2289600.2258998,0.016773057778492
27819200,0.99457445704367,0.016646813412347,0.0059814819005927,0.0059814819008602,0.0046838496108944,-0.0014706284692357,0.0014706283623861,6.7568764612387e-09,-6.8606884024434e-09,2.0916908301045e-09,-2.2568711610764e-09,-0.0015457990549255,0.0015458049202122,-0.0015458035790401,0.0015458003632753,-0.0015458004220422,0.0015458034798826,-0.0015458049808413,0.0015457989028994,-0.0013494026641545,0.0013494144761068,-0.0013494160072452,0.0013494010799003,-2.0795687774249e-09,2.2575393345071e-09,-1.4203564234557e-09,1.5375148888947e-09,-0.0014706283560732,0.0014706284756835,-0.001545803094073,0.0015458007978744,-0.0015458021068679,0.0015458017862464,-0.0015458016995594,0.0015458022586613,-0.0015458007403669,0.0015458032203271,-0.0013494092159713,0.001349407898767,-0.0013494063438449,0.0013494107951146,-0.0014438361598181,0.0014438330374314,-0.0014438319613004,0.0014438373406005,-6.4565942407547e-09,6.8704765920091e-09,-0.0010641273909054,0.0010641277821956,1.691471424551e-09,-1.309678083706e-09,-0.0011528676935456,0.0011528646321715,-0.0011528686920885,0.0011528636519965,-0.0011528632262545,0.0011528690764514,-0.0011528642680722,0.0011528680555883,-0.0011408474715546,0.0011408598428887,-0.0011408604545091,0.0011408468863414,0.72383354055951,125803,2834,0.0061083686411922,0.0061083686414702,0.0044255819791104,22.784520813629,-5.7723833490966e-05,-5.7723833490966e-05,-5.7723833490966e-05,2289599.3167876,0.016782297487258
28019200,0.99474520413973,0.016649773133187,0.0059825513840147,0.0059825513842822,0.0046846703648905,-0.0014714320041165,0.001471431894843,6.7762624340694e-09,-6.8824701412027e-09,2.1072701182267e-09,-2.2750537715513e-09,-0.0015465986741749,0.0015466045632688,-0.0015466032133122,0.001546599991308,-0.0015466000539741,0.0015466031100521,-0.0015466046246282,0.0015465985212947,-0.0013501949372644,0.0013502067713195,-0.0013502083160781,0.0013501933395325,-2.0992153347654e-09,2.2804710989107e-09,-1.4247789813805e-09,1.5449760654866e-09,-0.001471431888201,0.0014714320108847,-0.0015466027318893,0.0015466004222183,-0.0015466017422685,0.0015466014129721,-0.0015466013249059,0.0015466018955625,-0.0015466003601943,0.0015466028629249,-0.0013502014997103,0.0013502001833538,-0.0013501986113095,0.0013502030960992,-0.0014446465716827,0.001444643410002,-0.0014446423267349,0.0014446477597501,-6.5443789040268e-09,6.9591766792235e-09,-0.0010647312799219,0.0010647316721333,1.684493334918e-09,-1.3017055097865e-09,-0.0011535506747909,0.0011535475521187,-0.0011535516699299,0.0011535465752892,-0.0011535461502249,0.0011535520535942,-0.0011535471854973,0.001153551039352,-0.0011414989235892,0.0011415114781692,-0.0011415120839395,0.0011414983443111,0.73612507345983,125803,2834,0.0061116951212283,0.0061116951214883,0.0044280902486033,23.050472908544,-5.5596216731647e-05,-5.5596216731647e-05,-5.5596216731647e-05,2287886.5816582,0.01679161287489
28219200,0.99491257981759,0.016652729428999,0.005983618717697,0.0059836187179646,0.0046854919933372,-0.0014721166480531,0.001472116535234,6.8428060995002e-09,-6.9525324802581e-09,2.1299227836151e-09,-2.3014940674066e-09,-0.0015472748290483,0.0015472807762183,-0.0015472794135349,0.0015472761589665,-0.0015472762243562,0.001547279307341,-0.0015472808416411,0.0015472746718792,-0.0013508745697401,0.0013508865199453,-0.0013508880844981,0.0013508729521209,-2.120212400143e-09,2.3050043508181e-09,-1.4095187096448e-09,1.532974857538e-09,-0.0014721165287228,0.0014721166546958,-0.0015472789173979,0.0015472766043249,-0.0015472779362559,0.0015472775866407,-0.0015472774948281,0.0015472780936248,-0.0015472765397571,0.0015472790510152,-0.0013508811668732,0.0013508798975166,-0.0013508783070126,0.0013508827813741,-0.0014453391220778,0.0014453359118764,-0.001445334834534,0.001445340304673,-6.5842366431127e-09,6.9998868441442e-09,-0.0010652069791605,0.0010652073722359,1.6768977599833e-09,-1.2931489223204e-09,-0.0011541163654313,0.001154113210503,-0.0011541173545136,0.0011541122397521,-0.0011541118131674,0.0011541177396515,-0.0011541128436903,0.0011541167301676,-0.0011420214035601,0.0011420340411755,-0.0011420346407458,0.0011420208306547,0.74948914815705,125803,2834,0.0061145290695722,0.0061145290698433,0.0044300671566673,23.250445952779,-5.3996432377766e-05,-5.3996432377766e-05,-5.3996432377766e-05,2284645.7627491,0.016799386516089
28419200,0.99507649129595,0.01665568322769,0.0059846842335232,0.0059846842337908,0.0046863147603764,-0.0014727913842247,0.0014727912689388,6.8920641893464e-09,-7.0042364383259e-09,2.1458872002073e-09,-2.3201013735544e-09,-0.0015479353024368,0.0015479412922988,-0.0015479399205944,0.0015479366413759,-0.0015479367092765,0.0015479398116725,-0.0015479413598791,0.0015479351429332,-0.0013515506994706,0.0013515627341392,-0.0013515643125708,0.0013515490679823,-2.1368728829414e-09,2.3243393520872e-09,-1.3951373286091e-09,1.5210713802031e-09,-0.0014727912624042,0.0014727913908881,-0.0015479394123929,0.0015479370987514,-0.0015479384399896,0.001547938072075,-0.0015479379780898,0.0015479385998099,-0.00154793703151,0.0015479395487075,-0.0013515573190848,0.0013515560894244,-0.0013515544843316,0.0013515589478928,-0.0014460235601204,0.0014460203078736,-0.0014460192367634,0.0014460247366794,-6.6417440592878e-09,7.0588905947378e-09,-0.0010656575446171,0.0010656579392079,1.6630551648578e-09,-1.2776258961118e-09,-0.0011546692474234,0.001154666045552,-0.001154670226871,0.0011546650843549,-0.0011546646564771,0.0011546706133069,-0.0011546656770471,0.0011546696138041,-0.0011425209307798,0.0011425336941938,-0.0011425342825271,0.0011425203691423,0.76402414354606,125803,2834,0.0061173217855868,0.0061173217858521,0.0044319403119442,23.441094832666,-5.247124133867e-05,-5.247124133867e-05,-5.247124133867e-05,2280145.3744044,0.016806970921216
28619200,0.99523694339805,0.016658594273515,0.0059857342737066,0.0059857342739742,0.0046871257258341,-0.0014734723607757,0.0014734722437238,6.9464769438388e-09,-7.060397289121e-09,2.1576451271283e-09,-2.3337466742881e-09,-0.0015485970239618,0.0015486030573682,-0.0015486016790158,0.0015485983695973,-0.0015485984391408,0.001548601568337,-0.00154860312671,0.0015485968626278,-0.0013522383912132,0.001352250524188,-0.0013522521128298,0.0013522367495841,-2.1485526444857e-09,2.3378974033963e-09,-1.3798836648886e-09,1.5075547231241e-09,-0.0014734722371911,0.0014734723674327,-0.0015486011542388,0.0015485988434807,-0.0015486001912871,0.0015485998072478,-0.0015485997115838,0.0015486003530123,-0.0015485987745283,0.0015486012922341,-0.0013522450407902,0.0013522438495585,-0.0013522422343268,0.0013522466796071,-0.0014467142383912,0.0014467109537093,-0.0014467098904062,0.0014467154072071,-6.6944762078848e-09,7.1129799753443e-09,-0.0010660959061037,0.0010660963020747,1.6498340496177e-09,-1.2628689406922e-09,-0.0011552245897718,0.001155221344276,-0.0011552255598603,0.001155220392446,-0.0011552199631528,0.0011552259476772,-0.0011552209744684,0.0011552249574653,-0.001143009239849,0.0011430221183484,-0.0011430226960169,0.0011430086889721,0.76896077218927,125803,2834,0.0061201401221515,0.0061201401224074,0.0044337633628623,23.631479179757,-5.094816656194e-05,-5.094816656194e-05,-5.094816656194e-05,2274625.3178793,0.016814556632293
28819200,0.99539396619715,0.016661369143466,0.0059867370072936,0.0059867370075612,0.0046878951286109,-0.0014741489184042,0.0014741488007284,7.0036950209246e-09,-7.1182351699194e-09,2.1620292459024e-09,-2.3388002079061e-09,-0.0015492548557352,0.0015492609299274,-0.0015492595490655,0.0015492562039135,-0.0015492562739188,0.0015492594378744,-0.0015492610000076,0.0015492546936517,-0.001352920190103,0.0013529324323626,-0.0013529340247585,0.0013529185447075,-2.1517438644078e-09,2.3415461657975e-09,-1.3658854222187e-09,1.4939822076411e-09,-0.0014741487942952,0.0014741489249638,-0.0015492590028431,0.0015492566992704,-0.00154925804884,0.0015492576539467,-0.0015492575578074,0.0015492582111906,-0.0015492566299712,0.0015492591410788,-0.0013529268793647,0.0013529257182108,-0.0013529241001941,0.0013529285207645,-0.0014473971262497,0.0014473938264452,-0.001447392771951,0.0014473982863813,-6.7450665889522e-09,7.1647249533355e-09,-0.0010665248268575,0.0010665252239999,1.6380797522549e-09,-1.2498056505517e-09,-0.0011557741740668,0.0011557708872544,-0.0011557751357802,0.0011557699438109,-0.0011557695132447,0.0011557755248566,-0.0011557705164215,0.0011557745427789,-0.0011434855535413,0.0011434985412506,-0.0011434991095124,0.0011434850120868,0.7497843262848,125803,2834,0.0061229401206356,0.0061229401208959,0.0044355472551914,23.824070167222,-4.9407438662222e-05,-4.9407438662222e-05,-4.9407438662222e-05,2269609.552664,0.016822065333299
29019200,0.99554869020244,0.0166639569778,0.0059876754407273,0.0059876754409949,0.0046886060960781,-0.0014750279128142,0.0014750277939999,7.1000416915412e-09,-7.2158027494144e-09,2.1668405966248e-09,-2.3447585102958e-09,-0.0015501255334346,0.0015501316713028,-0.0015501302879905,0.0015501268835822,-0.0015501269505102,0.0015501301781647,-0.0015501317445532,0.001550125365849,-0.0013537893327827,0.0013538017695933,-0.0013538033671823,0.0013537876816213,-2.1174650073093e-09,2.300031948676e-09,-1.3528924098551e-09,1.4738667533493e-09,-0.0014750277915373,0.0014750279153562,-0.0015501296991815,0.0015501274214948,-0.001550128752394,0.0015501283678762,-0.0015501282751359,0.0015501289113505,-0.0015501273617452,0.0015501298270584,-0.0013537961143406,0.0013537949635196,-0.001353793377329,0.001353797723537,-0.0014482770848245,0.0014482738536167,-0.0014482728156117,0.0014482782280203,-6.7573792412125e-09,7.1757032787787e-09,-0.0010671774655654,0.001067177861326,1.6505774874246e-09,-1.2638180604289e-09,-0.0011565248513597,0.0011565215608737,-0.0011565258169295,0.001156520610216,-0.0011565201786005,0.0011565262086828,-0.0011565211937743,0.001156525214187,-0.0011441848047923,0.0011441977942881,-0.0011441983733693,0.0011441842525625,0.71130251525134,125803,2834,0.0061265787832145,0.0061265787833767,0.0044382582327026,24.139624725811,-4.6883002193512e-05,-4.6883002193512e-05,-4.6883002193512e-05,2268482.2392214,0.016832222184946
29219200,0.99570107076389,0.016666445086604,0.0059885790805099,0.0059885790807777,0.0046892869253162,-0.0014758633679764,0.0014758632536385,7.1357711041498e-09,-7.2470212418874e-09,2.1399043035689e-09,-2.3130883457976e-09,-0.00155097164896,0.0015509777952403,-0.0015509764268682,0.0015509729845312,-0.0015509730495992,0.0015509763206889,-0.0015509778637054,0.0015509714884991,-0.0013545941760802,0.00135460669759,-0.0013546082707797,0.0013545925498411,-2.1127295489743e-09,2.2959195069208e-09,-1.3598463589562e-09,1.4817621477423e-09,-0.0014758632486263,0.0014758633731037,-0.0015509758192372,0.0015509735417584,-0.0015509748692023,0.0015509744920961,-0.0015509744002336,0.0015509750269731,-0.0015509734800042,0.0015509759494497,-0.0013546010105875,0.0013545998380428,-0.0013545982541892,0.0013546026179092,-0.0014491090480945,0.0014491058245193,-0.0014491047819121,0.0014491101958416,-6.8324150487715e-09,7.2515429153416e-09,-0.0010678449613068,0.0010678453579259,1.6426123881426e-09,-1.2549185745576e-09,-0.0011572414651205,0.0011572381213371,-0.0011572424280725,0.0011572371760937,-0.0011572367444428,0.0011572428184414,-0.0011572377526583,0.0011572418314079,-0.0011448919433813,0.0011449050927826,-0.001144905665045,0.0011448913979651,0.69516965307863,125803,2834,0.0061300379205947,0.0061300379208317,0.0044410287666567,24.45834519553,-4.4333238435758e-05,-4.4333238435758e-05,-4.4333238435758e-05,2272686.1207495,0.016842074250246
29419200,0.99585103662868,0.016668729740297,0.0059894126082888,0.0059894126085566,0.0046899045234515,-0.0014766706415449,0.0014766705302568,7.1739449454946e-09,-7.2821726268602e-09,2.1203578169948e-09,-2.2902831042468e-09,-0.001551799508664,0.0015518056697488,-0.0015518043124292,0.0015518008332051,-0.001551800896602,0.0015518042080385,-0.0015518057339659,0.0015517993525998,-0.001355358911261,0.0013553715179452,-0.0013553730741234,0.0013553573021223,-2.1039153625357e-09,2.2856410526525e-09,-1.3653982135074e-09,1.4859600502089e-09,-0.0014766705244048,0.0014766706475196,-0.0015518036848488,0.0015518014104216,-0.0015518027329478,0.0015518023626816,-0.0015518022734066,0.0015518028880356,-0.0015518013486978,0.0015518038150056,-0.0013553657988459,0.001355364605314,-0.001355363029178,0.0013553673986087,-0.0014499079813877,0.0014499047746702,-0.0014499037301344,0.0014499091308606,-6.9042197620632e-09,7.3238919086589e-09,-0.0010685145688671,0.0010685149660245,1.6378504611493e-09,-1.2495554331139e-09,-0.001157938521224,0.0011579351276679,-0.0011579394820768,0.001157934184536,-0.0011579337537124,0.0011579398716988,-0.0011579347571574,0.0011579388893698,-0.0011455948275556,0.0011456081257561,-0.0011456086939065,0.0011455942859709,0.65089855970542,125803,2834,0.0061333806906648,0.0061333806909174,0.0044438071358238,24.777193249174,-4.1782454006608e-05,-4.1782454006608e-05,-4.1782454006608e-05,2278745.7462915,0.016851697671979
29619200,0.99599843876528,0.01667094235294,0.0059902204289454,0.0059902204292132,0.0046905014947811,-0.0014774057194876,0.0014774056095752,7.232407823729e-09,-7.3392645538587e-09,2.1113410003935e-09,-2.2797935248139e-09,-0.0015525747726317,0.0015525809669431,-0.0015525796147473,0.0015525760920723,-0.001552576153951,0.0015525795119786,-0.0015525810300923,0.0015525746177844,-0.0013560306277474,0.0013560433561301,-0.0013560449045101,0.0013560290265827,-2.0954176322532e-09,2.2757219765868e-09,-1.3654492497542e-09,1.4846905725163e-09,-0.0014774056036877,0.0014774057254858,-0.0015525789629731,0.0015525766935562,-0.0015525780112899,0.0015525776456443,-0.0015525775573811,0.0015525781652613,-0.0015525766332981,0.0015525790916124,-0.001356037578896,0.0013560363796886,-0.0013560348110893,0.0013560391713103,-0.00145063301945,0.0014506298296726,-0.0014506287867061,0.0014506341668261,-6.9551619640101e-09,7.3748129761729e-09,-0.0010691824608953,0.0010691828580407,1.6380155169525e-09,-1.2497385493093e-09,-0.0011585760619941,0.0011585726343109,-0.0011585770227587,0.0011585716913182,-0.001158571260276,0.0011585774125821,-0.0011585722640364,0.0011585764299487,-0.0011462903238333,0.0011463037210326,-0.0011463042891994,0.0011462897821752,0.6419138470304,125803,2834,0.0061364253628856,0.0061364253631136,0.0044465760995338,25.086834866771,-3.9305321065834e-05,-3.9305321065834e-05,-3.9305321065834e-05,2290041.9168496,0.016860704940985
29819200,0.9961427331705,0.01667323709131,0.0059910547462744,0.0059910547465422,0.0046911275984937,-0.0014780248281645,0.0014780247169577,7.2822417591012e-09,-7.3905223360275e-09,2.1168255841373e-09,-2.2865999540586e-09,-0.0015532360795734,0.0015532423101864,-0.0015532409556696,0.0015532374010486,-0.0015532374642175,0.001553240849728,-0.0015532423728153,0.0015532359236733,-0.001356587285352,0.0013566001049121,-0.0013566016595552,0.0013565856777249,-2.0940873724212e-09,2.2725101449563e-09,-1.3613103343932e-09,1.4782028109703e-09,-0.0014780247125441,0.0014780248325762,-0.0015532402859634,0.0015532380202919,-0.0015532393380171,0.0015532389675361,-0.0015532388814791,0.0015532394894393,-0.0015532379604929,0.0015532404142371,-0.0013565942800095,0.0013565930846526,-0.0013565915195311,0.0013565958673182,-0.0014512473199117,0.0014512441298263,-0.0014512430885425,0.0014512484603052,-7.0129213044773e-09,7.4334108377544e-09,-0.0010697598008646,0.0010697601987761,1.6354988060055e-09,-1.2463528689326e-09,-0.0011591076505729,0.0011591041831326,-0.0011591086082014,0.0011591032394284,-0.0011591028092285,0.0011591089984411,-0.0011591038104065,0.0011591080193793,-0.0011468962741739,0.0011469097887965,-0.0011469103552425,0.0011468957347529,0.67837702190257,125803,2834,0.0061389899570426,0.0061389899570368,0.0044489690792846,25.339211348476,-3.7286309212188e-05,-3.7286309212188e-05,-3.7286309212188e-05,2300829.8460914,0.016868353481194
30019200,0.9962838901765,0.016675516983586,0.0059918827786192,0.0059918827788872,0.0046917514260796,-0.0014786867299039,0.0014786866195181,7.3358878692494e-09,-7.4432164552583e-09,2.11347334584e-09,-2.2824328890067e-09,-0.0015539220744112,0.0015539283390092,-0.0015539269856987,0.0015539233949821,-0.0015539234572099,0.0015539268823592,-0.0015539284025445,0.001553921919034,-0.0013572070622141,0.0013572199917425,-0.0013572215422537,0.0013572054588905,-2.1045663119438e-09,2.2863380742192e-09,-1.3597667328879e-09,1.4803224467389e-09,-0.0014786866131852,0.0014786867363434,-0.001553926300786,0.001553924029513,-0.0015539253523906,0.0015539249782101,-0.0015539248886399,0.0015539255077792,-0.0015539239679214,0.0015539264308201,-0.0013572141051279,0.0013572129236304,-0.001357211347117,0.0013572157052953,-0.0014519091720532,0.0014519059611164,-0.0014519049199911,0.0014519103176415,-7.0684017272402e-09,7.489028643845e-09,-0.0010703332890368,0.0010703336871645,1.62885637928e-09,-1.2394897400698e-09,-0.0011596827150833,0.0011596792061084,-0.0011596836692319,0.0011596782693981,-0.0011596778374563,0.0011596840600695,-0.0011596788348164,0.0011596830839337,-0.0011475049896428,0.0011475186165993,-0.0011475191774543,0.0011475044552746,0.68873088835752,125803,2834,0.0061417309541239,0.0061417309543431,0.0044513483061593,25.590108430846,-3.5279132553232e-05,-3.5279132553232e-05,-3.5279132553232e-05,2304924.318869,0.01687634728385
30219200,0.99642189591155,0.016677648374304,0.0059926591085066,0.0059926591087746,0.0046923301570231,-0.0014793546114468,0.0014793544999297,7.3884462880375e-09,-7.4968948766547e-09,2.1204794799251e-09,-2.290648975952e-09,-0.0015546099693709,0.0015546162738631,-0.0015546149166428,0.001554611293848,-0.0015546113577421,0.0015546148115744,-0.0015546163379144,0.0015546098134105,-0.0013578367162765,0.0013578497420643,-0.0013578512986953,0.001357835106832,-2.1064221842482e-09,2.2885245755951e-09,-1.3560054922154e-09,1.4768646699231e-09,-0.0014793544940044,0.0014793546174721,-0.0015546142147313,0.0015546119453738,-0.0015546132692728,0.0015546128910816,-0.0015546128018005,0.0015546134244161,-0.0015546118828915,0.0015546143456387,-0.001357843803775,0.0013578426293378,-0.0013578410511612,0.0013578454056011,-0.0014525750323591,0.0014525718136487,-0.0014525707746335,0.0014525761758495,-7.1239625811568e-09,7.5446672680644e-09,-0.0010709014190094,0.0010709018172191,1.6274911219031e-09,-1.2380290803188e-09,-0.0011602671639933,0.0011602636176581,-0.0011602681177753,0.0011602626813288,-0.0011602622498688,0.0011602685081109,-0.0011602632456952,0.0011602675334899,-0.0011481069598596,0.0011481206983387,-0.001148121258218,0.0011481064265655,0.66008311455068,125803,2834,0.0061444964522874,0.0061444964524929,0.0044537059598981,25.840945798584,-3.3272433611326e-05,-3.3272433611326e-05,-3.3272433611326e-05,2307152.1289559,0.016884369230019
30419200,0.99655703020461,0.01667961964799,0.0059933797640627,0.0059933797643307,0.0046928601195963,-0.0014800518784581,0.0014800517670177,7.4417849411077e-09,-7.5501556459865e-09,2.1196885768513e-09,-2.2897763873737e-09,-0.0015553399185989,0.0015553462580224,-0.0015553449012802,0.0015553412426093,-0.0015553413062856,0.001555344796437,-0.0015553463221544,0.0015553397625788,-0.0013584810794615,0.0013584942106675,-0.001358495766694,0.0013584794706191,-2.1089461830241e-09,2.2915805483495e-09,-1.3586088470839e-09,1.4799508344554e-09,-0.001480051760817,0.0014800518847645,-0.0015553441831218,0.0015553419103404,-0.0015553432356549,0.0015553428581096,-0.0015553427682245,0.0015553433914032,-0.0015553418475718,0.0015553443143662,-0.0013584882211316,0.0013584870437992,-0.0013584854633558,0.0013584898252892,-0.0014532658576023,0.0014532626362306,-0.001453261594841,0.0014532670035929,-7.1798778740783e-09,7.5996021408418e-09,-0.0010715431603806,0.0010715435576073,1.6279885391338e-09,-1.2395160180234e-09,-0.0011608901418588,0.0011608865581219,-0.001160891096171,0.0011608856212762,-0.0011608851906499,0.0011608914856604,-0.001160886187301,0.0011608905102411,-0.0011487771852618,0.0011487910301584,-0.0011487915916863,0.0011487766503127,0.6252652627186,125803,2834,0.0061473841851811,0.0061473841853985,0.0044563674843791,26.128813975432,-3.0969488196547e-05,-3.0969488196547e-05,-3.0969488196547e-05,2313291.9942033,0.016892948604834
30619200,0.9966900746915,0.016681684466346,0.0059941311888325,0.0059941311891005,0.0046934220884129,-0.0014809176715942,0.0014809175611988,7.498484841847e-09,-7.6058094641535e-09,2.112965306772e-09,-2.2819362338262e-09,-0.0015562499172852,0.0015562562904244,-0.0015562549374867,0.0015562512375007,-0.0015562513002782,0.001556254833725,-0.0015562563535377,0.0015562497623831,-0.0013592825651622,0.0013592958122159,-0.001359297362184,0.0013592809622384,-2.0977444556998e-09,2.2786666062076e-09,-1.3688639331484e-09,1.4886665512734e-09,-0.0014809175552823,0.0014809176776275,-0.0015562541986222,0.0015562519259458,-0.0015562532450154,0.0015562528800806,-0.0015562527917822,0.0015562533990247,-0.0015562518647408,0.001556254328261,-0.0013592897788436,0.0013592885733647,-0.0013592870023787,0.0013592913737009,-0.0014541287181298,0.0014541255248246,-0.0014541244788886,0.0014541298688271,-7.2333317997993e-09,7.6512716880196e-09,-0.0010724032096847,0.001072403605123,1.638844597349e-09,-1.2522991202594e-09,-0.0011616879157792,0.0011616843031583,-0.0011616888781192,0.0011616833585158,-0.0011616829296766,0.0011616892657864,-0.0011616839340782,0.0011616882824633,-0.0011496694013281,0.0011496833396155,-0.0011496839107618,0.0011496688567357,0.66318229145277,125803,2834,0.0061509704196438,0.0061509704198841,0.0044599330184955,26.522812058043,-2.7817503535655e-05,-2.7817503535655e-05,-2.7817503535655e-05,2323729.5888216,0.016903867551015
30819200,0.99682095242683,0.01668380891951,0.0059949020486357,0.0059949020489037,0.0046940048219707,-0.0014818446249989,0.0014818445155873,7.5523059597665e-09,-7.6586661778289e-09,2.106412421017e-09,-2.2743333936172e-09,-0.00155720147644,0.0015572078814726,-0.0015572065322071,0.0015572027929154,-0.0015572028547684,0.0015572064293529,-0.0015572079435427,0.0015572013225748,-0.0013601682631915,0.0013601816202504,-0.0013601831647076,0.0013601666659129,-2.0926815789554e-09,2.2725927211291e-09,-1.3798523258052e-09,1.4986748270275e-09,-0.0014818445096394,0.0014818446310509,-0.0015572057757646,0.0015572034989966,-0.0015572048152321,0.0015572044600248,-0.0015572043725764,0.0015572049682163,-0.0015572034386454,0.0015572059046299,-0.0013601755444874,0.0013601743135052,-0.0013601727474296,0.0013601771346777,-0.0014550578828982,0.0014550547065941,-0.0014550536543462,0.0014550590393623,-7.289472603194e-09,7.7059079029208e-09,-0.0010732693284467,0.0010732697223563,1.6476095500783e-09,-1.2626861661702e-09,-0.0011625459285824,0.0011625422839404,-0.0011625468972466,0.0011625413327466,-0.0011625409055199,0.0011625472833705,-0.0011625419162987,0.0011625462937805,-0.0011505749281152,0.0011505889670045,-0.0011505895460358,0.0011505743755891,0.69236327085559,125803,2834,0.006154809020878,0.0061548090210921,0.0044635261472291,26.919562340431,-2.464350127655e-05,-2.464350127655e-05,-2.464350127655e-05,2327082.3519765,0.016915328418776
31019200,0.99694956832222,0.016685959115297,0.0059956809066432,0.0059956809069112,0.0046945973017427,-0.0014828098092982,0.0014828097006794,7.6053944890072e-09,-7.7109812951674e-09,2.1013080442464e-09,-2.2683667122481e-09,-0.0015581759090976,0.0015581823464905,-0.0015581810000572,0.0015581772227232,-0.0015581772838718,0.0015581808979964,-0.0015581824077476,0.0015581757561128,-0.0013611097398424,0.001361123204466,-0.0013611247444862,0.0013611081469541,-2.0897482408022e-09,2.2691646907167e-09,-1.3899716040702e-09,1.5083473311384e-09,-0.0014828096945707,0.0014828098155246,-0.0015581802269938,0.0015581779453976,-0.0015581792600044,0.0015581789129848,-0.0015581788259767,0.0015581794124162,-0.0015581778854827,0.0015581803554773,-0.0013611170859635,0.0013611158328841,-0.0013611142694754,0.0013611186736555,-0.0014560284569282,0.0014560252928273,-0.0014560242344619,0.0014560296194482,-7.3461965067127e-09,7.761240407139e-09,-0.0010741317754132,0.0010741321679136,1.6554405625191e-09,-1.2720064728787e-09,-0.0011634397459137,0.0011634360683177,-0.0011634407203782,0.0011634351113724,-0.0011634346855925,0.0011634411050469,-0.0011634357020572,0.001163440109776,-0.0011514821308716,0.0011514962724495,-0.0011514968585272,0.0011514815711408,0.7121583101839,125803,2834,0.0061588052675638,0.0061588052678057,0.0044671057822683,27.316423913332,-2.1468608693341e-05,-2.1468608693341e-05,-2.1468608693341e-05,2325501.5341067,0.01692709664109
31219200,0.9970769343315,0.016688192952687,0.0059964879498521,0.00599648795012,0.004695217052715,-0.001484094985739,0.0014840948786067,7.6605978989338e-09,-7.7647112112259e-09,2.0917873301565e-09,-2.2572603617748e-09,-0.0015594578338131,0.0015594643020352,-0.0015594629609797,0.0015594591419628,-0.0015594592015813,0.0015594628603782,-0.0015594643617792,0.0015594576821747,-0.0013623837047686,0.0013623972845229,-0.0013623988162909,0.0013623821201334,-2.0729290577931e-09,2.2493147841723e-09,-1.4072381350463e-09,1.5227619452524e-09,-0.0014840948731598,0.0014840949912828,-0.0015594621677295,0.0015594598849063,-0.0015594611902091,0.0015594608630692,-0.0015594607786582,0.0015594613397424,-0.0015594598277824,0.0015594622933997,-0.0013623911312756,0.0013623898323012,-0.0013623882839997,0.0013623927041232,-0.0014573230360685,0.0014573199161201,-0.0014573188497899,0.0014573242061729,-7.4018154155893e-09,7.8141904597865e-09,-0.0010752768590576,0.0010752772488622,1.6720920380485e-09,-1.2915547804404e-09,-0.0011646438171257,0.0011646401126439,-0.0011646448033988,0.0011646391434804,-0.0011646387204307,0.0011646451855343,-0.0011646397489619,0.001164644178165,-0.0011526835357019,0.0011526977685329,-0.0011526983694023,0.0011526829612554,0.74546028464847,125803,2834,0.006164126105599,0.0061641261057984,0.0044718591336641,27.865584599545,-1.7075323203642e-05,-1.7075323203642e-05,-1.7075323203642e-05,2321447.9787125,0.016942752819747
31419200,0.99720300734821,0.016690301841367,0.0059972522438053,0.0059972522440733,0.0046957973534885,-0.0014854475365607,0.0014854474285314,7.7102593542222e-09,-7.8152944077675e-09,2.0967829513672e-09,-2.2632010479968e-09,-0.00156079501585,0.0015608015203204,-0.0015608001765197,0.0015607963271111,-0.0015607963877979,0.001560800075401,-0.0015608015815892,0.0015607948635849,-0.0013637377327841,0.0013637514062309,-0.0013637529429824,0.0013637361434856,-2.0522425478695e-09,2.2254688754943e-09,-1.4201577674755e-09,1.5328264293224e-09,-0.0014854474249625,0.0014854475402072,-0.0015607993657485,0.0015607970873696,-0.0015607983809743,0.0015607980737451,-0.0015607979917312,0.0015607985275418,-0.0015607970332653,0.001560799488509,-0.0013637452262325,0.0013637438866672,-0.0013637423566508,0.0013637467807034,-0.0014586810678584,0.0014586779961019,-0.0014586769245348,0.0014586822411992,-7.461643542259e-09,7.8716527123541e-09,-0.0010764345302987,0.0010764349177509,1.6875720681957e-09,-1.3095595861495e-09,-0.0011659073445716,0.0011659036099022,-0.0011659083424658,0.0011659026302305,-0.0011659022089841,0.0011659087221655,-0.0011659032489456,0.0011659077035148,-0.0011538973233299,0.0011539116575293,-0.0011539122720159,0.001153896736091,0.71242628982313,125803,2834,0.0061697252384998,0.0061697252386594,0.0044766663059404,28.433618641303,-1.2531050869576e-05,-1.2531050869576e-05,-1.2531050869576e-05,2313988.1071026,0.016959030447519
31619200,0.99732760373055,0.01669228903001,0.0059979746613275,0.0059979746615955,0.0046963397070875,-0.0014867514792279,0.0014867513733934,7.7668906795859e-09,-7.8697342807844e-09,2.0837643389592e-09,-2.2478647560394e-09,-0.0015620996386963,0.0015621061730583,-0.0015621048364342,0.0015621009424202,-0.001562101000963,0.0015621047372401,-0.0015621062316654,0.0015620994885545,-0.0013650247084378,0.0013650385020659,-0.0013650400267194,0.0013650231308602,-2.058534337189e-09,2.2327173707387e-09,-1.4332978321221e-09,1.5468288787998e-09,-0.0014867513683401,0.0014867514844018,-0.001562104009859,0.0015621017187105,-0.0015621030159267,0.001562102713664,-0.0015621026311562,0.0015621031631618,-0.0015621016636767,0.0015621041335708,-0.0013650322726761,0.0013650309120127,-0.0013650293762192,0.001365033833355,-0.0014599840559293,0.0014599809804725,-0.0014599798996626,0.0014599852402959,-7.5155943337451e-09,7.9240996846646e-09,-0.0010775897966549,0.0010775901825487,1.6956015964726e-09,-1.3192332232901e-09,-0.0011671261898449,0.0011671224240292,-0.0011671271934366,0.0011671214380019,-0.0011671210187445,0.0011671275715643,-0.001167122064279,0.0011671265471826,-0.0011551016629205,0.0011551160940321,-0.0011551167157865,0.0011551010676711,0.68057765852176,125803,2834,0.0061751237671895,0.0061751237674376,0.0044814614948316,29.002197982282,-7.9824161417431e-06,-7.9824161417431e-06,-7.9824161417431e-06,2312476.7001431,0.016974887778477
31819200,0.99744843972806,0.016694149515279,0.0059986525458704,0.0059986525461384,0.0046968444232701,-0.0014874178020085,0.0014874176948227,7.8082990361184e-09,-7.9125960746802e-09,2.0900664927857e-09,-2.2555996956247e-09,-0.0015627853109873,0.0015627918766351,-0.0015627905368241,0.0015627866173757,-0.0015627866765519,0.0015627904345873,-0.0015627919345488,0.0015627851590879,-0.0013656581776706,0.0013656720469522,-0.0013656735790373,0.0013656565937497,-2.1221948549333e-09,2.3044648545879e-09,-1.4239925237415e-09,1.5445298091378e-09,-0.0014874176864612,0.0014874178103165,-0.0015627897135587,0.0015627873897389,-0.0015627887233416,0.001562788379508,-0.0015627882896581,0.0015627888785181,-0.0015627873260945,0.0015627898465529,-0.001365665748246,0.0013656644498975,-0.0013656628623062,0.0013656673608186,-0.001460644783039,0.0014606415814689,-0.0014606404936666,0.0014606459722105,-7.5802615388887e-09,7.9926681072992e-09,-0.0010781743228287,0.00107817471256,1.668554336053e-09,-1.2879488779172e-09,-0.0011677254992393,0.0011677216733745,-0.0011677264814539,0.0011677207037564,-0.0011677202824186,0.0011677268635999,-0.0011677213084811,0.001167725859858,-0.0011557146827639,0.0011557292676433,-0.0011557298659221,0.0011557141101382,0.65805652163901,125803,2834,0.0061778827315992,0.0061778827314866,0.0044838868939827,29.265146227995,-5.8788301760434e-06,-5.8788301760434e-06,-5.8788301760434e-06,2315220.5281325,0.016982966187745
32019200,0.99756392318713,0.016696096916914,0.0059993578776961,0.0059993578779641,0.0046973811612535,-0.0014875788434426,0.0014875787242295,7.873693642711e-09,-7.9897739553607e-09,2.1678618931308e-09,-2.3462495411576e-09,-0.0015629725189686,0.0015629791762635,-0.0015629777926337,0.0015629738698266,-0.0015629739409866,0.0015629776795702,-0.0015629792473029,0.0015629723549547,-0.0013657822937177,0.0013657962358909,-0.0013657978342313,0.0013657806423819,-2.1462399456664e-09,2.3352246715514e-09,-1.3711262399697e-09,1.498284363364e-09,-0.0014875787189697,0.0014875788488155,-0.0015629769575553,0.0015629746536715,-0.0015629760003371,0.0015629756115419,-0.0015629755162369,0.0015629761618716,-0.0015629745850848,0.0015629770949907,-0.0013657898399428,0.001365788664826,-0.001365787051616,0.0013657914773113,-0.0014608061037995,0.0014608028196724,-0.0014608017620112,0.0014608072676669,-7.615849782188e-09,8.0319483519618e-09,-0.0010783068930577,0.0010783072866331,1.6457946906754e-09,-1.2612033091589e-09,-0.0011678306338416,0.0011678267703485,-0.0011678316012685,0.0011678258198615,-0.001167825393286,0.0011678319870265,-0.0011678264027233,0.0011678309984961,-0.0011558680560335,0.0011558827342581,-0.0011558833126698,0.0011558675046375,0.71766337930146,125803,2834,0.0061785499814144,0.0061785499816469,0.0044844358898653,29.280923726337,-5.752610189305e-06,-5.752610189305e-06,-5.752610189305e-06,2319845.1693573,0.016984881421644
32219200,0.99767424517944,0.016697999524001,0.0060000461682011,0.0060000461684692,0.0046979071873306,-0.0014877933226788,0.0014877931979456,7.9265697211478e-09,-8.0481344498994e-09,2.2029570175871e-09,-2.3872721000054e-09,-0.0015631835451948,0.001563190259316,-0.0015631888558047,0.001563184915997,-0.0015631849925031,0.001563188737265,-0.00156319033601,0.0015631833757508,-0.0013659913810623,0.001366005401694,-0.0013660070308782,0.0013659896991022,-2.1789469634307e-09,2.3732924701658e-09,-1.3341945615599e-09,1.4663414897226e-09,-0.0014877931929006,0.0014877933278091,-0.0015631880100404,0.0015631857106588,-0.0015631870752945,0.0015631866455264,-0.0015631865452655,0.0015631872421821,-0.0015631856370886,0.0015631881525389,-0.0013659989186149,0.0013659978392209,-0.0013659961976731,0.0013660005835656,-0.0014610275393783,0.0014610241673471,-0.0014610231275373,0.0014610286844553,-7.6666362487776e-09,8.0873697197594e-09,-0.0010784106619245,0.0010784110601859,1.6158278318409e-09,-1.2261811109058e-09,-0.0011679815901597,0.0011679776741482,-0.0011679825360605,0.0011679767456069,-0.0011679763140848,0.0011679829263302,-0.0011679773021018,0.001167981959578,-0.0011560017257179,0.0011560165340653,-0.0011560170863371,0.0011560012007557,0.73340851150396,125803,2834,0.0061794373086103,0.0061794373087857,0.0044848687261904,29.290187217253,-5.6785022619789e-06,-5.6785022619789e-06,-5.6785022619789e-06,2315183.1452681,0.016987126747912
32419200,0.99777963152659,0.016699863056791,0.0060007194849935,0.0060007194852616,0.004698424086536,-0.0014880172369707,0.0014880171093021,7.976503686523e-09,-8.1009629927884e-09,2.2225817880638e-09,-2.4100374528337e-09,-0.0015633965952033,0.0015634033547497,-0.0015634019401001,0.001563397977172,-0.0015633980565927,0.0015634018184407,-0.0015634034341507,0.0015633964228873,-0.0013662186538608,0.0013662327578723,-0.0013662344039463,0.0013662169550825,-2.2056564370628e-09,2.4043872286575e-09,-1.3040998773524e-09,1.440320613955e-09,-0.0014880171036712,0.0014880172426836,-0.0015634010809802,0.0015633987851501,-0.0015634001647113,0.0015633997011862,-0.0015633995972557,0.0015634003357997,-0.0015633987073998,0.0015634012276244,-0.0013662261942356,0.0013662251927987,-0.0013662235277408,0.0013662278823235,-0.0014612595327745,0.0014612560891547,-0.0014612550640112,0.0014612606637531,-7.721878576505e-09,8.1468976688685e-09,-0.0010785022401254,0.0010785026427152,1.5864650957825e-09,-1.1921555224065e-09,-0.0011681384517837,0.0011681344808041,-0.0011681393766643,0.0011681335732211,-0.0011681331375151,0.0011681397710782,-0.0011681341043873,0.0011681388256005,-0.0011561246818175,0.0011561396281542,-0.0011561401551809,0.0011561241822634,0.75109424825439,125803,2834,0.0061803634378076,0.0061803634379759,0.0044852516685796,29.299185909286,-5.6065127257142e-06,-5.6065127257142e-06,-5.6065127257142e-06,2309035.2662369,0.016989400372872
32619200,0.99788004378801,0.016701504120932,0.0060013154036655,0.0060013154039336,0.0046988733133332,-0.0014881555992342,0.0014881554713792,8.0237528295647e-09,-8.1483980099753e-09,2.2251043931764e-09,-2.4127687299244e-09,-0.0015635193026263,0.0015635260956184,-0.0015635246794515,0.0015635206862347,-0.0015635207661069,0.0015635245573351,-0.0015635261749933,0.0015635191304754,-0.0013663653459621,0.0013663795400486,-0.0013663811880224,0.0013663636452932,-2.2130852535293e-09,2.4129780126856e-09,-1.2827653524948e-09,1.42008663417e-09,-0.0014881554653061,0.001488155605403,-0.0015635238002646,0.0015635215142592,-0.0015635228980217,0.0015635224161837,-0.0015635223115847,0.001563523070005,-0.0015635214351227,0.0015635239481853,-0.0013663729083639,0.0013663719533154,-0.0013663702816162,0.0013663746027,-0.0014614008843839,0.0014613974114301,-0.0014613963991043,0.0014614020026839,-7.7821005199044e-09,8.2094402618234e-09,-0.0010784870439315,0.0010784874488692,1.5619718218771e-09,-1.1650293191163e-09,-0.0011682103728865,0.0011682063463048,-0.0011682112809368,0.00116820545575,-0.0011682050179909,0.0011682116773359,-0.0011682059673518,0.0011682107493242,-0.0011561357239469,0.0011561508107568,-0.0011561513182209,0.0011561352439403,0.69653885682863,125803,2834,0.0061809350142275,0.0061809350144242,0.0044851923188347,29.26298443819,-5.8961244944768e-06,-5.8961244944768e-06,-5.8961244944768e-06,2301497.8163417,0.016990503261342
32819200,0.99797560550776,0.016702943961732,0.0060018410086486,0.0060018410089168,0.0046992619441663,-0.0014881718338387,0.001488171707504,8.0788494296955e-09,-8.2019884721175e-09,2.2148030525812e-09,-2.4008345030951e-09,-0.0015635449082113,0.0015635517316566,-0.0015635503214133,0.001563546285986,-0.001563546364309,0.0015635502008833,-0.0015635518096443,0.0015635447375477,-0.0013663618784973,0.0013663761881579,-0.0013663778273334,0.0013663601866845,-2.2055695487172e-09,2.4043234754683e-09,-1.2681603286592e-09,1.4044164858897e-09,-0.0014881717012048,0.0014881718402333,-0.0015635494139828,0.0015635471422846,-0.0015635485217504,0.0015635480341716,-0.0015635479306053,0.0015635486927777,-0.001563547064173,0.0015635495606787,-0.00136636948703,0.0013663685554021,-0.0013663668900343,0.0013663711748054,-0.0014614129797466,0.0014614095117666,-0.0014614085105079,0.001461414086824,-7.8356866357649e-09,8.2645297499362e-09,-0.0010784319276922,0.0010784323341579,1.5468612183156e-09,-1.1482112346473e-09,-0.0011681720488077,0.001168167976775,-0.0011681729461351,0.0011681670968691,-0.0011681666575994,0.0011681733440932,-0.0011681675963644,0.0011681724266958,-0.0011560955553658,0.0011561107605062,-0.0011561112557751,0.0011560950875102,0.6444613472204,125803,2834,0.0061810020077906,0.0061810020079867,0.0044849642673899,29.204568168723,-6.3634546502161e-06,-6.3634546502161e-06,-6.3634546502161e-06,2302300.5402074,0.016990407675532
33019200,0.9980665614353,0.0167044281504,0.0060023797695587,0.0060023797698269,0.0046996686110144,-0.0014881248484216,0.0014881247241794,8.1370577856466e-09,-8.2581139484639e-09,2.1997810294348e-09,-2.3835693010058e-09,-0.0015635281439086,0.0015635349967469,-0.0015635335951465,0.0015635295130642,-0.0015635295892988,0.0015635334768502,-0.0015635350728741,0.0015635279753056,-0.0013662740994272,0.0013662885342185,-0.0013662901605767,0.0013662724204812,-2.1887039519496e-09,2.3848697891727e-09,-1.2588046511767e-09,1.392684790307e-09,-0.0014881247180313,0.0014881248546576,-0.0015635326562225,0.001563530401092,-0.0015635317708091,0.0015635312860174,-0.0015635311846859,0.0015635319395402,-0.0015635303253187,0.0015635328003257,-0.0013662817672091,0.0013662808421295,-0.0013662791911069,0.0013662834404945,-0.0014613640526605,0.0014613606110017,-0.0014613596192337,0.0014613651499889,-7.8867919417326e-09,8.3165217286169e-09,-0.001078396122327,0.0010783965297017,1.5387034130603e-09,-1.13903861236e-09,-0.0011680801300226,0.0011680760186002,-0.0011680810214951,0.0011680751446139,-0.0011680747043443,0.0011680814204419,-0.0011680756374113,0.0011680805087225,-0.0011560695271858,0.0011560848396361,-0.0011560853281463,0.0011560690659486,0.69524134533314,125803,2834,0.0061808083500984,0.006180808350279,0.0044848134167523,29.14555971387,-6.8355222890369e-06,-6.8355222890369e-06,-6.8355222890369e-06,2309991.9201847,0.016989859789381
33219200,0.99815314639592,0.016705912890633,0.006002917096262,0.0060029170965302,0.0047000786978406,-0.0014881389655876,0.0014881388443311,8.1926976226525e-09,-8.3107976204257e-09,2.1805562579149e-09,-2.3611499404313e-09,-0.0015635485009963,0.0015635553791299,-0.0015635539883791,0.0015635498593158,-0.0015635499327004,0.0015635538731117,-0.0015635554523871,0.0015635483354546,-0.0013662747675658,0.0013662893251724,-0.0013662909347814,0.0013662731053597,-2.1696688652231e-09,2.3626756699371e-09,-1.255422369874e-09,1.3863825406709e-09,-0.0014881388381682,0.0014881389718433,-0.0015635530190751,0.0015635507779133,-0.001563552136865,0.0015635516595904,-0.0015635515611302,0.0015635523026045,-0.0015635507049364,0.0015635531601628,-0.0013662825003525,0.0013662815681535,-0.0013662799336689,0.001366284157025,-0.0014613819255004,0.0014613785180673,-0.0014613775324491,0.0014613830164102,-7.9411612860971e-09,8.3712685894909e-09,-0.0010783550151326,0.0010783554228888,1.5339714260163e-09,-1.1338675101847e-09,-0.001168047694538,0.001168043543814,-0.0011680485827224,0.001168042673109,-0.0011680422325085,0.0011680489820424,-0.001168043162245,0.0011680480736248,-0.0011560456288379,0.0011560610517866,-0.0011560615365359,0.0011560451712033,0.72922789877282,125803,2834,0.0061808666610611,0.0061808666612516,0.0044846434606382,29.086527138451,-7.307782892395e-06,-7.307782892395e-06,-7.307782892395e-06,2309282.6705668,0.016989805544206
33419200,0.99823691406451,0.016707377229012,0.0060034465205044,0.0060034465207727,0.0047004841877347,-0.0014887390092708,0.0014887388960333,8.2556311354298e-09,-8.3657823109164e-09,2.1297592104945e-09,-2.3017708008938e-09,-0.0015641373734567,0.0015641442620657,-0.0015641428998588,0.0015641387031455,-0.0015641387686474,0.0015641427930738,-0.0015641443279293,0.00156413721584,-0.0013668760404715,0.0013668907588293,-0.0013668923239382,0.0013668744227082,-2.1230760622483e-09,2.3082506141842e-09,-1.2858060860318e-09,1.4095690093255e-09,-0.0014887388895049,0.0014887390158922,-0.001564141892819,0.0015641396599017,-0.0015641409927025,0.0015641405597268,-0.001564140467849,0.0015641411511509,-0.0015641395943022,0.0015641420263646,-0.0013668838996694,0.001366882875061,-0.0013668812815324,0.0013668855159598,-0.0014619903378402,0.0014619870406322,-0.0014619860445146,0.0014619914385313,-7.9918726466735e-09,8.4201593602055e-09,-0.0010788273527993,0.0010788277586867,1.5601009707951e-09,-1.1621796769384e-09,-0.0011685790920262,0.0011685749241687,-0.0011685799980955,0.0011685740356087,-0.0011685735965807,0.0011685803958928,-0.001168574544728,0.0011685794690927,-0.0011565527602404,0.0011565682600315,-0.0011565687644747,0.0011565522825025,0.7427865167867,125803,2834,0.0061833504070442,0.0061833504072352,0.0044866056530659,29.311364801859,-5.5090815851308e-06,-5.5090815851308e-06,-5.5090815851308e-06,2305243.3491183,0.016996853355095
33619200,0.99831825525719,0.016708799782831,0.0060039609596919,0.0060039609599601,0.0047008778631794,-0.0014894967373964,0.0014894966309764,8.3075440818191e-09,-8.4109363403742e-09,2.0861694647784e-09,-2.2508879112135e-09,-0.0015648798451403,0.001564886741887,-0.0015648854041243,0.0015648811502415,-0.0015648812096087,0.0015648853039394,-0.0015648868008181,0.0015648796948362,-0.0013676405798168,0.0013676554302839,-0.0013676569572739,0.0013676390002146,-2.0796836849733e-09,2.2574778486587e-09,-1.326569824566e-09,1.4435211562651e-09,-0.0014894966244653,0.0014894967439956,-0.0015648843686504,0.0015648821358219,-0.0015648834441948,0.00156488306016,-0.0015648829750283,0.0015648835951715,-0.001564882076551,0.0015648844958171,-0.0013676485608947,0.0013676474240404,-0.0013676458687636,0.0013676501395504,-0.0014627536767917,0.0014627504887093,-0.0014627494746064,0.0014627547947527,-8.05466082609e-09,8.4779129745193e-09,-0.0010794374743553,0.0010794378751642,1.5912859563615e-09,-1.1987942331076e-09,-0.00116926841207,0.001169264221909,-0.0011692693411119,0.001169263310433,-0.0011692628768378,0.0011692697335616,-0.0011692638471264,0.0011692687845161,-0.0011571989563146,0.0011572145475122,-0.0011572150793717,0.0011571984506839,0.74303041268455,125803,2834,0.0061864868262329,0.0061864868264138,0.0044891400044648,29.612920266895,-3.0966378648423e-06,-3.0966378648423e-06,-3.0966378648423e-06,2300120.2936765,0.017005810852401
33819200,0.99839718119472,0.01671018445742,0.0060044617157888,0.006004461716057,0.0047012610255742,-0.0014902515716554,0.001490251470098,8.3431069338101e-09,-8.4416763989336e-09,2.0551645253698e-09,-2.2146688842093e-09,-0.0015656205489949,0.0015656274515834,-0.0015656261313112,0.0015656218365568,-0.0015656218924679,0.0015656260347904,-0.0015656275044912,0.0015656204048001,-0.001368401417509,0.0013684163563703,-0.0013684178563887,0.0013683998649661,-2.0537131567669e-09,2.2272620595885e-09,-1.3704764791368e-09,1.4834482382849e-09,-0.0014902514631641,0.0014902515786845,-0.0015656250813597,0.0015656228365568,-0.0015656241306173,0.0015656237876968,-0.0015656237075419,0.0015656242760721,-0.0015656227800943,0.0015656252058485,-0.0013684094968511,0.0013684082516054,-0.0013684067192655,0.0013684110533364,-0.0014635123196965,0.0014635092075062,-0.0014635081691274,0.0014635134614697,-8.1324746467232e-09,8.5514398736759e-09,-0.001080043503244,0.0010800438997131,1.6159446420556e-09,-1.2280964115895e-09,-0.0011699543044765,0.0011699500786648,-0.0011699552526202,0.0011699491478736,-0.0011699487199447,0.0011699556396221,-0.0011699497068635,0.0011699546738445,-0.0011578406595627,0.001157856380183,-0.0011578569341571,0.0011578401316739,0.74517767926437,125803,2834,0.0061896112387017,0.0061896112388974,0.0044916573142588,29.916569158572,-6.674467314223e-07,-6.674467314223e-07,-6.674467314223e-07,2295875.5846216,0.01701472665329
34019200,0.9984736962614,0.01671148758049,0.0060049339116418,0.00600493391191,0.0047016197569377,-0.0014909997019143,0.0014909996023071,8.4326081520799e-09,-8.5292584367742e-09,2.0418985384601e-09,-2.1993068406269e-09,-0.0015663550294662,0.0015663619820658,-0.001566360669299,0.0015663563094606,-0.0015663563615691,0.0015663605768611,-0.0015663620351321,0.0015663548852078,-0.0013691543906132,0.0013691695201453,-0.0013691710086951,0.0013691528491916,-2.0294031925373e-09,2.1989485430244e-09,-1.3918471277553e-09,1.5011168415837e-09,-0.0014909995962728,0.0014909997080488,-0.0015663595873707,0.0015663573415337,-0.0015663586219875,0.0015663583076189,-0.0015663582289366,0.0015663587655391,-0.0015663572907708,0.001566359706073,-0.0013691625919872,0.00136916129306,-0.001369159782062,0.0013691641272246,-0.0014642622403767,0.001464259194536,-0.0014642581471867,0.0014642633909423,-8.1554121670929e-09,8.5686627445879e-09,-0.0010806396817529,0.0010806400724507,1.6575641835704e-09,-1.2759503017191e-09,-0.0011706325007479,0.0011706282837263,-0.0011706334767806,0.0011706273251853,-0.0011706269009272,0.0011706338600692,-0.0011706279196116,0.0011706328624202,-0.0011584716888643,0.0011584874074138,-0.0011584879969374,0.0011584711254178,0.7242654397453,125803,2834,0.0061927078540712,0.0061927078542773,0.0044941337495508,30.220303715533,1.7624297242666e-06,1.7624297242666e-06,1.7624297242666e-06,2292172.429697,0.017023544432664
34219200,0.99854908487969,0.016712737685447,0.0060053876712362,0.0060053876715045,0.004701962342706,-0.0014923111203339,0.0014923110266149,8.4708866638153e-09,-8.561617683045e-09,2.0061601324792e-09,-2.1572480079071e-09,-0.0015676594652964,0.0015676664214986,-0.0015676651286143,0.0015676607256523,-0.0015676607725454,0.0015676650425081,-0.0015676664693196,0.0015676593273626,-0.0013704587175339,0.0013704739472718,-0.0013704754034628,0.0013704572078048,-2.0045174346036e-09,2.1710553324197e-09,-1.4515694616499e-09,1.5581881608698e-09,-0.0014923110191588,0.0014923111279774,-0.0015676640372158,0.0015676617670862,-0.0015676630337176,0.0015676627727059,-0.0015676626968853,0.0015676631737323,-0.001567661719642,0.0015676641528635,-0.0013704670367673,0.0013704656030036,-0.0013704641119703,0.0013704685523889,-0.0014655743216658,0.0014655713625415,-0.0014655702797241,0.0014655755083083,-8.2320998530468e-09,8.6393619497757e-09,-0.00108181371043,0.0010818140951038,1.6904275237098e-09,-1.3153102235597e-09,-0.0011718674565797,0.0011718632090374,-0.0011718684576933,0.0011718622272455,-0.0011718618086224,0.0011718688348473,-0.0011718628511376,0.0011718678127174,-0.0011596907683913,0.0011597066015922,-0.0011597072213951,0.0011596901748973,0.70594347545819,125803,2834,0.0061981372551132,0.0061981372554995,0.0044990064244235,30.831150866354,6.6492069308335e-06,6.6492069308335e-06,6.6492069308335e-06,2292388.4844488,0.017039544177978
34419200,0.99862335463735,0.016713974235456,0.0060058364022664,0.0060058364025347,0.004702301430655,-0.0014936656179442,0.0014936655275511,8.4699512324509e-09,-8.5574902850753e-09,1.9849239114664e-09,-2.1324778194429e-09,-0.0015690174495915,0.0015690243921079,-0.001569023111577,0.0015690186982422,-0.0015690187419428,0.0015690230292122,-0.0015690244376735,0.0015690173154681,-0.0013717960730394,0.0013718113171398,-0.0013718127566924,0.0013717945821646,-2.004839163128e-09,2.1714442416409e-09,-1.5205321268998e-09,1.6271397591002e-09,-0.0014936655182406,0.001493665627337,-0.001569022037281,0.0015690197216519,-0.0015690209890262,0.0015690207740526,-0.0015690206968417,0.0015690211291734,-0.0015690196745025,0.0015690221538784,-0.001371804466342,0.0013718028969056,-0.0013718014078747,0.0013718059812946,-0.0014669264160433,0.0014669235045524,-0.001466922373143,0.0014669276466073,-8.3449196660626e-09,8.749438704477e-09,-0.0010830567915091,0.0010830571733848,1.6972462524906e-09,-1.3249352257413e-09,-0.0011731504388316,0.0011731461195986,-0.001173151445419,0.0011731451327596,-0.0011731447163088,0.0011731518197417,-0.0011731457652593,0.0011731507924602,-0.0011609756560034,0.0011609916990882,-0.0011609923266454,0.0011609750557348,0.70867957364969,125803,2834,0.0062037453680123,0.0062037453681817,0.0045041645268728,31.474869777611,1.1798958220888e-05,1.1798958220888e-05,1.1798958220888e-05,2295375.7620795,0.01705619787222
34619200,0.9986963717816,0.016715239136734,0.0060062943248111,0.0060062943250794,0.0047026504868431,-0.0014950260364501,0.0014950259477266,8.4498726711901e-09,-8.5357053143559e-09,1.9749203524801e-09,-2.1207138108253e-09,-0.0015703802447113,0.0015703871679896,-0.0015703858927774,0.0015703814873032,-0.0015703815287877,0.001570385811381,-0.0015703872108348,0.0015703801117006,-0.0013731412547295,0.0013731564672671,-0.0013731578972469,0.0013731397729731,-2.0185112093975e-09,2.1861052065695e-09,-1.5875444210143e-09,1.6951051098716e-09,-0.0014950259371021,0.0014950260471457,-0.0015703848489815,0.0015703824803782,-0.001570383755714,0.0015703835765429,-0.0015703834984248,0.0015703838967095,-0.0015703824322958,0.001570384967051,-0.0013731496925191,0.0013731480025649,-0.0013731465025688,0.0013731512197093,-0.0014682860981489,0.0014682832035534,-0.0014682820279722,0.001468287375667,-8.4752805964195e-09,8.8785711981562e-09,-0.0010843049288766,0.001084305309502,1.6910637707398e-09,-1.3199913737183e-09,-0.0011744402519526,0.0011744358400789,-0.0011744412536064,0.0011744348562016,-0.0011744344417282,0.0011744416271835,-0.0011744354861634,0.0011744406038789,-0.0011622671158252,0.0011622834149965,-0.0011622840389738,0.0011622665167711,0.73613737532866,125803,2834,0.0062093779272325,0.0062093779273779,0.0045093437189131,32.119557511317,1.6956460090533e-05,1.6956460090533e-05,1.6956460090533e-05,2297705.0709064,0.017072923043466
34819200,0.99876912340692,0.016716510423005,0.006006754406708,0.0060067544069763,0.004703001609321,-0.001496968408164,0.0014969683128183,8.8623811889851e-09,-8.9544697725068e-09,2.0198552889839e-09,-2.1728296347226e-09,-0.0015723103516431,0.0015723175811793,-0.0015723162784857,0.00157231162253,-0.0015723116714247,0.0015723161961661,-0.0015723176356443,0.0015723102117145,-0.001375079847287,0.0013750958397834,-0.001375097304541,0.0013750783280357,-1.9489664568832e-09,2.1097170804607e-09,-1.4650604591479e-09,1.5675138166943e-09,-0.001496968309024,0.001496968412475,-0.0015723150478189,0.0015723128044186,-0.0015723140373718,0.0015723138197942,-0.0015723137472045,0.0015723141741603,-0.001572312765042,0.0015723151546536,-0.0013750885770662,0.0013750870841573,-0.0013750856378175,0.0013750900521768,-0.0014702307909845,0.0014702279445983,-0.0014702268701278,0.0014702319794104,-8.1780254457963e-09,8.560458557279e-09,-0.0010860810098486,0.0010860813696936,1.87941232467e-09,-1.5314451234147e-09,-0.0011762983148614,0.0011762942213181,-0.0011762994545979,0.0011762931127129,-0.001176292713795,0.00117629980784,-0.0011762938924629,0.001176298646606,-0.0011641042233412,0.0011641197649466,-0.001164120542659,0.0011641034725441,0.742360460663,125803,2834,0.0062174194662923,0.006217419467361,0.004516714713103,33.049601108165,2.4396808865324e-05,2.4396808865324e-05,2.4396808865324e-05,2296834.6642383,0.017096778393642
35019200,0.9988417624794,0.016717742179886,0.0060072011031612,0.0060072011034294,0.0047033399732956,-0.0014991126247273,0.0014991125334765,8.7085905246549e-09,-8.7971428114434e-09,1.9842472319032e-09,-2.1328071387353e-09,-0.0015744422200189,0.0015744493167589,-0.0015744480359661,0.0015744434657531,-0.0015744435095817,0.0015744479505774,-0.0015744493599955,0.001574442084343,-0.0013772205727868,0.0013772362837082,-0.0013772377231009,0.0013772190823533,-1.9853629263489e-09,2.1424097660794e-09,-1.5865132232585e-09,1.6843801886135e-09,-0.0014991125282951,0.0014991126296194,-0.0015744469011356,0.0015744445529657,-0.0015744458076746,0.0015744456437626,-0.0015744455733703,0.0015744459402959,-0.0015744445112301,0.0015744470127297,-0.0013772292701121,0.0013772275555001,-0.0013772260906854,0.0013772307629565,-0.0014723739551762,0.0014723711223986,-0.0014723699570611,0.0014723752156496,-8.44094865795e-09,8.8296149243838e-09,-0.0010880410224302,0.001088041388202,1.8179307235268e-09,-1.4628043691891e-09,-0.0011783555171879,0.001178351209318,-0.0011783566068454,0.0011783501321129,-0.0011783497337263,0.0011783569656651,-0.0011783508687712,0.0011783558540688,-0.0011661282389931,0.0011661443533998,-0.0011661450822892,0.0011661275325979,0.72136486929782,125803,2834,0.0062262965164541,0.006226296515854,0.0045248491912099,34.081387457131,3.2651099657052e-05,3.2651099657052e-05,3.2651099657052e-05,2296016.8114943,0.017123110655818
35219200,0.99891401238521,0.016718933185238,0.0060076338410604,0.0060076338413286,0.0047036655028486,-0.0015012356270791,0.0015012355306783,8.9037056871383e-09,-8.9971631944286e-09,2.0210303326753e-09,-2.1749980147154e-09,-0.0015765632700773,0.001576570522189,-0.0015765692206466,0.0015765645380447,-0.0015765645862759,0.0015765691333114,-0.0015765705735204,0.0015765631276737,-0.0013793279674984,0.0013793440378065,-0.0013793455075341,0.0013793264439626,-1.9712483451279e-09,2.1309899798052e-09,-1.5321710928886e-09,1.63244423778e-09,-0.0015012355275791,0.0015012356302596,-0.0015765680069417,0.0015765657025824,-0.0015765669503596,0.0015765667606181,-0.0015765666886412,0.001576567085457,-0.0015765656623555,0.0015765681156328,-0.0013793367949041,0.0013793351822883,-0.0013793337237404,0.0013793382808256,-0.0014744924602431,0.001474489622199,-0.0014744884946503,0.0014744936912579,-8.3557674138586e-09,8.7361045788254e-09,-0.0010900080211004,0.001090008378581,1.8923661047387e-09,-1.5466425490537e-09,-0.0011803951379505,0.0011803909329342,-0.0011803962814833,0.0011803898078148,-0.0011803894146765,0.0011803966332418,-0.0011803906030845,0.0011803954656675,-0.0011681569684627,0.0011681728426828,-0.0011681736336769,0.0011681562036173,0.70214227992051,125803,2834,0.0062350860227813,0.0062350860229486,0.0045330114620469,35.115926289099,4.0927410312795e-05,4.0927410312795e-05,4.0927410312795e-05,2298397.5989216,0.017149293585755
35419200,0.99898474346612,0.016720063344151,0.0060080453173028,0.006008045317571,0.0047039727092774,-0.0015029044555217,0.0015029043511824,9.0869863016296e-09,-9.1884280471245e-09,2.0704866000556e-09,-2.2328956718641e-09,-0.0015782415335235,0.0015782489334194,-0.0015782476039363,0.0015782428281537,-0.0015782428798546,0.0015782475100933,-0.0015782489923133,0.0015782413782824,-0.0013809714742765,0.0013809878756922,-0.0013809893891602,0.001380969906978,-2.0186250450376e-09,2.1838851017559e-09,-1.4686732806478e-09,1.5734744756444e-09,-0.0015029043495309,0.0015029044572658,-0.0015782463391252,0.0015782440432196,-0.0015782453185781,0.001578245062776,-0.0015782449841625,0.001578245462474,-0.0015782440000311,0.0015782464498676,-0.0013809803837597,0.0013809789389712,-0.0013809774417465,0.0013809819106635,-0.0014761537876817,0.0014761508307371,-0.0014761497374112,0.0014761549913845,-8.2778889695318e-09,8.6578045779543e-09,-0.0010915625905237,0.0010915629475119,1.9102474791552e-09,-1.5652090160925e-09,-0.0011819923364103,0.0011819881928789,-0.0011819934867965,0.0011819870549914,-0.0011819866616731,0.0011819938419605,-0.001181987864794,0.0011819926588081,-0.0011697602925478,0.0011697759920643,-0.0011697767960137,0.0011697595141667,0.68162296302525,125803,2834,0.0062419953831364,0.0062419953833248,0.0045394615480547,35.928498591447,4.7427988731579e-05,4.7427988731579e-05,4.7427988731579e-05,2302823.8881015,0.017169910536212
35619200,0.99905315473978,0.016721115358756,0.0060084292891683,0.0060084292894365,0.0047042567801512,-0.0015042200019623,0.0015042198912907,8.9052715954774e-09,-9.0128853178932e-09,2.1126617571041e-09,-2.2819436773635e-09,-0.0015795757935736,0.0015795831001753,-0.001579581746931,0.0015795771134291,-0.0015795771762838,0.0015795816445403,-0.0015795831651109,0.0015795756379751,-0.0013822530879462,0.0013822690912488,-0.0013822706417633,0.0013822514856463,-2.097808420628e-09,2.2797585794637e-09,-1.5007751149045e-09,1.6215845675024e-09,-0.0015042198849873,0.0015042200083653,-0.0015795805862169,0.0015795782244342,-0.0015795795427079,0.0015795792689629,-0.0015795791778928,0.0015795796980801,-0.0015795781637372,0.0015795807166841,-0.0013822618071351,0.0013822603442435,-0.001382258774831,0.001382263404918,-0.0014774611401555,0.0014774580384054,-0.0014774569023161,0.0014774623806277,-8.5593667154126e-09,8.9532348091753e-09,-0.0010928079277348,0.0010928082988785,1.7867100201802e-09,-1.4261598300691e-09,-0.0011832468245732,0.0011832424201465,-0.0011832478944718,0.0011832413696084,-0.0011832409632794,0.0011832482585957,-0.0011832420767088,0.0011832471668451,-0.0011710441444017,0.0011710605222587,-0.0011710612258305,0.0011710434682319,0.65729898110503,125803,2834,0.0062474424313814,0.0062474424315865,0.0045446275508831,36.573201198317,5.2585609586536e-05,5.2585609586536e-05,5.2585609586536e-05,2309079.2260375,0.017186246591547
35819200,0.99911913257684,0.016722192943419,0.0060088209347915,0.0060088209350597,0.004704551073568,-0.0015054990218009,0.0015054989042181,8.8746576158311e-09,-8.9891039356334e-09,2.1547059709175e-09,-2.3313798458284e-09,-0.0015808808780833,0.0015808881933047,-0.0015808868164889,0.001580882221252,-0.0015808822919879,0.0015808867046479,-0.0015808882623372,0.0015808807168792,-0.0013834905815844,0.0013835064903719,-0.0013835080779531,0.0013834889421708,-2.1506345822368e-09,2.3405935484137e-09,-1.4736549896862e-09,1.6018936520206e-09,-0.0015054988975566,0.001505499028526,-0.0015808856808667,0.0015808833069019,-0.0015808846546695,0.0015808843328244,-0.0015808842364803,0.0015808848162144,-0.0015808832367751,0.0015808858209793,-0.0013834992103183,0.0013834978343541,-0.0013834962190561,0.0013835008537825,-0.0014787349903526,0.0014787317634606,-0.0014787306364913,0.0014787362240628,-8.6903183274642e-09,9.0934911067946e-09,-0.00109405899413,0.0010940593746864,1.7165753565034e-09,-1.3458468422624e-09,-0.0011844717956272,0.0011844672621205,-0.0011844728166155,0.0011844662589468,-0.0011844658456415,0.0011844731885533,-0.0011844669069823,0.0011844721485765,-0.0011723326681893,0.0011723493751169,-0.0011723500192582,0.0011723320505863,0.69619234100918,125803,2834,0.0062527387495866,0.0062527387497169,0.0045498159656182,37.213443518614,5.7707548148914e-05,5.7707548148914e-05,5.7707548148914e-05,2317577.8294285,0.017202298724603
36019200,0.99918259193423,0.0167232909546,0.0060092185924574,0.0060092185927256,0.0047048537694174,-0.0015068269501793,0.0015068268260142,8.9998518442921e-09,-9.1208110257192e-09,2.1962626917412e-09,-2.3799752439194e-09,-0.0015822161818657,0.0015822236040713,-0.0015822222040896,0.0015822175483575,-0.0015822176239804,0.0015822220870403,-0.0015822236809315,0.001582216012441,-0.0013847976993215,0.0013848138278458,-0.001384815451598,0.0013847960233647,-2.1817684887056e-09,2.3772961222826e-09,-1.3979635228723e-09,1.5313211353155e-09,-0.0015068268200905,0.0015068269561817,-0.0015822210235255,0.0015822186788202,-0.0015822200439697,0.0015822196576732,-0.0015822195553444,0.0015822202124507,-0.0015822186049811,0.0015822211668982,-0.001384806350659,0.0013848051499747,-0.0013848035064508,0.0013848080211521,-0.0014800625057023,0.0014800591731788,-0.0014800580892969,0.0014800636959615,-8.6681100969589e-09,9.0764212756192e-09,-0.0010953050200575,0.0010953054058032,1.6947023755131e-09,-1.318521389754e-09,-0.0011857435064366,0.0011857389726175,-0.0011857445094203,0.0011857379875394,-0.0011857375675577,0.0011857448878856,-0.0011857386138002,0.0011857438629975,-0.0011736239532205,0.0011736406386047,-0.0011736412613251,0.0011736233577136,0.7358630878823,125803,2834,0.0062582366704159,0.0062582366705775,0.004554985840937,37.853503099278,6.2828024794224e-05,6.2828024794224e-05,6.2828024794224e-05,2319558.8254839,0.017218742871309
36219200,0.99924140136732,0.016724276164475,0.0060095761904784,0.0060095761907467,0.0047051237832496,-0.0015069060609201,0.0015069059252303,9.0252721980119e-09,-9.1576621785889e-09,2.2711286875187e-09,-2.4671912180018e-09,-0.0015822934389722,0.0015823009248431,-0.0015822994826439,0.0015822948480404,-0.0015822949352152,0.0015822993532193,-0.0015823010123522,0.0015822932585743,-0.0013848745019871,0.001384890624772,-0.0013848923138741,0.001384872760388,-2.2583142144039e-09,2.4667308526213e-09,-1.3107896496487e-09,1.4561183562014e-09,-0.0015069059190518,0.0015069060671851,-0.001582298306675,0.0015822959733708,-0.0015822973812461,0.0015822968975223,-0.0015822967845149,0.0015822975617278,-0.0015822958870704,0.0015822984625661,-0.001384883038839,0.0013848820623843,-0.0013848803511508,0.0013848847746469,-0.0014801388811046,0.0014801353423024,-0.001480134300132,0.0014801400302297,-8.7397725149966e-09,9.1608001482555e-09,-0.0010952817554111,0.0010952821540045,1.6078216856254e-09,-1.2177891862798e-09,-0.0011857830766133,0.0011857784416854,-0.0011857840178295,0.0011857775186228,-0.00118577708648,0.0011857844083021,-0.0011857780697846,0.0011857834463926,-0.0011736209257317,0.0011736378415888,-0.0011736383888246,0.0011736204057255,0.71361054084154,125803,2834,0.0062585631981875,0.0062585631983652,0.0045548920461722,37.827169758988,6.26173580719e-05,6.26173580719e-05,6.26173580719e-05,2314876.4390188,0.017219312425705
36419200,0.99929505397846,0.016725162942059,0.0060098983223881,0.0060098983226564,0.0047053662970149,-0.0015063533883822,0.0015063532454501,9.0737879681825e-09,-9.2133452576855e-09,2.3176924859678e-09,-2.5215239177046e-09,-0.001581745334375,0.0015817528815019,-0.0015817514133097,0.0015817467699231,-0.001581746863244,0.001581751277444,-0.0015817529770775,0.001581745145997,-0.0013843143729363,0.0013843305604079,-0.0013843322901808,0.0013843125915417,-2.3259200507979e-09,2.5458020739274e-09,-1.219667204328e-09,1.3756143519185e-09,-0.0015063532375338,0.0015063533963814,-0.0015817502234983,0.0015817479085708,-0.0015817493543976,0.0015817487761876,-0.0015817486524236,0.0015817495470191,-0.0015817478124906,0.0015817503890463,-0.0013843228275085,0.0013843220811123,-0.0013843203102463,0.0013843246222631,-0.001479583877889,0.0014795801505259,-0.0014795791555723,0.0014795849810406,-8.7918231365813e-09,9.2221975436072e-09,-0.0010946978414403,0.0010946982495173,1.5187598060849e-09,-1.1181870400818e-09,-0.0011852144747747,0.0011852097469988,-0.0011852153524082,0.0011852088880593,-0.0011852084454833,0.0011852157527886,-0.0011852093667376,0.0011852148533299,-0.0011730441472416,0.0011730612436952,-0.001173061718543,0.0011730437001901,0.70434018948538,125803,2834,0.0062562745075691,0.0062562745077397,0.004552470803706,37.497037453483,5.9976299627861e-05,5.9976299627861e-05,5.9976299627861e-05,2311501.1674703,0.017212193474625
36619200,0.99934404230307,0.016725927470411,0.0060101770405138,0.006010177040782,0.0047055733891157,-0.0015057616450206,0.0015057615079792,9.115881947358e-09,-9.2495492093855e-09,2.2816296947202e-09,-2.4791835142925e-09,-0.0015811599609535,0.0015811675090106,-0.0015811660608571,0.0015811613757813,-0.0015811614583953,0.0015811659348921,-0.0015811676024403,0.0015811597733432,-0.0013837117847276,0.0013837280954998,-0.0013837297933086,0.0013837100345342,-2.4000107317313e-09,2.6310188204235e-09,-1.1662796708819e-09,1.3324218688493e-09,-0.001505761491688,0.0015057616611549,-0.0015811648577149,0.0015811625281653,-0.0015811640149676,0.0015811633669736,-0.0015811632288294,0.0015811642237912,-0.0015811624257749,0.0015811650298411,-0.0013837202149234,0.0013837196404208,-0.0013837178047302,0.0013837220712349,-0.0014789904705196,0.0014789865801054,-0.0014789856053957,0.0014789915521859,-8.8572515351648e-09,9.2965048878041e-09,-0.0010940976527891,0.0010940980698709,1.4318475462168e-09,-1.021204209633e-09,-0.0011846110325546,0.0011846062004489,-0.0011846118430025,0.0011846054060804,-0.0011846049509255,0.0011846122573644,-0.001184605815527,0.0011846114151773,-0.0011724483084599,0.0011724655967046,-0.0011724660008915,0.0011724479299882,0.66675279818013,125803,2834,0.0062538243411779,0.0062538243408516,0.00454998135443,37.158713641982,5.7269709135855e-05,5.7269709135855e-05,5.7269709135855e-05,2309308.2265254,0.017204676488264
36819200,0.99938882755198,0.016726607597012,0.0060104253554424,0.0060104253557107,0.0047057568858588,-0.0015051190696381,0.0015051189247477,9.1821397192286e-09,-9.323643186336e-09,2.3268984837897e-09,-2.5328078743992e-09,-0.0015805395747659,0.0015805472003397,-0.0015805457275663,0.0015805410151766,-0.001580541110656,0.0015805455888614,-0.0015805472970059,0.0015805393847767,-0.0013830417302408,0.001383058122128,-0.0013830598605653,0.0013830399397372,-2.3237636670857e-09,2.5434238203321e-09,-1.1011269769208e-09,1.2568343547607e-09,-0.0015051189179039,0.0015051190765473,-0.0015805444630345,0.0015805422287779,-0.0015805436727532,0.001580543016218,-0.0015805428938556,0.0015805438652338,-0.0015805421317055,0.0015805446283436,-0.0013830501728178,0.0013830496563488,-0.0013830478856246,0.0013830519645275,-0.0014783443050474,0.0014783405014706,-0.0014783395857105,0.0014783453290162,-8.8951143453581e-09,9.3362761334669e-09,-0.0010935075908717,0.0010935080099119,1.4098690636186e-09,-9.970329954716e-10,-0.0011839663882645,0.0011839615223307,-0.0011839671895653,0.001183960739442,-0.0011839602869026,0.0011839676003271,-0.0011839611305666,0.0011839667777871,-0.0011718550016441,0.0011718723993392,-0.0011718727865616,0.0011718546419196,0.6495783263278,125803,2834,0.006251164498977,0.006251164499111,0.0045475316993169,36.820053101327,5.4560424810618e-05,5.4560424810618e-05,5.4560424810618e-05,2312271.0542383,0.017196773036656
37019200,0.99943098560198,0.016727289272546,0.0060106730976286,0.0060106730978969,0.0047059430770208,-0.0015054951876606,0.0015054950598804,9.2400198655593e-09,-9.3645528967489e-09,2.2171252048175e-09,-2.4047228965427e-09,-0.0015809394552099,0.0015809470517201,-0.0015809456407151,0.0015809408337824,-0.0015809409126282,0.0015809455197393,-0.0015809471322627,0.0015809392823855,-0.001383381062491,0.001383397647718,-0.0013833992904113,0.0013833793677442,-2.223787964863e-09,2.4267820492097e-09,-1.1429908459424e-09,1.2833235199797e-09,-0.0015054950522545,0.001505495195356,-0.0015809443125433,0.0015809421118978,-0.0015809434995058,0.0015809429223945,-0.0015809428145224,0.001580943676305,-0.0015809420301435,0.0015809444619241,-0.0013833896781549,0.0013833890083541,-0.0013833873250597,0.0013833913830274,-0.001478723273737,0.0014787196904411,-0.0014787187674039,0.0014787243035138,-8.9562407861194e-09,9.3945870421675e-09,-0.0010939090518806,0.0010939094680711,1.4363302072525e-09,-1.0266386289148e-09,-0.0011843059405071,0.00118430105044,-0.0011843067602322,0.0011843002491207,-0.0011842997992176,0.001184307168587,-0.0011843006618033,0.0011843063270041,-0.0011722751782191,0.0011722926704996,-0.0011722930787828,0.0011722747965204,0.68961814533826,125803,2834,0.0062527227657501,0.0062527227658927,0.0045491948711226,37.01582254386,5.6126580350881e-05,5.6126580350881e-05,5.6126580350881e-05,2320052.4290342,0.017201634295633
37219200,0.99947091070352,0.016727977837684,0.0060109223664736,0.0060109223667419,0.0047061331044687,-0.0015061809992847,0.0015061808896137,9.3027605272869e-09,-9.4093264299482e-09,2.1035440588788e-09,-2.2717349331748e-09,-0.0015816332454629,0.0015816408147658,-0.0015816394676587,0.001581634560136,-0.0015816346222983,0.0015816393645013,-0.0015816408771818,0.0015816330915443,-0.0013840485044552,0.001384065292429,-0.0013840668354085,0.001384046908817,-2.1179016035598e-09,2.3035428575072e-09,-1.21003827475e-09,1.3342210325074e-09,-0.001506180881163,0.0015061810078617,-0.0015816380789163,0.0015816358992641,-0.001581637228025,0.0015816367487119,-0.0015816366572113,0.0015816373870631,-0.001581635833031,0.0015816382122161,-0.0013840573263321,0.0013840564469269,-0.0013840548558416,0.0013840589395306,-0.0014794130164349,0.0014794096794558,-0.0014794087331627,0.0014794140688115,-9.0145490633654e-09,9.4470246854688e-09,-0.0010945456890303,0.0010945460992572,1.4901881649399e-09,-1.0871344114931e-09,-0.0011849461562264,0.0011849412622899,-0.0011849470147297,0.0011849404221812,-0.0011849399789774,0.001184947416774,-0.0011849408788125,0.0011849465374541,-0.0011729391930528,0.0011729567513843,-0.0011729572037146,0.0011729387671376,0.73362542091432,125803,2834,0.0062555623043879,0.0062555623046477,0.0045518362798821,37.342241918242,5.8737935345934e-05,5.8737935345934e-05,5.8737935345934e-05,2322254.2747127,0.017210097955122
37419200,0.99950867782238,0.016728585502025,0.0060111433614722,0.0060111433617406,0.0047062987788118,-0.0015069218329684,0.001506921736657,9.3638998546989e-09,-9.4572421865076e-09,2.017807123848e-09,-2.1717029272016e-09,-0.0015823643380849,0.0015823718951709,-0.0015823705962826,0.0015823656042524,-0.0015823656535771,0.0015823705068415,-0.0015823719448808,0.0015823641977162,-0.0013847906141348,0.0013848075843069,-0.001384809052523,0.0013847890935968,-2.0243012298105e-09,2.1938404027657e-09,-1.2795904995046e-09,1.3889074953882e-09,-0.0015069217289657,0.0015069218407472,-0.0015823691600282,0.0015823669918193,-0.0015823682679116,0.0015823678826942,-0.0015823678049143,0.0015823684116413,-0.0015823669401544,0.0015823692785691,-0.0013847996282708,0.0013847985452163,-0.0013847970371347,0.0013848011599249,-0.0014801573687619,0.0014801542576715,-0.0014801532846641,0.0014801584452664,-9.0722744599597e-09,9.4984564879684e-09,-0.0010951697063448,0.0010951701101701,1.5502900040832e-09,-1.1543160931793e-09,-0.0011856351252924,0.0011856302308687,-0.0011856360259616,0.0011856293483912,-0.001185628911445,0.0011856364218757,-0.0011856298537964,0.0011856355001784,-0.0011735938866969,0.0011736115029999,-0.0011736120034173,0.0011735934116765,0.68665557998044,125803,2834,0.0062586286865414,0.0062586286867212,0.0045544278080664,37.672276044309,6.1378208354476e-05,6.1378208354476e-05,6.1378208354476e-05,2318476.7875976,0.017218973030862
37619200,0.99954435500318,0.016729139955549,0.0060113454601015,0.0060113454603699,0.004706449035078,-0.0015075991052789,0.0015075990197962,9.4229954338989e-09,-9.5056322185783e-09,1.9504112867446e-09,-2.0927142324873e-09,-0.0015830516618383,0.0015830592167167,-0.0015830579554828,0.0015830528901255,-0.0015830529288469,0.0015830578773645,-0.0015830592562189,0.0015830515321816,-0.0013854482573506,0.0013854653927066,-0.0013854668017439,0.0013854467958195,-1.9514502033005e-09,2.1083138219565e-09,-1.3475947085896e-09,1.4451761313244e-09,-0.0015075990126029,0.0015075991125641,-0.0015830564831275,0.0015830543142545,-0.001583055549746,0.0015830552468659,-0.0015830551798589,0.0015830556814465,-0.0015830542744372,0.0015830565897068,-0.0013854574463138,0.0013854561778409,-0.0013854547344983,0.0013854589141027,-0.0014808331356367,0.0014808302102353,-0.0014808292074144,0.0014808342405593,-9.1312662855215e-09,9.5502507456894e-09,-0.0010958119289835,0.0010958123255334,1.6091957372484e-09,-1.2211740624293e-09,-0.0011862782069156,0.0011862733100932,-0.0011862791491552,0.0011862723858404,-0.0011862719559269,0.0011862795382519,-0.0011862729403962,0.0011862785743991,-0.0011742598851434,0.0011742775599692,-0.0011742781092349,0.0011742593607,0.66415284871397,125803,2834,0.0062614329015987,0.0062614329017873,0.0045570920674413,38.002459459232,6.4019675673858e-05,6.4019675673858e-05,6.4019675673858e-05,2320816.0357319,0.017227388243082
37819200,0.99957710489188,0.016729629618664,0.0060115243831372,0.0060115243834056,0.0047065808521209,-0.0015072247823008,0.0015072246918778,9.4691412040596e-09,-9.5566490788718e-09,1.9836059649641e-09,-2.1312178372286e-09,-0.0015827019597377,0.0015827095661802,-0.001582708286003,0.0015827032068918,-0.0015827032505645,0.0015827082026,-0.0015827096101704,0.00158270182526,-0.0013850468574359,0.0013850640586253,-0.001385065496301,0.001385045367293,-1.9945821066505e-09,2.1584092428422e-09,-1.3632483755911e-09,1.4672659661606e-09,-0.001507224683904,0.0015072247903553,-0.0015827068249716,0.0015827046193597,-0.0015827058793485,0.0015827055642985,-0.0015827054912082,0.0015827060173339,-0.0015827045731849,0.0015827069384891,-0.0013850560793583,0.0013850548104722,-0.0013850533300345,0.0013850575846718,-0.0014804524390459,0.0014804494403976,-0.0014804484187291,0.0014804535636891,-9.1923052209156e-09,9.6101146313594e-09,-0.0010954781250973,0.0010954785204549,1.6212590160029e-09,-1.2345881248172e-09,-0.0011859028236818,0.0011858978941807,-0.001185903774669,0.0011858969611686,-0.0011858965326217,0.0011859041623326,-0.0011858975253952,0.0011859031902571,-0.001173921361106,0.0011739391452242,-0.0011739397043189,0.0011739208270533,0.64016140305348,125803,2834,0.0062598836336548,0.0062598836338206,0.0045557057521738,37.804583813915,6.2436670511322e-05,6.2436670511322e-05,6.2436670511322e-05,2324157.4840335,0.017222825918443
38019200,0.9996071186901,0.01673009719402,0.0060116946940828,0.0060116946943511,0.0047067078055858,-0.0015067276184986,0.0015067275211119,9.5048648566089e-09,-9.5991565911788e-09,2.0307016017541e-09,-2.1858002631259e-09,-0.0015822345318552,0.0015822421927938,-0.0015822408858171,0.0015822358065916,-0.0015822358582338,0.0015822407954929,-0.0015822422439358,0.0015822343915209,-0.0013845156704373,0.0013845329048779,-0.0013845343824349,0.0013845141391237,-2.0653162062429e-09,2.2435749762106e-09,-1.3716430238168e-09,1.4894585634456e-09,-0.0015067275101616,0.0015067276297631,-0.0015822394483662,0.0015822371944041,-0.0015822384944161,0.0015822381498691,-0.0015822380652068,0.0015822386444205,-0.0015822371358066,0.0015822395749344,-0.001384524893642,0.0013845236577303,-0.0013845221116816,0.0013845264638154,-0.0014799530856832,0.0014799499527261,-0.0014799489103922,0.0014799542362549,-9.2624234013527e-09,9.6798689253548e-09,-0.0010950690244112,0.0010950694194127,1.6227877886529e-09,-1.2365969622243e-09,-0.001185412291635,0.0011854073177928,-0.0011854132463249,0.0011854063846863,-0.0011854059561213,0.0011854136324414,-0.0011854069494299,0.0011854126592071,-0.0011735064453304,0.0011735243669657,-0.001173524928589,0.001173505910183,0.66569812580188,125803,2834,0.0062578262832244,0.0062578262838737,0.004554005775882,37.560465492885,6.0483723943078e-05,6.0483723943078e-05,6.0483723943078e-05,2329558.0282282,0.017216910466703
38219200,0.99963464881214,0.016730529415584,0.0060118520143571,0.0060118520146254,0.004706825386601,-0.001506259935258,0.0015062598249199,9.5752724522346e-09,-9.6825196738468e-09,2.1113382332427e-09,-2.2802703079544e-09,-0.0015817830407174,0.0015817907961096,-0.0015817894440467,0.0015817843598094,-0.0015817844223806,0.0015817893407626,-0.0015817908595778,0.0015817828857117,-0.0013840288975613,0.0013840462155801,-0.0013840477644327,0.0013840272959984,-2.1048841150587e-09,2.2874650563354e-09,-1.3650011358061e-09,1.4863939523468e-09,-0.0015062598181769,0.0015062599421028,-0.0015817880145877,0.0015817857394874,-0.0015817870619153,0.0015817866918751,-0.0015817866017276,0.0015817872178274,-0.0015817856769738,0.0015817881455234,-0.0013840381396179,0.0013840369478418,-0.0013840353706026,0.0013840397416264,-0.0014794857947577,0.0014794825864993,-0.001479481540599,0.0014794869452676,-9.2952395014737e-09,9.7113232944454e-09,-0.0010946554552705,0.001094655848886,1.6387226063367e-09,-1.2540180570228e-09,-0.001184953200965,0.0011849482136189,-0.0011849541641478,0.0011849472689125,-0.0011849468415308,0.0011849545501929,-0.0011849478468468,0.0011849535655597,-0.0011730912993792,0.0011731092684103,-0.0011731098421036,0.0011730907520016,0.67076170460107,125803,2834,0.0062558903579515,0.0062558903581609,0.004552288965832,37.314935834043,5.8519486672345e-05,5.8519486672345e-05,5.8519486672345e-05,2330094.7848946,0.017211225297141
38419200,0.99966009317388,0.016730955012421,0.006012006280854,0.0060120062811223,0.0047069424504444,-0.0015060466334071,0.0015060465192937,9.6147077524544e-09,-9.7256823710795e-09,2.1350281434146e-09,-2.3080146285021e-09,-0.0015815810406814,0.001581588837821,-0.0015815874723234,0.0015815823731604,-0.0015815824400451,0.0015815873644934,-0.001581588904202,0.001581580882561,-0.0013838004182408,0.0013838177942686,-0.0013838193639953,0.0013837987959009,-2.1483713738469e-09,2.3383256281934e-09,-1.3796500034231e-09,1.5079006570634e-09,-0.0015060465109873,0.0015060466418139,-0.0015815860530232,0.0015815837423392,-0.0015815850891586,0.0015815847060142,-0.001581584609869,0.0015815852513107,-0.0015815836725972,0.0015815861918003,-0.0013838096890148,0.0013838084977703,-0.0013838068827033,0.0013838113292801,-0.0014792754192056,0.0014792721350132,-0.0014792710704601,0.0014792765893138,-9.3632450330178e-09,9.7788321229794e-09,-0.0010944766658282,0.0010944770589301,1.6449082664573e-09,-1.2608012887629e-09,-0.0011847405249427,0.0011847354970721,-0.0011847414932225,0.0011847345473321,-0.0011847341211138,0.0011847418780288,-0.0011847351301379,0.0011847408898042,-0.0011729173657022,0.0011729354645933,-0.001172936043103,0.0011729168133974,0.71253731097659,125803,2834,0.0062550075284285,0.006255007528635,0.0045515466043465,37.196921742505,5.7575373940044e-05,5.7575373940044e-05,5.7575373940044e-05,2330229.0724518,0.017208673878828
38619200,0.99968376188848,0.016731353057603,0.0060121505288068,0.0060121505290751,0.0047070519997207,-0.0015061060194381,0.0015061059015454,9.6366457459109e-09,-9.7513957878464e-09,2.1609673552248e-09,-2.3379531411952e-09,-0.0015816325007079,0.0015816403295721,-0.0015816389498494,0.001581633847764,-0.0015816339190894,0.0015816388379421,-0.0015816403991654,0.0015816323389812,-0.0013838645820272,0.0013838819801563,-0.0013838835733681,0.0013838629355617,-2.1405685623939e-09,2.3317509403142e-09,-1.3989941921104e-09,1.5278990241307e-09,-0.0015061058950267,0.0015061060261944,-0.0015816375326893,0.0015816352137268,-0.0015816365575764,0.0015816361906276,-0.0015816360954865,0.0015816367188311,-0.001581635143906,0.0015816376711856,-0.001383873887125,0.0013838726502963,-0.0013838710409089,0.0013838755222453,-0.001479339812482,0.0014793365582426,-0.0014793354799293,0.0014793410017097,-9.4492852084875e-09,9.863334132501e-09,-0.0010944954825053,0.0010944958739542,1.6580501336183e-09,-1.2757949677724e-09,-0.0011847876204113,0.001184782545001,-0.0011847885991752,0.0011847815853489,-0.0011847811612645,0.0011847889816415,-0.0011847821793335,0.0011847879840027,-0.001172950305828,0.0011729685613612,-0.0011729691525844,0.0011729497444218,0.71625964875821,125803,2834,0.0062552527944111,0.0062552527949009,0.0045516265100915,37.19374491158,5.7549959292643e-05,5.7549959292643e-05,5.7549959292643e-05,2324958.1692739,0.017209254443507
38819200,0.9997057826092,0.016731724646899,0.0060122851774905,0.0060122851777588,0.0047071542916499,-0.0015061712602005,0.0015061711440778,9.7403448210929e-09,-9.8533138900243e-09,2.1489691754668e-09,-2.324127205568e-09,-0.001581689248091,0.0015816971373889,-0.0015816957638672,0.0015816905885875,-0.001581690656943,0.0015816956548066,-0.0015816972063722,0.0015816890873892,-0.0013839359048018,0.0013839535187667,-0.0013839551003259,0.0013839342704893,-2.1566825891214e-09,2.348424837954e-09,-1.4035713670393e-09,1.5334925493001e-09,-0.0015061711360313,0.0015061712684288,-0.0015816943172116,0.0015816919849225,-0.0015816933366795,0.0015816929658283,-0.0015816928676127,0.0015816935008257,-0.0015816919144753,0.0015816944568657,-0.001383945314098,0.001383944083879,-0.0013839424615195,0.0013839469627031,-0.0014794086817056,0.001479405399405,-0.0014794043175787,0.0014794098712576,-9.4562087105126e-09,9.8687952696081e-09,-0.001094512415313,0.0010945128053166,1.67578152033e-09,-1.2951222331134e-09,-0.0011848382171734,0.0011848331466779,-0.001184839206948,0.0011848321760539,-0.0011848317522222,0.0011848395891428,-0.0011848327835455,0.0011848385784127,-0.0011729795360351,0.0011729977875022,-0.001172998390906,0.0011729789592928,0.71844598501161,125803,2834,0.0062555222752394,0.0062555222756143,0.0045516986235557,37.193614392195,5.7548915137558e-05,5.7548915137558e-05,5.7548915137558e-05,2320097.0043146,0.017209876385321
38880000,0.99971232800612,0.016731835225372,0.00601232524448,0.0060123252447484,0.0047071847361437,-0.0015061913674394,0.0015061912504327,9.7215796538853e-09,-9.835441387664e-09,2.1541155561308e-09,-2.3301820302444e-09,-0.0015817064101091,0.0015817142905036,-0.0015817129142479,0.0015817077533009,-0.0015817078232306,0.0015817128032895,-0.0015817143594149,0.0015817062491967,-0.0013839583322542,0.0013839759033015,-0.0013839774896886,0.0013839566931609,-2.144399335837e-09,2.3337181518007e-09,-1.4087233966734e-09,1.5363169961034e-09,-0.0015061912439169,0.0015061913740692,-0.0015817114723267,0.0015817091448564,-0.0015817104898628,0.0015817101275758,-0.0015817100322406,0.0015817106509097,-0.0015817090757196,0.0015817116106447,-0.001383967730751,0.0013839664789242,-0.0013839648677418,0.0013839693676666,-0.0014794297194694,0.0014794264620366,-0.0014794253788634,0.0014794309084681,-9.507517536459e-09,9.9205756081661e-09,-0.001094515546362,0.0010945159368815,1.6724763528925e-09,-1.2912764373802e-09,-0.0011848528989851,0.00118484779287,-0.0011848538868638,0.0011848468235658,-0.0011848464000995,0.0011848542688946,-0.0011848474281974,0.0011848532614554,-0.0011729863752771,0.0011730047327315,-0.0011730053333851,0.00117298580145,0.71909628802487,125803,2834,0.0062556053158748,0.0062556053161093,0.0045517122032194,37.193609218024,5.7548873744195e-05,5.7548873744195e-05,5.7548873744195e-05,2318606.4255633,0.017210059249431
