time,ASR_ext,ASR_strain,ASR_strain_xx,ASR_strain_yy,ASR_strain_zz,disp_x_101,disp_x_102,disp_x_103,disp_x_104,disp_x_105,disp_x_106,disp_x_p1_neg,disp_x_p1_pos,disp_x_p2_neg,disp_x_p2_pos,disp_x_p3_neg,disp_x_p3_pos,disp_x_p4_neg,disp_x_p4_pos,disp_x_p5_neg,disp_x_p5_pos,disp_x_p6_neg,disp_x_p6_pos,disp_y_101,disp_y_102,disp_y_103,disp_y_104,disp_y_105,disp_y_106,disp_y_p1_neg,disp_y_p1_pos,disp_y_p2_neg,disp_y_p2_pos,disp_y_p3_neg,disp_y_p3_pos,disp_y_p4_neg,disp_y_p4_pos,disp_y_p5_neg,disp_y_p5_pos,disp_y_p6_neg,disp_y_p6_pos,disp_y_p7_neg,disp_y_p7_pos,disp_y_p8_neg,disp_y_p8_pos,disp_z_101,disp_z_102,disp_z_103,disp_z_104,disp_z_105,disp_z_106,disp_z_p1_neg,disp_z_p1_pos,disp_z_p2_neg,disp_z_p2_pos,disp_z_p3_neg,disp_z_p3_pos,disp_z_p4_neg,disp_z_p4_pos,disp_z_p5_neg,disp_z_p5_pos,disp_z_p6_neg,disp_z_p6_pos,humidity,ndof,nelem,strain_xx,strain_yy,strain_zz,temp,thermal_strain_xx,thermal_strain_yy,thermal_strain_zz,vonmises,vstrain
2419200,0,0,0,0,0,0,0,0,0,0,0,0,0,0,0,0,0,0,0,0,0,0,0,0,0,0,0,0,0,0,0,0,0,0,0,0,0,0,0,0,0,0,0,0,0,0,0,0,0,0,0,0,0,0,0,0,0,0,0,0,0,0,0,0,0,0,0,0,0,0,0,0,0,0,0
2619200,0.019499497592266,0.00040003166361534,0.00013334388787178,0.00013334388787178,0.00013334388787178,-3.5102767617465e-05,3.5106614392461e-05,1.9028644820389e-09,1.9209659087053e-09,-3.7829689651412e-09,7.789756778636e-09,-3.4381813336933e-05,3.4381831062892e-05,-3.4381773385289e-05,3.4381803113509e-05,-3.437809904598e-05,3.4385676912002e-05,-3.4378095316344e-05,3.4385685303171e-05,-3.5533953127632e-05,3.5541591185662e-05,-3.5533926472935e-05,3.5541600455202e-05,3.7829809079087e-09,-7.7897557437618e-09,-1.0053887385064e-08,6.2300740305374e-09,-3.5106614396082e-05,3.5102767613496e-05,-3.4384506839229e-05,3.4379146250999e-05,-3.4379295301623e-05,3.438460833643e-05,-3.4388202984476e-05,3.4375282179828e-05,-3.4382991342057e-05,3.4380744278432e-05,-3.5549442824848e-05,3.5525808037205e-05,-3.5533688158945e-05,3.5542010950952e-05,-3.5734446346689e-05,3.5747298297072e-05,-3.5745721062517e-05,3.573572980315e-05,-2.0728091686741e-09,-2.0909008888469e-09,-3.3895191957369e-05,3.389099691145e-05,5.8312480627577e-09,-1.0275786855828e-08,-3.3378044840061e-05,3.3379267502281e-05,-3.3383378150872e-05,3.3373917618166e-05,-3.3378059097992e-05,3.337926960736e-05,-3.3383392379769e-05,3.3373919825648e-05,-3.4864978862869e-05,3.4855431922224e-05,-3.4864926641753e-05,3.4855414691963e-05,0.81992964401734,125803,2834,0.00014625879530461,0.00014625879530446,0.00014121121504019,31.500576726269,1.2004613810152e-05,1.2004613810152e-05,1.2004613810152e-05,452302.35443618,0.0004338230980425
2819200,0.041096026866457,0.00084129363157654,0.00028108483507094,0.0002810848350515,0.00027912396145411,-7.318611121375e-05,7.3184995586808e-05,-4.6448487778008e-10,-6.7107489641668e-10,-1.4110029807356e-09,3.1168045258568e-10,-7.2449083879124e-05,7.2447462199376e-05,-7.2449111458135e-05,7.2447353979544e-05,-7.2448485702244e-05,7.2448024579731e-05,-7.2448546291255e-05,7.2447945505396e-05,-7.3603435933596e-05,7.3603085334087e-05,-7.3603598658366e-05,7.3602838156678e-05,1.4296692317996e-09,-3.5019877289015e-10,-5.9074831950274e-09,7.0239319491618e-09,-7.3185005148935e-05,7.3186101642362e-05,-7.244950093517e-05,7.2446932486454e-05,-7.2445311434518e-05,7.2451258412959e-05,-7.24500997143e-05,7.2446337208951e-05,-7.2445912129199e-05,7.2450661190689e-05,-7.3609237763708e-05,7.3597071401588e-05,-7.3596720276615e-05,7.3609920894862e-05,-7.4023033300973e-05,7.4030160756048e-05,-7.4024783132491e-05,7.4028371153309e-05,-6.7184059771789e-10,-4.7549578076485e-10,-7.0114208522687e-05,7.0113013255719e-05,5.7267241999273e-09,-7.1131835429173e-09,-7.0018912321519e-05,7.0021966769431e-05,-7.0023182986849e-05,7.0017684122284e-05,-7.0018851645845e-05,7.002203895685e-05,-7.0023124161448e-05,7.0017754208696e-05,-7.1766983918637e-05,7.1761730382283e-05,-7.1767141413028e-05,7.1761508676386e-05,0.82138487989603,125803,2834,0.00030489320006446,0.00030489320004553,0.00029209736469236,32.734019625943,2.1872157007544e-05,2.1872157007544e-05,2.1872157007544e-05,481881.77526175,0.00090229095965395
3019200,0.062583865569967,0.0012796894373449,0.00042889190798665,0.00042889190796988,0.00042190562138835,-0.00010844928049772,0.00010844774619453,-5.5663571320885e-10,-9.8185641980961e-10,1.369748139289e-10,-1.7053885221138e-09,-0.00010756729368685,0.0001075665038105,-0.00010756740192573,0.00010756632952502,-0.00010756784829348,0.00010756587907793,-0.00010756798229506,0.00010756572901501,-0.00010882788892661,0.00010882616280255,-0.0001088282698794,0.0001088257098493,-1.279919627459e-10,1.700282385687e-09,-3.926180450129e-09,5.4687930870367e-09,-0.00010844774411796,0.00010844928256617,-0.00010756793052854,0.00010756576158057,-0.00010756485138853,0.00010756889528484,-0.00010756736477136,0.0001075663723821,-0.000107564286364,0.00010756950527514,-0.00010883049907713,0.00010882342658711,-0.00010882138662498,0.00010883274631378,-0.0001095671594514,0.000109570016768,-0.00010956539247932,0.0001095718521263,-2.1747427021549e-10,2.0175491566185e-10,-0.00010281266585532,0.00010281260992311,4.5670693482622e-09,-4.7583658419971e-09,-0.00010305212513251,0.00010305506864486,-0.00010305524283368,0.00010305195466778,-0.00010305198184118,0.00010305520657545,-0.00010305510133604,0.00010305209164242,-0.00010541838452732,0.00010541564996304,-0.0001054187896466,0.00010541523732864,0.82013322452841,125803,2834,0.0004517664920788,0.00045176649206208,0.0004282943600126,32.492053941723,1.9936431533786e-05,1.9936431533786e-05,1.9936431533786e-05,620418.02076196,0.0013327152832872
3219200,0.08385713518074,0.0017063742431535,0.00057375772813186,0.00057375772811577,0.0005588587869059,-0.00014293055614229,0.00014292949675801,-2.0619315800674e-10,-8.5283792137956e-10,5.7403220165145e-10,-1.6672013530916e-09,-0.00014210591030474,0.00014210580298005,-0.0001421060969561,0.00014210555954368,-0.00014210660956963,0.00014210504753727,-0.00014210681775856,0.00014210482397853,-0.00014290531040753,0.00014290413989291,-0.00014290591678103,0.0001429034784737,-5.6191088611108e-10,1.6517435438944e-09,-3.0383878077693e-09,4.0945190307027e-09,-0.00014292949820309,0.00014293055468945,-0.00014210683796204,0.00014210480173635,-0.00014210448464026,0.00014210717495801,-0.00014210613482922,0.00014210553996469,-0.00014210378224906,0.00014210791226162,-0.00014290728255144,0.0001429020795388,-0.0001429003554206,0.00014290914488695,-0.00014414255481634,0.00014414379515446,-0.0001441404112398,0.00014414601867429,-1.1221176961664e-10,5.2709726808439e-10,-0.00013400762021755,0.00013400800371217,3.6810315770132e-09,-3.3997816171306e-09,-0.00013475027346897,0.00013475283345017,-0.0001347526514317,0.00013475046855087,-0.00013475005183927,0.00013475303991803,-0.0001347524319886,0.00013475067398463,-0.00013758067862524,0.00013757933816166,-0.00013758131191772,0.00013757872346507,0.80675911532657,125803,2834,0.00059536409927518,0.00059536409925914,0.00055821047947817,32.204498434169,1.7635987473349e-05,1.7635987473349e-05,1.7635987473349e-05,707702.37338053,0.0017504698156207
3419200,0.10488864620507,0.0021172430428895,0.00071446493646746,0.00071446493645445,0.00068831316996758,-0.00017641817419298,0.00017641749219319,9.2205683584071e-11,-7.7470170548291e-10,5.4468814630543e-10,-1.2516517694564e-09,-0.00017595359030186,0.00017595378969765,-0.00017595385283936,0.00017595347503904,-0.00017595415742622,0.000175953184123,-0.00017595443820787,0.00017595288649872,-0.00017546462926265,0.00017546419252466,-0.00017546545566988,0.00017546332042144,-5.3558399679124e-10,1.24343192087e-09,-2.5194404596886e-09,3.2031401686995e-09,-0.0001764174915842,0.00017641817479573,-0.00017595456691074,0.00017595276385964,-0.00017595267234863,0.00017595466336103,-0.00017595399383712,0.00017595335766731,-0.0001759520997364,0.00017595525641373,-0.00017546654071548,0.00017546221045519,-0.00017546097782155,0.00017546787297795,-0.00017743463097236,0.0001774354524948,-0.00017743291035453,0.0001774372414391,-9.4046034417325e-11,7.6649519160539e-10,-0.00016339897371351,0.00016339962038788,3.1268673172189e-09,-2.5611580908062e-09,-0.00016490436524604,0.00016490664881982,-0.00016490628228192,0.00016490474876285,-0.0001649040678,0.00016490692690259,-0.00016490598713989,0.00016490502592825,-0.00016782862400405,0.0001678282230316,-0.00016782947680468,0.0001678273945039,0.78589834586084,125803,2834,0.00073480368459592,0.00073480368458299,0.00068059979860755,31.915036321568,1.5320290572546e-05,1.5320290572546e-05,1.5320290572546e-05,792741.40436531,0.0021525213358213
3619200,0.12619087471698,0.0025242854963738,0.00085507775868786,0.00085507775867357,0.00081412997901238,-0.00021059902689095,0.00021059867032844,3.6378510135751e-10,-7.2256340348548e-10,3.2063675964944e-10,-6.9380925797842e-10,-0.00021083602646979,0.00021083636898741,-0.00021083636234035,0.00021083598128059,-0.00021083634849517,0.00021083602461924,-0.00021083670106014,0.00021083565264233,-0.00020818876010694,0.00020818911899243,-0.00020818980141999,0.00020818803230075,-3.1133598018628e-10,6.8522869870264e-10,-2.5091419786968e-09,2.8689693295142e-09,-0.00021059866979373,0.00021059902741879,-0.00021083705956489,0.00021083530184082,-0.00021083528005026,0.0002108370855944,-0.00021083673239471,0.00021083563500412,-0.00021083495326098,0.00021083741817314,-0.00020819118991179,0.00020818661509784,-0.00020818596279319,0.00020819194004155,-0.00021125084470243,0.00021125199425844,-0.00021124988891505,0.00021125300245516,-1.9440864369706e-10,8.875393168934e-10,-0.00019258491227713,0.00019258557996251,2.9712009483395e-09,-2.3777282790005e-09,-0.0001950170665296,0.00019501918212452,-0.00019501886966426,0.00019501739580586,-0.00019501669534278,0.00019501953399273,-0.00019501850077037,0.00019501774690635,-0.00019787301445466,0.00019787296533378,-0.00019787408259301,0.00019787191826669,0.77011573280551,125803,2834,0.00087710958885444,0.00087710958884021,0.00080211878036713,31.993724503723,1.5949796029785e-05,1.5949796029785e-05,1.5949796029785e-05,959304.64906108,0.0025596089232769
3819200,0.148096977923,0.0029416953801807,0.00099999361606817,0.00099999361605868,0.0009417081480538,-0.00024630887095286,0.00024630874285456,5.8643805610229e-10,-7.1739640826011e-10,9.2799186173562e-11,-2.2869648711166e-10,-0.00024742113378747,0.00024742154544227,-0.00024742153961608,0.00024742108980826,-0.00024742123158842,0.00024742143587697,-0.00024742166035279,0.00024742098794153,-0.0002421811564362,0.00024218219775121,-0.00024218242165262,0.00024218088792373,-1.9109194971328e-10,4.3763998996784e-10,-2.6878445148005e-09,2.9256141721019e-09,-0.00024630868941603,0.00024630892438686,-0.00024742224592477,0.00024742040703773,-0.0002474203853303,0.00024742227201543,-0.00024742203414345,0.00024742062069721,-0.00024742018126707,0.00024742247815606,-0.00024218415885985,0.00024217912033406,-0.0002421787105347,0.00024218466632193,-0.00024664207277731,0.00024664354793219,-0.00024664148670949,0.00024664418096945,-3.1823179153192e-10,9.8682276281551e-10,-0.00022261719074963,0.00022261783322884,3.0382378333126e-09,-2.4657861612062e-09,-0.00022591053806417,0.00022591260008235,-0.00022591238892144,0.00022591076542158,-0.00022591008985558,0.0002259130309213,-0.00022591195088983,0.00022591118923506,-0.00022905356562451,0.00022905364884675,-0.00022905483542881,0.00022905238743411,0.77140159016911,125803,2834,0.0010257591371033,0.0010257591370939,0.00092714652321374,32.324510534483,1.8596084275867e-05,1.8596084275867e-05,1.8596084275867e-05,1138566.6709697,0.0029831063060369
4019200,0.17059737629213,0.0033699174949009,0.0011492902807063,0.0011492902807584,0.0010713369334362,-0.00028310351315198,0.00028310351701757,7.6283689687114e-10,-7.6165302428763e-10,9.5146892886557e-11,-9.4720173481366e-11,-0.00028524346160884,0.00028524402158624,-0.00028524394066666,0.00028524349298142,-0.00028524350594685,0.00028524396794992,-0.00028524400848443,0.00028524344631663,-0.00027708683083461,0.00027708826395085,-0.00027708831027776,0.00027708673922462,-1.45673154741e-10,2.7801306102021e-10,-2.8888114418188e-09,3.0154833352576e-09,-0.00028310345350354,0.00028310357669082,-0.00028524472502289,0.00028524273312274,-0.00028524276827104,0.00028524469689602,-0.00028524456841937,0.00028524288974271,-0.00028524261960072,0.00028524484494279,-0.00027709026047484,0.00027708475599654,-0.00027708452589356,0.00027709059143497,-0.00028309549979253,0.00028309715611575,-0.00028309510550909,0.00028309758676996,-4.6997185541016e-10,1.055037716469e-09,-0.00025310500788323,0.00025310556540936,3.1501559461537e-09,-2.6626078360349e-09,-0.00025727033020838,0.00025727233346675,-0.00025727228166288,0.00025727039740297,-0.00025726980850879,0.00025727283739357,-0.00025727177055493,0.00025727089539815,-0.00026092940377745,0.00026092951871884,-0.00026093088779607,0.00026092803777644,0.77299483230007,125803,2834,0.001178900792858,0.0011789007929097,0.0010540552453069,32.661973899194,2.129579119355e-05,2.129579119355e-05,2.129579119355e-05,1296998.0609541,0.0034176850870081
4219200,0.19366640867435,0.0038090283720384,0.0013029758270744,0.0013029758271324,0.0012030767178316,-0.00032098565052791,0.00032098571674243,9.0447082916938e-10,-8.4068372133644e-10,1.4462411433258e-10,-8.1302975235209e-11,-0.00032425514557188,0.00032425585040384,-0.00032425569800827,0.00032425524756858,-0.00032425519897338,0.00032425578687542,-0.00032425577469635,0.00032425519198281,-0.00031294843903045,0.00031295013762274,-0.00031295013110592,0.00031294839600223,-1.7327420845952e-10,2.5376999681075e-10,-3.0602983517062e-09,3.1353658217833e-09,-0.00032098564776706,0.00032098571953077,-0.000324256555296,0.00032425441284964,-0.00032425450464515,0.00032425647441303,-0.00032425639572447,0.00032425457281294,-0.00032425435241398,0.00032425662637547,-0.00031295216795234,0.0003129463254936,-0.00031294614844572,0.00031295245092808,-0.00032063652669365,0.00032063821869034,-0.0003206361226809,0.00032063865776449,-6.3056611890793e-10,1.1143965895227e-09,-0.0002840487654624,0.00028404921955003,3.2467870866029e-09,-2.86452213546e-09,-0.00028911121550081,0.00028911313968542,-0.0002891132669057,0.00028911110492426,-0.0002891106206404,0.00028911371626038,-0.00028911268123661,0.00028911167602173,-0.0002934882827617,0.00029348841427888,-0.00029348998205449,0.00029348671508992,0.77488671277525,125803,2834,0.0013365437011423,0.0013365437011996,0.0011828462248316,32.999709427205,2.3997675417639e-05,2.3997675417639e-05,2.3997675417639e-05,1438912.9063069,0.0038633791590421
4419200,0.217673194758,0.0042660062610072,0.0014635102189677,0.0014635102190298,0.0013389858230097,-0.00036111209826814,0.00036111222027008,1.0342559092507e-09,-9.1427554209801e-10,1.39163427344e-10,-1.8619558317627e-11,-0.00036556726540128,0.00036556807400403,-0.00036556788762949,0.00036556739910116,-0.00036556730069686,0.00036556803085252,-0.00036556794090205,0.00036556737097214,-0.00035099687777098,0.000350998844039,-0.00035099875728519,0.00035099690976219,-1.6104008348305e-10,1.7616803793899e-10,-3.2765224037903e-09,3.2881212411311e-09,-0.00036111215506406,0.00036111216350563,-0.00036556880335484,0.00036556650776554,-0.0003655666364884,0.00036556869036339,-0.00036556867358691,0.00036556663503728,-0.00036556650773065,0.00036556881569473,-0.0003510009681507,0.00035099466196929,-0.00035099458260509,0.00035100116274535,-0.00036040215567334,0.00036040398194108,-0.0003604018281686,0.00036040434154953,-8.1343387479433e-10,1.1687722196933e-09,-0.00031637685309383,0.00031637717644897,3.367447215879e-09,-3.1205024701996e-09,-0.00032254555754418,0.00032254739995064,-0.00032254773799816,0.00032254523793767,-0.00032254488721584,0.00032254805261318,-0.00032254706937819,0.0003225458904986,-0.00032761764210535,0.0003276177615672,-0.00032761958197195,0.00032761581920065,0.77612066355194,125803,2834,0.0015034986073085,0.001503498607374,0.0013173822729293,33.59325764562,2.8746061164957e-05,2.8746061164957e-05,2.8746061164957e-05,1569631.7381653,0.0043337458332627
4619200,0.2427568979631,0.0047435489122373,0.0016320398136671,0.0016320398137004,0.0014794692848698,-0.0004035496088695,0.0004035497664121,1.185160197493e-09,-1.0293236317373e-09,1.2219556587699e-10,3.5210567179578e-11,-0.00040930557074995,0.00040930647285469,-0.00040930627283737,0.00040930571605388,-0.00040930557709417,0.00040930646048517,-0.00040930631253727,0.00040930570489903,-0.00039109789846941,0.00039110020530141,-0.00039110005984278,0.00039109798645248,-1.3831884511599e-10,1.1066034642579e-10,-3.4568801997523e-09,3.4271602889421e-09,-0.00040354970406528,0.00040354967123712,-0.0004093072173732,0.00040930479710199,-0.00040930494046814,0.00040930709450658,-0.00040930710783508,0.00040930490190775,-0.00040930484618827,0.00040930718243414,-0.0003911023365405,0.00039109566892513,-0.00039109566540736,0.00039110246392323,-0.00040255877746119,0.00040256077708629,-0.00040255855969879,0.00040256102496289,-9.5001899981027e-10,1.2068931122586e-09,-0.00034982725601027,0.0003498274793267,3.4681698556289e-09,-3.3254527889396e-09,-0.00035718675350557,0.00035718853140185,-0.00035718902843165,0.00035718627629744,-0.00035718601729595,0.0003571892511506,-0.0003571883083937,0.00035718697922889,-0.00036318630578608,0.00036318637290873,-0.00036318839246863,0.00036318428043545,0.77693644963518,125803,2834,0.0016800384468737,0.0016800384469171,0.0014565714715286,34.29084911567,3.4326792925357e-05,3.4326792925357e-05,3.4326792925357e-05,1681765.1848806,0.0048282709143036
4819200,0.26888748279431,0.0052414770581303,0.0018088660531869,0.0018088660531122,0.0016237449518312,-0.00044805321375154,0.00044805338373215,1.3020314155252e-09,-1.1335588715987e-09,1.1568723198153e-10,5.4599347218598e-11,-0.00045514317531126,0.00045514415515468,-0.00045514395025373,0.00045514332378238,-0.00045514317210577,0.00045514415192589,-0.00045514398314222,0.00045514332085879,-0.00043299691760661,0.00043299946141346,-0.00043299929580065,0.00043299702485221,-1.3077180167299e-10,8.703156725797e-11,-3.564857759221e-09,3.5195257148364e-09,-0.0004480533229482,0.00044805327449279,-0.00045514489638142,0.00045514240331544,-0.00045514255368386,0.00045514476928008,-0.0004551447951129,0.00045514249829289,-0.00045514246997088,0.00045514484602889,-0.00043300158331451,0.00043299469301497,-0.00043299471929716,0.00043300168716147,-0.00044692160789534,0.000446923690809,-0.0004469214211845,0.00044692390316857,-1.0928225358637e-09,1.2834543925552e-09,-0.00038406652546546,0.00038406668146221,3.5327876728213e-09,-3.4604604132521e-09,-0.00039271570703323,0.00039271741190534,-0.00039271804767362,0.00039271509077737,-0.00039271489877046,0.0003927182039864,-0.00039271725561929,0.00039271586571598,-0.0003998810558344,0.0003998812033978,-0.00039988335439693,0.00039987889558884,0.77792177892539,125803,2834,0.001865139231319,0.0018651392312302,0.0015990251327881,34.991240533242,3.9929924265935e-05,3.9929924265935e-05,3.9929924265935e-05,1791963.9690818,0.0053435348288001
5019200,0.29601422365683,0.005757452358111,0.0019933160864929,0.0019933160863662,0.0017708201852519,-0.00049441707242981,0.00049441724628653,1.4123677363557e-09,-1.2398682629933e-09,1.12288875049e-10,6.2011917504958e-11,-0.00050290601915702,0.00050290707316011,-0.00050290686718484,0.00050290616759212,-0.00050290601312479,0.00050290707265505,-0.00050290689658936,0.00050290616926267,-0.00047646351960764,0.00047646627944875,-0.00047646610716733,0.00047646363298285,-1.2673342921897e-10,7.7280649218426e-11,-3.6327347877694e-09,3.5818337170241e-09,-0.00049441718627444,0.0004944171323739,-0.00050290779838358,0.00050290526202514,-0.00050290541442839,0.00050290767146938,-0.00050290770192184,0.00050290535149382,-0.00050290533436535,0.00050290774408033,-0.0004764683624443,0.00047646133068126,-0.00047646136977466,0.00047646845820582,-0.00049323357514391,0.00049323570695899,-0.00049323339878919,0.0004932359062356,-1.2272514045005e-09,1.3728854343218e-09,-0.00041889605774084,0.00041889616808179,3.5740888641204e-09,-3.5498549412768e-09,-0.00042896008101009,0.00042896171050825,-0.00042896246536957,0.00042895934571206,-0.00042895919950085,0.00042896257633456,-0.00042896159870305,0.00042896019514374,-0.00043743848910179,0.0004374387678883,-0.00043744100630773,0.00043743623884731,0.77677324640218,125803,2834,0.0020579401944255,0.0020579401942842,0.0017439161866115,35.691746563609,4.5533972508875e-05,4.5533972508875e-05,4.5533972508875e-05,1909498.5658498,0.005877005699932
5219200,0.32343858169237,0.0062799799656983,0.0021812542685592,0.0021812542684181,0.001917471428721,-0.00054091167526772,0.00054091178875702,1.493461575524e-09,-1.3808579068565e-09,2.1920794437718e-10,-1.081171382427e-10,-0.00055081179347887,0.00055081295282755,-0.00055081271565622,0.00055081197309589,-0.00055081187669806,0.00055081286003826,-0.00055081283455156,0.00055081188249426,-0.00051989231779457,0.00051989514323869,-0.00051989512365271,0.00051989227900392,-2.326875533785e-10,2.4564563111925e-10,-3.511595974258e-09,3.5198726242468e-09,-0.00054091172909131,0.00054091173485099,-0.00055081360975822,0.00055081110253326,-0.00055081128517697,0.0005508134510826,-0.00055081342453381,0.0005508112833228,-0.00055081111669421,0.00055081361513002,-0.00051989702953029,0.00051989032714911,-0.00051989021553112,0.00051989727427279,-0.00053980686300637,0.00053980872528468,-0.00053980641847572,0.00053980919642191,-1.3301578726188e-09,1.4891066955332e-09,-0.00045285513292964,0.00045285525663018,3.4908117670774e-09,-3.4521723864467e-09,-0.0004643921100812,0.00046439361944954,-0.00046439443393354,0.00046439131506514,-0.00046439115541479,0.00046439455817204,-0.0004643934944958,0.00046439223723204,-0.00047436632578346,0.00047436689186735,-0.00047436905633784,0.00047436414851836,0.77855551250837,125803,2834,0.0022512466302515,0.0022512466300802,0.001885169067001,36.022071912724,4.8176575301796e-05,4.8176575301796e-05,4.8176575301796e-05,2019149.106653,0.0064081158224207
5419200,0.35095296193495,0.0067978571604574,0.0023687043814163,0.0023687043812904,0.0020604483977506,-0.00058721339455311,0.00058721345377871,1.5799073306508e-09,-1.5210644768185e-09,2.9735878512852e-10,-2.4256858860789e-10,-0.00059868949168583,0.00059869074263309,-0.0005986904898524,0.00059868968796378,-0.0005986896436397,0.0005986905795141,-0.00059869067799624,0.00059868952566743,-0.00056280652951209,0.00056280945391426,-0.00056280955916174,0.00056280636652643,-3.0953959260145e-10,3.7884833576773e-10,-3.3798697971147e-09,3.4419877803327e-09,-0.00058721339407499,0.00058721345418463,-0.00059869132668642,0.00059868887313116,-0.00059868906967471,0.00059869115219328,-0.00059869107330702,0.00059868912431802,-0.00059868883375401,0.00059869138547635,-0.00056281112766573,0.00056280475482082,-0.00056280451793743,0.00056281149308037,-0.00058609063841956,0.00058609228109489,-0.00058608998982249,0.00058609295939984,-1.4235733241439e-09,1.6102686851911e-09,-0.00048583852266627,0.00048583867438187,3.40345406582e-09,-3.3344767004319e-09,-0.0004990328510693,0.00049903424814428,-0.00049903510655318,0.0004990320125844,-0.00049903182481774,0.00049903525865786,-0.00049903409601763,0.00049903300536915,-0.0005103149417185,0.00051031581209424,-0.00051031788108,0.00051031286080103,0.7695800229434,125803,2834,0.002443713098597,0.002443713098447,0.0020223478222849,36.275152852041,5.0201222816326e-05,5.0201222816326e-05,5.0201222816326e-05,2139497.211059,0.0069337129765871
5619200,0.37847283181477,0.0072924910363995,0.0025489641418614,0.0025489641417329,0.0021945627528053,-0.00063224653573083,0.00063224655898939,1.6714024631844e-09,-1.6481338609948e-09,3.4106608298881e-10,-3.2314988825744e-10,-0.0006458384177301,0.00064583974742914,-0.0006458394901006,0.00064583861971248,-0.00064583861089175,0.00064583954290156,-0.00064583971830615,0.00064583841612104,-0.0006037612898028,0.00060376435073849,-0.00060376453325213,0.00060376105016239,-3.5236320639886e-10,4.5846104992622e-10,-3.2780406027908e-09,3.3756651696065e-09,-0.00063224649932463,0.00063224659532208,-0.00064584026716977,0.00064583786452493,-0.00064583806455081,0.00064584008694337,-0.00064583997394383,0.00064583815605938,-0.00064583778823782,0.00064584036128823,-0.00060376583809417,0.00060375970458497,-0.0006037593898004,0.0006037662766689,-0.00063047030552981,0.00063047180700238,-0.00063046953564719,0.00063047260750288,-1.5218638017353e-09,1.7345411266651e-09,-0.00051691878244628,0.00051691896038934,3.3349759612313e-09,-3.2372460513874e-09,-0.00053239065829417,0.00053239195250126,-0.00053239285919379,0.00053238977179875,-0.00053238955854173,0.00053239303664507,-0.00053239177439036,0.00053239083854936,-0.0005438697021374,0.00054387087155582,-0.00054387286026615,0.00054386770257879,0.73637047700566,125803,2834,0.0026308695979245,0.0026308695977718,0.0021515981313537,36.526080428118,5.2208643424941e-05,5.2208643424941e-05,5.2208643424941e-05,2297615.9102914,0.0074409000817081
5819200,0.40591308332229,0.0077681308117783,0.0027232141979395,0.0027232141978035,0.0023217024160352,-0.00067655878578509,0.00067655879074782,1.7720887268176e-09,-1.7669346134193e-09,3.637808393333e-10,-3.6452143270868e-10,-0.0006926297459323,0.00069263115194821,-0.00069263089246121,0.00069262995119123,-0.00069262996034225,0.00069263092613371,-0.00069263114093526,0.00069262972629826,-0.00064344825232348,0.00064345148884681,-0.00064345171077929,0.00064344797374087,-3.7395060915382e-10,4.9938802050157e-10,-3.2065411795028e-09,3.3229261770673e-09,-0.0006765587307526,0.00067655884570495,-0.000692631614248,0.00069262925108446,-0.00069262945180595,0.00069263143164523,-0.00069263130093525,0.00069262956302814,-0.00069262915502803,0.00069263172698683,-0.00064345280935479,0.00064344683625417,-0.00064344648057882,0.00064345328536032,-0.00067368212067953,0.00067368353770229,-0.00067368128842103,0.00067368440094548,-1.6245909520853e-09,1.8534726999754e-09,-0.00054660214023981,0.00054660233457965,3.283153911329e-09,-3.1669946585078e-09,-0.00056492572592305,0.00056492692191695,-0.00056492788622099,0.00056492478154266,-0.000564924552459,0.00056492807976938,-0.00056492672771094,0.00056492592226357,-0.00057587306761562,0.00057587451065933,-0.00057587644317285,0.0005758711250549,0.71317582997081,125803,2834,0.0028149943589043,0.0028149943587477,0.0022750285682268,36.77691913076,5.4215353046081e-05,5.4215353046081e-05,5.4215353046081e-05,2405998.0583287,0.0079363679139698
6019200,0.43279451204414,0.008225894468137,0.0028917685616393,0.0028917685615035,0.0024423573449941,-0.00071936601038963,0.00071936597634264,1.8671338285197e-09,-1.9007037539521e-09,4.4381131698656e-10,-4.8527491353744e-10,-0.00073794824918762,0.00073794975678154,-0.00073794947071852,0.00073794848216882,-0.00073794852679867,0.00073794946631551,-0.00073794978563158,0.00073794818826632,-0.00068146647607199,0.00068146983777265,-0.00068147016476437,0.00068146609274289,-4.4865400722217e-10,6.1465343025905e-10,-3.0830832819629e-09,3.2379854209041e-09,-0.00071936591644281,0.00071936607021602,-0.00073795014664886,0.000737947826358,-0.00073794804975565,0.00073794993918102,-0.00073794977035067,0.00073794820347331,-0.00073794769373766,0.00073795029584365,-0.00068147094132761,0.00068146527961342,-0.00068146482076559,0.00068147151667901,-0.00071529313458589,0.00071529434154925,-0.00071529212232414,0.00071529538754243,-1.7195617498399e-09,1.9706993385468e-09,-0.00057463039305884,0.00057463060993293,3.1945864036352e-09,-3.0534304955397e-09,-0.00059607519767681,0.00059607627595722,-0.00059607728879849,0.00059607420471272,-0.00059607395140022,0.00059607750639511,-0.00059607606171639,0.00059607541424539,-0.00060621389849691,0.00060621563298376,-0.00060621747650203,0.0006062120462064,0.70261522354074,125803,2834,0.0029928314362175,0.002992831436065,0.0023915680008996,36.775463911063,5.4203711288507e-05,5.4203711288507e-05,5.4203711288507e-05,2450670.6994566,0.0084124518748738
6219200,0.45904772302562,0.0086757557004515,0.003057690893653,0.0030576908935083,0.0025603739132902,-0.0007613234653728,0.00076132340405052,1.9624541774014e-09,-2.0231376115935e-09,4.8274123826301e-10,-5.5235335004313e-10,-0.00078224546632288,0.00078224705525174,-0.00078224676177793,0.00078224570745775,-0.00078224577852568,0.00078224672874556,-0.00078224710986209,0.00078224537813677,-0.0007188219862707,0.00071882549729528,-0.00071882588605128,0.00071882154071072,-4.8750267042217e-10,6.8265529300426e-10,-2.9936161703211e-09,3.1765765192972e-09,-0.00076132334369209,0.00076132352565932,-0.00078224738240035,0.00078224510575648,-0.00078224533469666,0.00078224716743392,-0.0007822469729595,0.00078224551757886,-0.00078224494466243,0.00078224755997214,-0.00071882642210526,0.00071882097005516,-0.00071882044618174,0.00071882706019738,-0.00075630975012127,0.00075631082945147,-0.00075630863168376,0.00075631198332494,-1.8066055530507e-09,2.1067189917397e-09,-0.00060199146815548,0.00060199173416165,3.145165003982e-09,-2.9531319373602e-09,-0.00062646608020101,0.00062646708392775,-0.0006264681217906,0.00062646506186512,-0.00062646476016124,0.0006264683880404,-0.00062646682047041,0.00062646634585524,-0.000636043632082,0.00063604568498333,-0.00063604742967135,0.00063604187894067,0.70745490918922,125803,2834,0.0031671060726551,0.0031671060725059,0.0025053246481646,36.758801220003,5.4070409760025e-05,5.4070409760025e-05,5.4070409760025e-05,2460811.5454815,0.0088787662283379
6419200,0.48463101109183,0.0091108478082509,0.0032183752162565,0.003218375216107,0.0026740973758874,-0.00080190121217055,0.00080190113469521,2.0642064827618e-09,-2.1409890824296e-09,5.0092682632342e-10,-5.8701128461996e-10,-0.00082516044108595,0.0008251621047502,-0.00082516181033184,0.00082516068349183,-0.00082516077034014,0.00082516176047894,-0.00082516217458717,0.00082516033665816,-0.00075490900118849,0.00075491269270837,-0.00075491311476324,0.00075490852157285,-5.0537740974351e-10,7.176815741979e-10,-2.9301801267043e-09,3.1298953233004e-09,-0.00080190107400886,0.00080190127278462,-0.00082516237656944,0.00082516013589754,-0.00082516036430161,0.00082516216027779,-0.00082516195082842,0.00082516056494516,-0.00082515995753257,0.00082516257073903,-0.00075491345672702,0.00075490814664063,-0.00075490758692608,0.00075491412867343,-0.00079597359368306,0.00079597460161873,-0.00079597242325738,0.00079597580818604,-1.8990635121099e-09,2.2355810648272e-09,-0.00062839887519871,0.00062839917768004,3.1097820905326e-09,-2.8798541929e-09,-0.00065586980011542,0.0006558707299524,-0.00065587180549587,0.00065586874394236,-0.0006558684063223,0.00065587210787797,-0.00065587043066853,0.00065587010156971,-0.00066480835609616,0.00066481069810081,-0.00066481236995667,0.00066480667587011,0.70210891889538,125803,2834,0.0033356193944038,0.0033356193942538,0.0026151080146609,36.741645325069,5.3933162600556e-05,5.3933162600556e-05,5.3933162600556e-05,2486017.4560699,0.0093296573605361
6619200,0.50991845824686,0.0095650122133103,0.0033854363514091,0.0033854363512579,0.0027941395106433,-0.00084363015624832,0.00084363009656535,2.1807197596847e-09,-2.2399291767012e-09,4.1309996240324e-10,-4.8002870012919e-10,-0.00086878473046895,0.00086878642022186,-0.00086878617267501,0.00086878492596107,-0.00086878499684006,0.00086878613981754,-0.00086878647178585,0.00086878464504197,-0.00079281608474633,0.0007928200660091,-0.00079282040555046,0.00079281568647938,-4.1881072491396e-10,6.1247439865929e-10,-2.9709994476326e-09,3.1536620099043e-09,-0.00084363003562006,0.0008436302171154,-0.00086878666661813,0.00086878445179555,-0.00086878463354646,0.0008687864965568,-0.00086878630495333,0.00086878481578965,-0.00086878428879153,0.0008687868442113,-0.00079282075812332,0.00079281530118949,-0.00079281482183265,0.00079282134991846,-0.00083761843734055,0.00083761963532251,-0.00083761745212835,0.00083762065447265,-2.0066710858922e-09,2.3535911444061e-09,-0.00065607242011017,0.00065607273276259,3.1466247871992e-09,-2.906345476438e-09,-0.00068607013835044,0.0006860710252183,-0.00068607216554287,0.00068606901715361,-0.00068606867022669,0.00068607247758116,-0.0006860707148656,0.00068607045078433,-0.00069546942080371,0.00069547197519638,-0.00069547365733591,0.00069546772924132,0.74070665293953,125803,2834,0.0035088833127283,0.0035088833125659,0.0027301443848213,37.008343018308,5.6066744146467e-05,5.6066744146467e-05,5.6066744146467e-05,2442706.0039671,0.0097956454391539
6819200,0.53600253186912,0.010067356477188,0.0035693361322948,0.0035693361321575,0.002928684212736,-0.00088972982517324,0.00088972984266574,2.4998638913741e-09,-2.4826970358686e-09,1.5472994113592e-10,-1.4047658330151e-10,-0.00091621500701974,0.0009162167207854,-0.00091621659453656,0.00091621508016746,-0.00091621503776545,0.00091621668045474,-0.00091621673783803,0.0009162149599712,-0.00083591125421435,0.00083591618227513,-0.00083591624664829,0.00083591112889282,-7.909726633869e-11,1.6545740002092e-10,-3.1818775583649e-09,3.2630745686997e-09,-0.00088972979407048,0.00088972987360462,-0.00091621695093352,0.00091621474793635,-0.00091621477264481,0.00091621694037681,-0.00091621680566139,0.00091621489037861,-0.00091621472350241,0.00091621698653191,-0.00083591667816348,0.00083591066376949,-0.00083591054793298,0.00083591690691686,-0.00088471185878765,0.00088471395629075,-0.00088471176338896,0.00088471407007287,-1.9702334387419e-09,2.2691966466295e-09,-0.00068778807423498,0.00068778833826042,3.3718833979201e-09,-3.1834324662664e-09,-0.0007196169550046,0.00071961795955692,-0.00071961910859551,0.00071961582412604,-0.00071961548578879,0.00071961941251368,-0.00071961773699411,0.00071961717974326,-0.00073124918369299,0.00073125128336894,-0.00073125318053225,0.00073124727742845,0.79221449565122,125803,2834,0.003700260809224,0.0037002608088839,0.0028619661831115,38.071512400925,6.4572099207398e-05,6.4572099207398e-05,6.4572099207398e-05,2386591.8831456,0.010315400745557
7019200,0.56278742833289,0.010545153758769,0.0037450934385474,0.0037450934384672,0.0030549668817545,-0.00093536250767484,0.00093536262923347,2.6193493171175e-09,-2.4990819523794e-09,-4.0121664663626e-11,1.6240914454153e-10,-0.00096368669535113,0.00096368842686774,-0.00096368835360929,0.00096368671442202,-0.00096368657788522,0.00096368853845929,-0.00096368833507994,0.00096368676022553,-0.00087759366190912,0.00087759895168207,-0.00087759874631265,0.00087759380487914,9.2454817833485e-11,-1.2149090275024e-10,-3.4284954781322e-09,3.4000935557148e-09,-0.00093536258393339,0.00093536255283618,-0.00096368868254722,0.00096368641221395,-0.00096368639162592,0.00096368872201095,-0.00096368870033689,0.00096368638959945,-0.00096368648982644,0.00096368861508816,-0.00087759960659935,0.00087759291062506,-0.00087759305678433,0.00087759957744226,-0.00093015193167744,0.00093015446412156,-0.00093015225294247,0.00093015414394583,-2.1444476273105e-09,2.3886938569835e-09,-0.00071880895401804,0.00071880916279501,3.5120438792736e-09,-3.3819188655861e-09,-0.0007530896765316,0.00075309065477724,-0.00075309194724621,0.00075308840218999,-0.00075308812083462,0.00075309219478958,-0.00075309048419132,0.00075308984866696,-0.00076524679570858,0.00076524901429726,-0.00076525108369017,0.00076524472208234,0.73335806131213,125803,2834,0.0038896616340641,0.0038896616337756,0.0029908878943121,39.155551164407,7.3244409315254e-05,7.3244409315254e-05,7.3244409315254e-05,2408212.5116806,0.010828503170259
7219200,0.59011981941957,0.011014838441401,0.0039182004289204,0.0039182004290054,0.0031784375834753,-0.00098079894928944,0.0009807991678732,2.7692930861442e-09,-2.5526650924807e-09,-1.2819431034005e-10,3.5071011801722e-10,-0.0010114225854418,0.0010114244015655,-0.0010114243207983,0.0010114226099964,-0.0010114223854345,0.0010114245980368,-0.0010114242088403,0.0010114227537826,-0.00091857652603126,0.00091858218536421,-0.000918581790964,0.00091857685826199,1.6893092104103e-10,-3.0020166534385e-10,-3.6255807812466e-09,3.4987953419687e-09,-0.00098079912367465,0.00098079899345016,-0.0010114246685634,0.0010114222929408,-0.0010114222873197,0.0010114246939542,-0.0010114247737707,0.0010114221780734,-0.0010114224625561,0.0010114245083873,-0.00091858289918743,0.00091857571094286,-0.00091857604268939,0.00091858269111327,-0.00097480955215299,0.00097481231666067,-0.00097481010566521,0.00097481175559889,-2.2923794980944e-09,2.4775602575877e-09,-0.0007496937890828,0.00074969393828417,3.6240794777346e-09,-3.5564157532143e-09,-0.00078665347079786,0.00078665440360046,-0.00078665583340981,0.00078665206040862,-0.0007866518336241,0.00078665602629477,-0.00078665429632701,0.00078665357961595,-0.00079873180899861,0.00079873408997015,-0.00079873631573915,0.00079872958140646,0.70718847541855,125803,2834,0.004078210687968,0.0040782106878892,0.0031192306944212,40.240443057969,8.1923544463754e-05,8.1923544463754e-05,8.1923544463754e-05,2466609.757159,0.011339562922335
7419200,0.61700763667932,0.011461554384067,0.004083078965023,0.0040830789651583,0.0032953964538857,-0.0010234914502436,0.0010234916456981,2.8802191171948e-09,-2.686256450827e-09,5.5429806657455e-14,1.9628731135149e-10,-0.0010567700654279,0.0010567720306261,-0.0010567718790226,0.0010567701597328,-0.0010567699527862,0.001056772136628,-0.0010567718627971,0.0010567702058145,-0.00095659651625221,0.00095660231250667,-0.00095660203222353,0.00095659673421984,4.5477755950479e-11,-1.5280025218454e-10,-3.5804592677155e-09,3.47402605676e-09,-0.0010234916026411,0.001023491493288,-0.0010567722465649,0.0010567698213454,-0.0010567698845808,0.0010567722024771,-0.0010567722591124,0.0010567698005472,-0.0010567699757322,0.0010567721039519,-0.00095660286326088,0.000956595864203,-0.00095659608649856,0.00095660276525937,-0.0010162015142753,0.001016204021955,-0.0010162018139775,0.0010162037184018,-2.4005734547835e-09,2.5665127364741e-09,-0.0007782718873989,0.00077827201728782,3.5838746275792e-09,-3.5360404588471e-09,-0.00081804015808996,0.00081804097972642,-0.00081804249405836,0.00081803866400786,-0.0008180384484827,0.00081804267406972,-0.00081804089880513,0.00081804024036944,-0.00082949430035206,0.00082949674992845,-0.00082949897731892,0.00082949207511928,0.68501443376443,125803,2834,0.0042553376330022,0.0042553376329759,0.003237978949514,40.769618820529,8.6156950564236e-05,8.6156950564236e-05,8.6156950564236e-05,2545937.854538,0.011818063950558
7619200,0.64271309627783,0.011879793712711,0.0042375321268763,0.0042375321269972,0.0034047294588372,-0.0010631017199411,0.0010631018522171,2.9440193448181e-09,-2.8124013742156e-09,1.9324946589088e-10,-6.3289174029765e-11,-0.0010991473971083,0.0010991495241501,-0.0010991492842486,0.0010991475796078,-0.0010991474411549,0.0010991494706429,-0.0010991494104102,0.0010991474809026,-0.00099173356301977,0.00099173931207145,-0.00099173924292092,0.00099173356930162,-1.5976013784922e-10,1.2187892248658e-10,-3.4124497150566e-09,3.3712843013177e-09,-0.0010631018076762,0.0010631017644542,-0.0010991496558447,0.0010991472359972,-0.0010991473898007,0.0010991495183295,-0.0010991495189651,0.0010991473663935,-0.0010991473180187,0.0010991495865161,-0.00099173965481406,0.00099173312306014,-0.00099173311714931,0.00099173977827536,-0.0010542471224392,0.0010542491125536,-0.0010542469263257,0.0010542493046061,-2.5155823177162e-09,2.7014070851032e-09,-0.00080419583070254,0.00080419598069775,3.4532626316382e-09,-3.3838537721562e-09,-0.00084719881343572,0.00084719948609976,-0.00084720106204205,0.00084719725867302,-0.00084719702810266,0.00084720125542841,-0.00084719937982448,0.00084719892119085,-0.00085724536202668,0.00085724818463776,-0.00085725030082659,0.0008572432536708,0.67223240607058,125803,2834,0.0044196461494872,0.0044196461494294,0.0033456934825176,40.851501150704,8.6812009205635e-05,8.6812009205635e-05,8.6812009205635e-05,2598191.7360045,0.01225967535333
7819200,0.66720244117149,0.012274452511304,0.0043832930543075,0.0043832930544137,0.0035078664025823,-0.0011007666847284,0.0011007667730108,3.0314195584486e-09,-2.9433191174743e-09,3.3009988132227e-10,-2.4579964322492e-10,-0.0011394400290274,0.0011394422922451,-0.0011394419909038,0.001139440273244,-0.0011394401789311,0.001139442131006,-0.0011394422197942,0.0011394400699651,-0.0010251647549938,0.001025170567354,-0.0010251706472313,0.0010251646120913,-2.9658771168429e-10,3.0458644923758e-10,-3.2648438636464e-09,3.2673733743484e-09,-0.0011007667283852,0.0011007667293141,-0.001139442344557,0.0011394399471975,-0.0011394401616945,0.0011394421432521,-0.0011394421035568,0.0011394401823069,-0.0011394399837763,0.0011394423204227,-0.0010251706822723,0.0010251645455747,-0.0010251643870199,0.0010251709538906,-0.0010903370294416,0.0010903386651311,-0.0010903365179616,0.0010903391744131,-2.613072432657e-09,2.8268560971631e-09,-0.00082859093522969,0.00082859111345954,3.3427439028544e-09,-3.2433997352661e-09,-0.00087491430418489,0.00087491484783097,-0.00087491646966176,0.00087491270322261,-0.00087491244477485,0.00087491669023716,-0.00087491471344627,0.00087491444005536,-0.00088357762476885,0.00088358077103427,-0.00088358277688944,0.00088357562851581,0.66655083150299,125803,2834,0.0045758588585097,0.0045758588584267,0.0034470507875877,40.92146261507,8.7371700920559e-05,8.7371700920559e-05,8.7371700920559e-05,2609132.5609166,0.012678647389464
8019200,0.69046959089569,0.012646237772902,0.00452062490186,0.0045206249019608,0.0036049879690809,-0.0011363553527765,0.0011363554148966,3.1266654185765e-09,-3.0644592282271e-09,4.306314870919e-10,-3.7331333876905e-10,-0.0011775735909462,0.0011775759770288,-0.0011775756263824,0.0011775738848727,-0.0011775738168218,0.0011775757387366,-0.0011775759291256,0.0011775736064626,-0.0010564606213128,0.0010564665417094,-0.0010564667231551,0.0010564603784557,-3.9836291469817e-10,4.3351417614354e-10,-3.1433220256975e-09,3.1718618787932e-09,-0.0011363553702087,0.0011363553974187,-0.0011775759568254,0.0011775735820058,-0.0011775738454287,0.0011775757040015,-0.0011775756406422,0.0011775738925427,-0.0011775735911383,0.0011775759594515,-0.0010564664478696,0.0010564606235601,-0.0010564603609301,0.0010564668203368,-0.0011243788354782,0.0011243801980863,-0.0011243780964887,0.0011243809357203,-2.7111103155379e-09,2.9533953256236e-09,-0.00085151229110507,0.00085151249812585,3.2489710456684e-09,-3.119304222456e-09,-0.00090114705826248,0.0009011474837274,-0.00090114915167696,0.00090114541122562,-0.00090114512446858,0.00090114940027896,-0.00090114732070056,0.00090114722279104,-0.00090826541353556,0.00090826888048534,-0.0009082707859067,0.00090826351885043,0.66097248824564,125803,2834,0.0047234365050159,0.0047234365049211,0.0035422789537572,40.990934085639,8.7927472685113e-05,8.7927472685113e-05,8.7927472685113e-05,2613221.4252083,0.013074088979962
8219200,0.71265879396058,0.012997856904096,0.004650496818468,0.0046504968185686,0.0036968632670592,-0.001170253315364,0.0011702533703387,3.2297345806491e-09,-3.1745911470666e-09,4.7097622058799e-10,-4.2063625502762e-10,-0.0012140009883551,0.0012140034699447,-0.0012140030974031,0.0012140013044094,-0.00121400124538,0.0012140032000876,-0.0012140034269088,0.0012140009988279,-0.0010858669049365,0.0010858729930284,-0.0010858732108535,0.0010858666260263,-4.4246693064487e-10,4.8496461760816e-10,-3.0733392001863e-09,3.1092230723179e-09,-0.0011702533254823,0.0011702533601644,-0.00121400339151,0.0012140010385678,-0.0012140013248577,0.0012140031135016,-0.0012140030456876,0.0012140013781116,-0.0012140010374872,0.0012140034032978,-0.0010858727337523,0.0010858670735865,-0.0010858667709237,0.0010858731449114,-0.0011568043455196,0.0011568055730175,-0.0011568035072366,0.0011568064086605,-2.8137013589057e-09,3.0782994110366e-09,-0.00087337867543714,0.00087337890496832,3.1933621553403e-09,-3.0400919045953e-09,-0.00092592713360187,0.00092592746237237,-0.00092592918308328,0.00092592543295488,-0.00092592512530393,0.00092592945311341,-0.00092592727549015,0.00092592732202418,-0.00093189646169604,0.00093190022285365,-0.00093190206114052,0.00093189463428708,0.65549139281203,125803,2834,0.0048639818727775,0.0048639818726612,0.0036331177887242,41.181077774722,8.9448622197774e-05,8.9448622197774e-05,8.9448622197774e-05,2618651.2688833,0.013450983709358
8419200,0.7338223973846,0.013332366509993,0.0047739752132859,0.0047739752133967,0.00378441608331,-0.0012025527777408,0.0012025528119073,3.3271740334701e-09,-3.2926736586681e-09,4.3927176037278e-10,-4.1080216504055e-10,-0.001248745571065,0.0012487480914208,-0.0012487477539305,0.0012487458522716,-0.0012487458155578,0.0012487478338781,-0.0012487480673306,0.0012487455622949,-0.0011139802611752,0.0011139865514065,-0.0011139867753559,0.0011139799759298,-4.1296429740066e-10,4.7723467644575e-10,-3.023438902741e-09,3.0798731422176e-09,-0.0012025527671174,0.0012025528224801,-0.0012487479632188,0.001248745671215,-0.0012487459240358,0.0012487477178586,-0.0012487476316912,0.001248745996771,-0.0012487456475829,0.0012487479971538,-0.0011139861499563,0.0011139805724934,-0.0011139802618049,0.0011139865688709,-0.0011877502779867,0.0011877515320162,-0.0011877494720117,0.0011877523371621,-2.9186649676412e-09,3.1985267153515e-09,-0.00089426161566555,0.00089426186050804,3.1610749841489e-09,-2.9918185182489e-09,-0.00094947296648468,0.00094947321033133,-0.00094947499067533,0.00094947120637261,-0.00094947088465832,0.00094947527445303,-0.00094947300702144,0.00094947317141287,-0.00095445971517681,0.00095446374234402,-0.00095446553892902,0.00095445793027636,0.65380934840626,125803,2834,0.0049978801391595,0.0049978801390543,0.0037198658453096,41.430251567835,9.1442012542683e-05,9.1442012542683e-05,9.1442012542683e-05,2619725.9104699,0.013810393892444
8619200,0.75394610744025,0.013649869150652,0.0048910959605307,0.0048910959606447,0.0038676772294761,-0.0012331218618592,0.0012331218885604,3.4331195840239e-09,-3.4059610287579e-09,3.9342361129638e-10,-3.725120251898e-10,-0.0012817410269525,0.0012817435846934,-0.0012817432828653,0.0012817412724718,-0.0012817412432159,0.0012817433552785,-0.0012817435681421,0.0012817410105076,-0.0011405987100731,0.0011406052386577,-0.0011406054414114,0.0011405984452663,-3.6674477319892e-10,4.3810050772607e-10,-2.9918003956087e-09,3.0551164855863e-09,-0.0012331218440048,0.0012331219063609,-0.0012817434111721,0.0012817411730289,-0.0012817413897524,0.001281743200559,-0.0012817431076498,0.001281741469998,-0.0012817411419883,0.0012817434517293,-0.0011406047000904,0.0011405991588804,-0.0011405988691842,0.0011406050970056,-0.0012171137849628,0.0012171151125641,-0.0012171130638963,0.0012171158325092,-3.0224614347984e-09,3.316173294888e-09,-0.00091400904894902,0.00091400930768199,3.1402200441078e-09,-2.956466732354e-09,-0.00097180309595604,0.00097180326066513,-0.00097180510083374,0.00097180127587777,-0.00097180093969363,0.00097180539891957,-0.00097180304421571,0.00097180331399352,-0.00097585809321125,0.00097586236857921,-0.00097586413260995,0.0009758563412864,0.65260875224869,125803,2834,0.0051245872011528,0.0051245872010409,0.0038018923610187,41.681017565784,9.3448140526271e-05,9.3448140526271e-05,9.3448140526271e-05,2621070.3569191,0.014150557196449
8819200,0.77302205227936,0.013939897906841,0.0049982939863018,0.0049982939864192,0.0039433099341197,-0.0012615215732996,0.0012615215991424,3.5414676544765e-09,-3.5151666083671e-09,3.3868509975563e-10,-3.1843719437406e-10,-0.0013126708329746,0.0013126734266924,-0.0013126731619246,0.0013126710414208,-0.0013126710135907,0.00131267323317,-0.0013126734108034,0.0013126708159836,-0.0011649577656585,0.0011649645421807,-0.0011649647094956,0.0011649575369972,-3.1271004051115e-10,3.8434070317332e-10,-2.9742356158954e-09,3.0380210761849e-09,-0.0012615215547846,0.0012615216176086,-0.0013126732114108,0.0013126710213772,-0.0013126712013043,0.0013126730368641,-0.0013126729439393,0.0013126712819535,-0.001312670989012,0.0013126732524479,-0.0011649638809443,0.0011649583375248,-0.0011649580833054,0.0011649642426839,-0.0012440938113656,0.0012440952325996,-0.0012440931952754,0.0012440958480587,-3.1280425137569e-09,3.43346418832e-09,-0.00093220486480784,0.0009322051352789,3.1287084545547e-09,-2.9327675312509e-09,-0.00099257437932687,0.00099257447001198,-0.00099257637267907,0.00099257249685804,-0.00099257214901146,0.00099257668240072,-0.00099257424187511,0.00099257460905202,-0.00099541586570599,0.0009954203828774,-0.00099542212419667,0.00099541413719856,0.62941992601221,125803,2834,0.0052422858961479,0.0052422858960466,0.0038774703986952,41.931849199674,9.5454793597394e-05,9.5454793597394e-05,9.5454793597394e-05,2645337.6558132,0.014466019522851
9019200,0.7906528929518,0.014208032641008,0.0050972936552011,0.0050972936553191,0.0040134453304876,-0.0012868290995343,0.0012868291177122,3.6462798254778e-09,-3.6275788754848e-09,3.5828264206416e-10,-3.4607504893893e-10,-0.0013403455087466,0.001340348186373,-0.0013403479141153,0.0013403457250394,-0.0013403457077311,0.0013403479738755,-0.0013403481739231,0.0013403454869797,-0.0011865065436996,0.0011865135003032,-0.0011865136907993,0.0011865062908845,-3.3380678313779e-10,4.1312389668534e-10,-2.9148409859277e-09,2.98601783735e-09,-0.001286829073546,0.0012868291436962,-0.001340347913429,0.0013403457542841,-0.001340345943337,0.0013403477291734,-0.0013403476336073,0.0013403460287556,-0.0013403457110884,0.0013403479648378,-0.0011865126876667,0.001186507268623,-0.001186506989056,0.0011865130730132,-0.001268202975126,0.0012682043082231,-0.0012682023016024,0.0012682049857258,-3.2319043100723e-09,3.5529445329834e-09,-0.00094812838492072,0.00094812867109723,3.0817283762749e-09,-2.8692951418081e-09,-0.0010108058604503,0.0010108058589259,-0.0010108078198703,0.0010108039192776,-0.0010108035589181,0.0010108081424849,-0.0010108056121608,0.0010108061082927,-0.0010126905062318,0.0010126953031591,-0.0010126969925406,0.0010126888308366,0.6297752998814,125803,2834,0.005347155997418,0.0053471559974086,0.0039436094081873,41.75041358397,9.4003308671757e-05,9.4003308671757e-05,9.4003308671757e-05,2657852.3710366,0.014745964089539
9219200,0.80683257305377,0.014451339324046,0.0051871163678853,0.0051871163680079,0.0040771065881523,-0.0013095855008173,0.0013095855110734,3.7507405481568e-09,-3.7398082480722e-09,3.7727566995784e-10,-3.7330179018067e-10,-0.001365309092948,0.0013653118530444,-0.001365311573723,0.0013653093167731,-0.0013653093105916,0.0013653116221589,-0.0013653118452589,0.0013653090670073,-0.0012057983451361,0.0012058054810941,-0.0012058056946267,0.0012057980711344,-3.5609014233764e-10,4.4411017596399e-10,-2.859018559131e-09,2.9381645101388e-09,-0.0013095854667706,0.0013095855450907,-0.0013653115248535,0.00136530939375,-0.0013653095923941,0.0013653113309707,-0.0013653112310658,0.0013653096829782,-0.0013653093391791,0.0013653115880043,-0.0012058045198321,0.0012057992181491,-0.001205798912929,0.0012058049310987,-0.0012898382738173,0.0012898395169809,-0.001289837535886,0.0012898402563635,-3.3360217900264e-09,3.6724871108044e-09,-0.0009623357526386,0.00096233605457511,3.0405757729237e-09,-2.8118258782874e-09,-0.0010271137521896,0.0010271136618111,-0.0010271156824984,0.0010271117521569,-0.0010271113793263,0.0010271160170718,-0.0010271133962825,0.0010271140194677,-0.0010281255368189,0.001028130613528,-0.0010281322530412,0.0010281239106013,0.6230058010057,125803,2834,0.0054414437859033,0.0054414437858421,0.0040026194465446,41.452875822259,9.1623006578076e-05,9.1623006578076e-05,9.1623006578076e-05,2668145.756757,0.014997266699445
9419200,0.82167052837535,0.014671938280866,0.0052685463331115,0.0052685463332318,0.0041348456145227,-0.0013301838992444,0.0013301839035687,3.8572567379838e-09,-3.8523043753339e-09,3.7940807287322e-10,-3.8169287066245e-10,-0.0013878959972273,0.0013878988260328,-0.0013878985492659,0.0013878962186525,-0.0013878962160334,0.0013878985937319,-0.0013878988259129,0.0013878959631354,-0.0012232548167663,0.0012232621678904,-0.0012232623904737,0.0012232545325876,-3.5685226470238e-10,4.5045401778943e-10,-2.8241375738867e-09,2.9086457837024e-09,-0.001330183859533,0.0013301839432676,-0.0013878984522937,0.0013878963436348,-0.0013878965388277,0.0013878982610571,-0.0013878981543057,0.0013878966374157,-0.0013878962855729,0.0013878985185193,-0.0012232610594355,0.0012232558378739,-0.0012232555241377,0.001223261476974,-0.0013093750655018,0.0013093762947988,-0.0013093743298892,0.001309377032383,-3.4396565073836e-09,3.7900305574328e-09,-0.00097513821726906,0.00097513853297546,3.01362582032e-09,-2.770223493379e-09,-0.0010418499062918,0.0010418497311337,-0.0010418518116854,0.0010418478463277,-0.0010418474575921,0.0010418521621313,-0.0010418494544405,0.0010418501846411,-0.0010420294763923,0.0010420347957843,-0.001042036399758,0.001042027886276,0.6162082386077,125803,2834,0.0055267814372842,0.0055267814372583,0.0040557925864874,41.152128610993,8.9217028887948e-05,8.9217028887948e-05,8.9217028887948e-05,2679629.8632276,0.015224531861257
9619200,0.83527334126293,0.014871837392076,0.0053423304260195,0.0053423304261399,0.0041871765399163,-0.0013488344641606,0.0013488344649167,3.9646724670952e-09,-3.9632512282778e-09,3.6919129440056e-10,-3.7511731748227e-10,-0.0014083898173954,0.0014083927090481,-0.0014083924417824,0.0014083900296713,-0.0014083900297823,0.0014083924831172,-0.0014083927129602,0.0014083897792157,-0.0012390613433376,0.0012390689115483,-0.0012390691314555,0.0012390610607295,-3.4686340626692e-10,4.439164440119e-10,-2.8016697498743e-09,2.8895023453798e-09,-0.0013488344209868,0.0013488345080808,-0.0014083922927911,0.001408390205996,-0.0014083903927291,0.0014083921105329,-0.0014083920002777,0.0014083904954933,-0.0014083901451311,0.0014083923616348,-0.0012390676752716,0.0012390624928126,-0.0012390621803265,0.0012390680895455,-0.0013270153872606,0.0013270166222864,-0.0013270146676576,0.0013270173437066,-3.5447845388913e-09,3.906779591124e-09,-0.00098665533014199,0.00098665565752312,2.9986929584297e-09,-2.7430751123932e-09,-0.0010551580567987,0.0010551578050368,-0.0010551599479893,0.0010551559344751,-0.0010551555338355,0.0010551603102141,-0.0010551575170496,0.0010551583464084,-0.0010545450240645,0.0010545505857782,-0.0010545521644778,0.0010545434597732,0.6093804034068,125803,2834,0.0056040418328998,0.0056040418328797,0.0041036265462173,40.85124854822,8.6809988385761e-05,8.6809988385761e-05,8.6809988385761e-05,2690106.5086137,0.015430021330701
9819200,0.84750794500908,0.015052448378165,0.0054089130643108,0.0054089130644314,0.0042346222494226,-0.0013648157129895,0.0013648157055789,4.0612269607747e-09,-4.0680364015156e-09,3.9597482018223e-10,-4.1054602645364e-10,-0.0014260258302783,0.0014260287957252,-0.0014260285160162,0.0014260260545821,-0.0014260260561775,0.0014260285537635,-0.0014260288123109,0.0014260257777134,-0.0012526133205185,0.0012526210744523,-0.0012526213249317,0.001252613007426,-3.8276952559491e-10,4.8701109547903e-10,-2.7647024878477e-09,2.8587169523101e-09,-0.0013648156621934,0.0013648157562048,-0.0014260283434931,0.0014260262545992,-0.0014260264591735,0.0014260281409679,-0.0014260280182476,0.001426026575212,-0.0014260261918763,0.001426028414231,-0.0012526196878061,0.0012526146199884,-0.0012526142754344,0.0012526201315422,-0.0013421550882763,0.0013421562524527,-0.0013421543098353,0.0013421570292523,-3.6569901217404e-09,4.0328530323434e-09,-0.00099622089880726,0.00099622123998822,2.9618855865369e-09,-2.6916012455665e-09,-0.0010663146709565,0.0010663143183058,-0.0010663165254391,0.0010663124809324,-0.0010663120615876,0.0010663169074001,-0.0010663140218309,0.0010663149677879,-0.0010650647720112,0.001065070590794,-0.0010650721277848,0.0010650632511311,0.61213710826962,125803,2834,0.0056702385380346,0.0056702385376816,0.0041433568806209,40.18577946168,8.1486235693438e-05,8.1486235693438e-05,8.1486235693438e-05,2693041.7152172,0.01560484600388
10019200,0.85850322520991,0.015215738644146,0.0054690378966509,0.0054690378968069,0.0042776628506885,-0.0013789761485009,0.0013789761347158,4.1725007689068e-09,-4.1855472869329e-09,4.1291974734986e-10,-4.3416397429449e-10,-0.0014416725674161,0.0014416756193304,-0.0014416753324253,0.0014416727994973,-0.0014416728102674,0.0014416753617447,-0.0014416756404312,0.0014416725115249,-0.0012647492953648,0.0012647572444245,-0.001264757512143,0.0012647489631584,-3.9421060995999e-10,5.0633837968019e-10,-2.7329615811526e-09,2.8346098466885e-09,-0.0013789760909056,0.0013789761923462,-0.0014416751150477,0.001441673044497,-0.0014416732517597,0.0014416749103989,-0.0014416747832971,0.0014416733730436,-0.0014416729719154,0.0014416751953145,-0.0012647557282401,0.0012647507240001,-0.0012647503604484,0.0012647561913475,-0.0013556013765751,0.0013556024847138,-0.001355600557501,0.0013556033076801,-3.7574229396172e-09,4.1437788913405e-09,-0.0010046069373812,0.0010046072891552,2.9457092737986e-09,-2.66434864694e-09,-0.0010761253138249,0.001076124889107,-0.001076127157628,0.001076123065271,-0.0010761226372031,0.0010761275469355,-0.0010761245802334,0.0010761256242361,-0.0010742848206138,0.0010742908832246,-0.0010742923929049,0.0010742833247326,0.61574676603143,125803,2834,0.005728889112526,0.0057288891125991,0.0041781881276248,39.48173863749,7.5853909099924e-05,7.5853909099924e-05,7.5853909099924e-05,2690572.3851339,0.015759390826465
10219200,0.86839836672732,0.015363757800047,0.0055234774146084,0.0055234774147843,0.0043168029706544,-0.0013915890524542,0.0013915890348876,4.2804373992815e-09,-4.297234531376e-09,4.092801352434e-10,-4.34503106346e-10,-0.0014556310329677,0.0014556341533272,-0.0014556338714719,0.0014556312599061,-0.0014556312749319,0.0014556338963834,-0.0014556341774286,0.0014556309736752,-0.0012757049105707,0.0012757130722595,-0.0012757133421456,0.0012757045755602,-3.9035474057768e-10,5.0616159927924e-10,-2.7214414270631e-09,2.8268073013193e-09,-0.0013915889911687,0.0013915890961844,-0.0014556336091098,0.001455631549993,-0.0014556317522247,0.0014556334087654,-0.0014556332791392,0.001455631876758,-0.0014556314732712,0.0014556336932724,-0.0012757114390359,0.0012757064557193,-0.0012757060905776,0.0012757119053989,-0.0013676104864008,0.0013676115942719,-0.0013676096701222,0.0013676124152352,-3.8633852309049e-09,4.2580069509281e-09,-0.0010120269596121,0.0010120273196731,2.940789904683e-09,-2.6508583912814e-09,-0.0010848322903222,0.0010848317946824,-0.0010848341284378,0.0010848299763409,-0.0010848295407262,0.0010848345253972,-0.0010848314770635,0.001084832609302,-0.0010824093317686,0.0010824156271359,-0.0010824171224726,0.0010824078502682,0.62007022414069,125803,2834,0.0057811268150185,0.0057811268150422,0.004209007124849,38.776547790758,7.0212382326066e-05,7.0212382326066e-05,7.0212382326066e-05,2685838.9219035,0.015896850432938
10419200,0.87733110695067,0.015498498802762,0.0055729775056749,0.0055729775058558,0.0043525437912311,-0.0014029221451396,0.0014029221270483,4.3906881000218e-09,-4.4080593146961e-09,3.8587708201414e-10,-4.1154133045955e-10,-0.0014681781933622,0.0014681813716976,-0.0014681811057403,0.0014681784040647,-0.0014681784198852,0.0014681811293832,-0.0014681813954801,0.0014681781338804,-0.0012855573780785,0.001285565768743,-0.0012855660247621,0.001285557058677,-3.6631702856035e-10,4.8111262462645e-10,-2.7297024458317e-09,2.8341000408711e-09,-0.0014029220838762,0.001402922188197,-0.001468180793008,0.0014681787449199,-0.0014681789308263,0.0014681806080019,-0.0014681804792741,0.0014681790544835,-0.0014681786679507,0.0014681808773416,-0.0012855640387047,0.0012855590203297,-0.0012855586728563,0.0012855644874082,-0.0013784476924872,0.0013784488529847,-0.0013784469229301,0.0013784496249696,-3.9700917512089e-09,4.3697686962129e-09,-0.001018698155859,0.0010186985209002,2.9524418634902e-09,-2.6573996058204e-09,-0.001092645465843,0.0010926449086185,-0.0010926473098559,0.001092643082984,-0.0010926426432942,0.0010926477113334,-0.0010926445853759,0.0010926457900027,-0.0010897817411481,0.0010897882491224,-0.0010897897458493,0.0010897802582878,0.62506142175933,125803,2834,0.0058280616496796,0.0058280616494419,0.0042367157992368,38.101428194816,6.4811425558524e-05,6.4811425558524e-05,6.4811425558524e-05,2678923.5980654,0.016020389910613
10619200,0.88566906980275,0.015621982211234,0.0056183814146194,0.0056183814148258,0.0043852193817885,-0.0014144572648328,0.0014144572634328,4.4718877208409e-09,-4.4726541855436e-09,2.4575077789419e-10,-2.5321740014695e-10,-0.0014808747881521,0.0014808779302689,-0.001480877746585,0.0014808749170977,-0.0014808749129447,0.0014808777917205,-0.0014808779429681,0.001480874741385,-0.001295568696409,0.0012955773558282,-0.0012955774973851,0.0012955684906607,-2.6971603806606e-10,3.7463197806675e-10,-2.83672655366e-09,2.9319371284565e-09,-0.0014144572168129,0.0014144573115454,-0.0014808773767989,0.0014808753148987,-0.0014808754440306,0.001480877250913,-0.0014808771271655,0.0014808755612486,-0.0014808752524275,0.0014808774465428,-0.0012955756247006,0.0012955703399872,-0.0012955700708224,0.0012955759959029,-0.0013894715194975,0.0013894729509933,-0.0013894709641388,0.00138947351404,-4.1194570356457e-09,4.5144563086939e-09,-0.0010259060782091,0.001025906438456,3.0144196641771e-09,-2.7248628478325e-09,-0.0011009400392147,0.001100939420296,-0.0011009419233767,0.0011009375557361,-0.0011009371161763,0.001100942324441,-0.0011009391061893,0.0011009403547975,-0.0010976578596423,0.0010976645936813,-0.0010976661397212,0.0010976563284022,0.61395111902601,125803,2834,0.0058758316130539,0.0058758316132452,0.0042666495191039,38.02973949162,6.423791593296e-05,6.423791593296e-05,6.423791593296e-05,2676469.0270243,0.01614790249316
10819200,0.89345469200643,0.015735357032035,0.0056601003930714,0.0056601003932794,0.0044151562456842,-0.0014251214283299,0.0014251214387272,4.6137559527462e-09,-4.6028488746558e-09,1.6690434853966e-10,-1.6171510006764e-10,-0.0014926564785952,0.0014926596669299,-0.0014926595279302,0.0014926565615762,-0.0014926565489707,0.0014926595823769,-0.0014926596651846,0.001492656446651,-0.0013047511960482,0.0013047601808603,-0.0013047602535419,0.0013047510590683,-1.5901456074373e-10,2.4648309690413e-10,-2.9160318404265e-09,2.9957515820257e-09,-0.0014251213940356,0.0014251214730048,-0.0014926590819646,0.0014926570376938,-0.0014926571026785,0.0014926590185607,-0.0014926589122916,0.0014926572009394,-0.0014926569874843,0.0014926591390387,-0.0013047584080844,0.0013047528798546,-0.0013047527049971,0.0013047586860293,-0.001399621450744,0.0013996231368876,-0.0013996211196689,0.0013996234738053,-4.2082444134126e-09,4.5940066726614e-09,-0.0010325697745271,0.0010325701253755,3.1078039044152e-09,-2.8285633657471e-09,-0.0011086148440127,0.0011086142249234,-0.0011086167940832,0.0011086122917099,-0.0011086118644251,0.0011086171835548,-0.0011086139174732,0.0011086151526781,-0.001104908261626,0.0011049150964534,-0.0011049167124857,0.0011049066532652,0.6038675328365,125803,2834,0.0059199924634187,0.0059199924633838,0.0042943221332576,37.973811500749,6.379049200599e-05,6.379049200599e-05,6.379049200599e-05,2679901.1983458,0.016265797452501
11019200,0.90072136021507,0.015839261698155,0.0056983664698359,0.0056983664700447,0.0044425287582744,-0.0014349423103542,0.0014349423330776,4.730625380583e-09,-4.7075252218064e-09,9.8678263858539e-11,-8.0270802370323e-11,-0.0015035433914294,0.0015035466155127,-0.0015035465146035,0.0015035434362519,-0.001503543412303,0.0015035465813661,-0.0015035466014783,0.0015035433723236,-0.0013131641032946,0.0013131733660579,-0.0013131733765104,0.0013131640289833,-8.9458456811434e-11,1.6395174941664e-10,-3.0005083618633e-09,3.0681714337372e-09,-0.0014349422883035,0.0014349423551354,-0.001503546019837,0.0015035439613755,-0.0015035439891727,0.0015035459947679,-0.0015035459002052,0.0015035440744257,-0.0015035439227742,0.0015035460652729,-0.0013131715618352,0.0013131658170876,-0.0013131657048667,0.0013131717796199,-0.0014089293170807,0.0014089311922687,-0.0014089291339855,0.0014089313796651,-4.3226080629183e-09,4.6983259313679e-09,-0.0010386778824221,0.0010386782230441,3.1816129198284e-09,-2.9135022224188e-09,-0.0011156664569734,0.0011156658080846,-0.0011156684607114,0.0011156638219152,-0.0011156634053952,0.0011156688398429,-0.0011156655103035,0.0011156667560507,-0.0011115296088722,0.0011115365958081,-0.0011115382756119,0.0011115279376345,0.59320719202205,125803,2834,0.0059606592191838,0.0059606592191983,0.0043196868850474,37.918527368712,6.3348218949694e-05,6.3348218949694e-05,6.3348218949694e-05,2686554.0532887,0.016374257604776
11219200,0.90749168125888,0.015935972779269,0.0057339661565112,0.005733966156722,0.0044680404660356,-0.0014439856071325,0.0014439856378022,4.8462898364662e-09,-4.8153474686755e-09,7.0657204059152e-11,-4.3827988614444e-11,-0.0015135803886398,0.001513583673459,-0.0015135835860533,0.0015135804195833,-0.0015135803881059,0.0015135836606916,-0.0015135836513977,0.0015135803776262,-0.0013209213397012,0.0013209308499675,-0.0013209308313606,0.0013209212945737,-5.8889693489699e-11,1.2428598565977e-10,-3.0668857786505e-09,3.1259777973476e-09,-0.0014439855933169,0.0014439856516001,-0.0015135830606281,0.0015135809756786,-0.0015135809889354,0.0015135830504172,-0.0015135829638513,0.0015135810651061,-0.0015135809453919,0.0015135830980141,-0.0013209289980664,0.0013209230995457,-0.0013209230196784,0.0013209291852137,-0.0014175147666835,0.0014175167440229,-0.0014175146517877,0.0014175168608052,-4.4355873393838e-09,4.8017859118541e-09,-0.0010442835016218,0.0010442838325404,3.2403883276421e-09,-2.9827585143226e-09,-0.0011221307871833,0.0011221300992607,-0.001122132833565,0.0011221280700269,-0.0011221276635783,0.0011221332031131,-0.0011221298107471,0.0011221310768513,-0.0011176277108686,0.0011176348573687,-0.0011176365892061,0.0011176259869788,0.59263235720255,125803,2834,0.005998104564581,0.0059981045645441,0.0043429644013274,37.837788922755,6.2702311382043e-05,6.2702311382043e-05,6.2702311382043e-05,2692905.2969846,0.016474057386846
11419200,0.91375601374576,0.016026020951514,0.0057670811703934,0.005767081170608,0.0044918586105122,-0.0014521026759369,0.0014521027041407,5.0079448211351e-09,-4.9792416762317e-09,1.2618609027803e-10,-1.0186426405783e-10,-0.0015226076412546,0.001522611065983,-0.0015226109455418,0.0015226077061832,-0.0015226076774749,0.0015226110192338,-0.0015226110480627,0.0015226076276942,-0.0013278960731694,0.0013279058620003,-0.0013279058837876,0.0013278959934904,-3.7175790599233e-11,9.7339261973457e-11,-3.0787729035311e-09,3.1327394585004e-09,-0.0014521026635334,0.0014521027165744,-0.0015226103824858,0.0015226082990537,-0.0015226083044795,0.0015226103830479,-0.0015226103006047,0.0015226083758054,-0.0015226082746898,0.0015226104138547,-0.0013279038886665,0.0013278979518213,-0.0013278978953382,0.0013279040605309,-0.0014252384633792,0.0014252404920021,-0.0014252383967803,0.0014252405583614,-4.4976690538116e-09,4.8544158144585e-09,-0.0010492288749046,0.0010492291967945,3.2970276302676e-09,-3.0497292313084e-09,-0.0011278584981952,0.0011278578015167,-0.0011278605859388,0.0011278557342989,-0.0011278553351996,0.0011278609465899,-0.0011278575234063,0.001127858779148,-0.001123041940976,0.0011230491560408,-0.00112305093434,0.0011230401726418,0.59626237546786,125803,2834,0.0060317132401965,0.0060317132402598,0.0043635007419394,37.631036542671,6.1048292341366e-05,6.1048292341366e-05,6.1048292341366e-05,2695924.3597564,0.016563278086999
11619200,0.91955237660727,0.016109700389239,0.0057978308997074,0.0057978308999128,0.0045140385896192,-0.0014595842572545,0.0014595842871687,5.0728718946575e-09,-5.0427299296504e-09,1.2972945967759e-10,-1.0398388859887e-10,-0.001530921562633,0.0015309250389989,-0.0015309249134115,0.0015309216327051,-0.0015309216025,0.0015309249874482,-0.0015309250172674,0.0015309215510076,-0.0013343490045094,0.0013343589206459,-0.001334358941391,0.0013343489214785,-1.0537253552961e-10,1.6945482640706e-10,-3.118388419612e-09,3.1761429219404e-09,-0.0014595842438437,0.0014595843005946,-0.0015309243622728,0.0015309222119828,-0.0015309222596363,0.0015309243216822,-0.0015309242368166,0.001530922333697,-0.0015309221835681,0.0015309243986532,-0.0013343568992664,0.0013343509322033,-0.0013343508233677,0.0013343571202239,-0.0014323772592549,0.0014323791814336,-0.0014323770528161,0.0014323793852579,-4.6547311147165e-09,5.0078554423361e-09,-0.001053779742228,0.0010537800599072,3.2919172681173e-09,-3.0484895021942e-09,-0.0011331294945473,0.0011331286934621,-0.0011331315834249,0.0011331266265882,-0.0011331262334388,0.0011331319395452,-0.0011331284180322,0.0011331297714843,-0.0011280428101271,0.0011280503199333,-0.0011280521078675,0.0011280410365779,0.59873358478857,125803,2834,0.0060626896135542,0.0060626896135851,0.0043823989688439,37.420986355108,5.9367890840868e-05,5.9367890840868e-05,5.9367890840868e-05,2695867.2882491,0.016645487355721
11819200,0.92491709789653,0.016187613400595,0.0058264381423122,0.0058264381425151,0.0045347371157679,-0.0014664916507708,0.0014664916772386,5.1818446636143e-09,-5.1550426875727e-09,1.7101826362709e-10,-1.4912943984504e-10,-0.001538588728767,0.0015385923059905,-0.0015385921536414,0.0015385888251231,-0.0015385887981702,0.0015385922240518,-0.0015385922875128,0.0015385887136117,-0.0013403239605895,0.0013403340600286,-0.0013403341139228,0.0013403238430222,-1.4577563236038e-10,2.1313807031203e-10,-3.1253817619628e-09,3.1859211242892e-09,-0.0014664916342102,0.0014664916938186,-0.0015385915933519,0.0015385894139097,-0.0015385894850339,0.0015385915285392,-0.0015385914408485,0.0015385895619095,-0.0015385893828585,0.0015385916328303,-0.0013403319410178,0.0013403259864262,-0.0013403258476891,0.0013403321898228,-0.0014389894476176,0.0014389912942443,-0.0014389891589855,0.0014389915818246,-4.7654120379758e-09,5.1150580654284e-09,-0.0010579821129545,0.0010579824271019,3.2993529920566e-09,-3.0596900840664e-09,-0.0011379916452198,0.0011379907741931,-0.0011379937394601,0.0011379887002315,-0.0011379883105184,0.0011379940919877,-0.0011379905022262,0.0011379919186648,-0.0011326851132088,0.0011326928267988,-0.0011326946222169,0.0011326833287805,0.60218091588683,125803,2834,0.0060912877047059,0.0060912877047458,0.0043998501901058,37.210801443519,5.768641154815e-05,5.768641154815e-05,5.768641154815e-05,2693664.332974,0.016721394394383
12019200,0.92989110888107,0.016261968245086,0.005853673507875,0.0058536735080774,0.0045546212291332,-0.0014730101131391,0.0014730101359134,5.2891149974615e-09,-5.2659462738384e-09,2.0791763461192e-10,-1.9009821639468e-10,-0.0015457769893487,0.00154578066198,-0.0015457804872114,0.0015457771081122,-0.0015457770848672,0.0015457805539278,-0.0015457806471012,0.0015457769705319,-0.0013460357790858,0.0013460460626513,-0.0013460461458752,0.0013460356319958,-1.8300337137262e-10,2.546290960954e-10,-3.1218752536064e-09,3.1862767385504e-09,-0.0014730100928174,0.0014730101562675,-0.0015457799120142,0.0015457777115617,-0.0015457778049642,0.0015457798251415,-0.001545779733848,0.001545777885667,-0.0015457776769058,0.0015457799554594,-0.0013460438353508,0.0013460379133951,-0.0013460377449357,0.0013460441139522,-0.0014453043744179,0.0014453061457533,-0.0014453040082552,0.0014453065115336,-4.8770727042586e-09,5.2247969092762e-09,-0.0010619988232472,0.0010619991354346,3.2963013517711e-09,-3.0586842107501e-09,-0.0011425945399672,0.0011425935919838,-0.0011425966330375,0.0011425915194464,-0.0011425911315285,0.0011425969834441,-0.0011425933220386,0.0011425948116257,-0.0011371755325375,0.001137183462459,-0.0011371852582799,0.0011371737475812,0.61929849586504,125803,2834,0.0061182749845351,0.0061182749846023,0.0044165303591078,37.028377678281,5.6227021426249e-05,5.6227021426249e-05,5.6227021426249e-05,2686849.7294776,0.016793244844593
12219200,0.93452073920792,0.016333318998131,0.0058797482532928,0.0058797482534941,0.0045738224913438,-0.0014793112401403,0.0014793112606621,5.393388422627e-09,-5.3724463122177e-09,2.2785499000999e-10,-2.1249657931654e-10,-0.0015526544234165,0.0015526581787657,-0.0015526579920911,0.0015526545540528,-0.001552654533239,0.0015526580560011,-0.0015526581654845,0.001552654402549,-0.0013516478560437,0.0013516583284297,-0.0013516584281719,0.0013516476922,-2.0917443851155e-10,2.8385710232567e-10,-3.11406873508e-09,3.1812368738457e-09,-0.0014793112172973,0.0014793112835362,-0.0015526573926513,0.0015526551813785,-0.0015526552903576,0.001552657290278,-0.0015526571967761,0.0015526553735148,-0.0015526551437308,0.0015526574393569,-0.0013516559906266,0.0013516501010114,-0.0013516499115515,0.0013516562900199,-0.0014514827963286,0.0014514845107681,-0.0014514823747829,0.0014514849326738,-4.9917427870081e-09,5.3389731483881e-09,-0.0010659524680012,0.0010659527796588,3.2857048826293e-09,-3.0485744403769e-09,-0.0011470936238558,0.0011470925927101,-0.0011470957102441,0.0011470905263832,-0.0011470901394356,0.001147096059756,-0.0011470923227898,0.0011470938952785,-0.001141629514423,0.0011416376755375,-0.0011416394652707,0.0011416277358574,0.63789980291752,125803,2834,0.0061443618445595,0.0061443618446236,0.0044329490178957,36.91456291552,5.531650332416e-05,5.531650332416e-05,5.531650332416e-05,2673519.9382586,0.016863000976615
12419200,0.93883035630185,0.016397661983919,0.0059033123239361,0.0059033123241367,0.0045910373358457,-0.0014851185149787,0.001485118532702,5.5042382264181e-09,-5.486070862301e-09,2.4670568625181e-10,-2.3437980438727e-10,-0.0015590009309331,0.001559004771621,-0.0015590045741622,0.0015590010722898,-0.0015590010539994,0.0015590046353332,-0.0015590047610842,0.0015590009070452,-0.0013567648347839,0.0013567755112971,-0.0013567756272133,0.0013567646547142,-2.2437739942447e-10,3.0148590286799e-10,-3.096067641095e-09,3.1654462731017e-09,-0.0014851184896044,0.0014851185580973,-0.0015590039415491,0.0015590017326931,-0.0015590018501683,0.0015590038304873,-0.0015590037347379,0.0015590019358561,-0.0015590016929533,0.0015590039904379,-0.0013567730481142,0.0013567672051639,-0.0013567670025173,0.001356773360556,-0.0014571161390713,0.0014571178126151,-0.0014571156856085,0.001457118266397,-5.0989872345601e-09,5.4468807157095e-09,-0.0010695402330262,0.0010695405453308,3.271642428621e-09,-3.0337413116696e-09,-0.0011512445453654,0.0011512434331311,-0.0011512466218556,0.0011512413765669,-0.0011512409888508,0.0011512469721084,-0.0011512431627107,0.0011512448172594,-0.0011456274920947,0.001145635873647,-0.0011456376527918,0.0011456257237116,0.61826605643972,125803,2834,0.006168402843566,0.0061684028436093,0.0044478495607942,36.802547474877,5.4420379799013e-05,5.4420379799013e-05,5.4420379799013e-05,2661239.3750004,0.016927057843806
12619200,0.94284228324256,0.01645450389584,0.005924203493426,0.0059242034936268,0.0046060969087866,-0.001490336599052,0.0014903366145573,5.612571940074e-09,-5.5966006866907e-09,2.5880240482301e-10,-2.4886387626176e-10,-0.0015647659031425,0.0015647698233974,-0.0015647696194113,0.0015647660510253,-0.0015647660349473,0.0015647696782208,-0.0015647698148706,0.0015647658770801,-0.0013612558820648,0.0013612667617815,-0.0013612668885893,0.0013612556910293,-2.3678393811911e-10,3.1623826833306e-10,-3.0758029516534e-09,3.1473339664754e-09,-0.0014903365714845,0.0014903366421498,-0.0015647689505553,0.0015647667475643,-0.0015647668719065,0.001564768832503,-0.0015647687348591,0.0015647669597892,-0.0015647667056016,0.0015647690017002,-0.0013612641727864,0.0013612583784077,-0.0013612581644378,0.0013612644963317,-0.001462085990962,0.0014620876270211,-0.0014620855106114,0.0014620881079229,-5.20857193538e-09,5.5580323236336e-09,-0.0010727262631159,0.0010727265769871,3.2531786874661e-09,-3.0135314191387e-09,-0.0011549586028593,0.0011549574057131,-0.0011549606665093,0.0011549553619575,-0.0011549549727523,0.0011549610181997,-0.0011549571336815,0.0011549588763643,-0.0011491201859492,0.0011491287980925,-0.0011491305629252,0.0011491184321366,0.58731201344461,125803,2834,0.0061900039991389,0.0061900039991905,0.0044610809677974,36.690605528946,5.3524844231565e-05,5.3524844231565e-05,5.3524844231565e-05,2659509.813917,0.016984459826291
12819200,0.94654361078431,0.016507323931185,0.0059435986156917,0.0059435986158923,0.0046201266996008,-0.0014947481628039,0.0014947481791163,5.6833331763668e-09,-5.6662835639266e-09,2.5404645505518e-10,-2.4304949535769e-10,-0.0015696978646424,0.0015697018348883,-0.0015697016343557,0.0015696980112068,-0.0015696979987799,0.0015697016912459,-0.0015697018237319,0.0015696978429513,-0.0013650040454771,0.0013650150512027,-0.0013650151748466,0.0013650038525225,-2.853570173037e-10,3.7802422086138e-10,-3.0500192214694e-09,3.1340082068035e-09,-0.0014947481303801,0.0014947482120893,-0.0015697009417179,0.0015696987286834,-0.0015696988828076,0.0015697007992413,-0.0015697006964113,0.001569698976606,-0.0015696986747582,0.0015697010045733,-0.0013650123652028,0.0013650066443145,-0.0013650063808477,0.0013650127326266,-0.001466287629251,0.0014662891409486,-0.0014662870311057,0.0014662897542921,-5.355667875196e-09,5.7099958693692e-09,-0.001075331962992,0.0010753322819009,3.2001950607744e-09,-2.9553021901928e-09,-0.0011579836578374,0.0011579823354733,-0.0011579856905718,0.0011579803266645,-0.0011579799345912,0.001157986043511,-0.0011579820554837,0.0011579839406259,-0.0011520186450891,0.0011520276008794,-0.0011520293288273,0.0011520169342875,0.59134552655929,125803,2834,0.0062082661941718,0.0062082661953077,0.0044719019427758,36.40753863335,5.1260309066803e-05,5.1260309066803e-05,5.1260309066803e-05,2663489.2281776,0.01703262047774
13019200,0.94991568475691,0.016555589467915,0.005961311461647,0.0059613114618209,0.0046329665444472,-0.0014982439845738,0.0014982439899019,5.8458736411613e-09,-5.8398107177912e-09,3.3543129051021e-10,-3.3652485869068e-10,-0.0015736637201564,0.0015736678410098,-0.0015736675923162,0.0015736639143539,-0.0015736639073603,0.0015736676461562,-0.001573667848655,0.0015736636831574,-0.0013679147118203,0.0013679260026194,-0.0013679261919618,0.0013679144601575,-2.8360285159815e-10,3.7616077871749e-10,-2.9656185376856e-09,3.0500070315038e-09,-0.0014982439461045,0.0014982440285783,-0.0015736668476875,0.0015736646869334,-0.0015736648352381,0.0015736667077455,-0.0015736665962779,0.0015736649379754,-0.0015736646370909,0.0015736669065753,-0.0013679230796773,0.001367917542939,-0.0013679172813544,0.0013679234499032,-0.0014696049596805,0.0014696064348047,-0.0014696043780163,0.0014696070142786,-5.4045762105424e-09,5.7647318757512e-09,-0.0010771914284283,0.0010771917533037,3.1724868925414e-09,-2.9209773559115e-09,-0.0011602194555404,0.0011602180732392,-0.0011602214615808,0.0011602160941542,-0.0011602156888815,0.0011602218249012,-0.0011602177956015,0.0011602197395519,-0.0011541460572624,0.0011541551302488,-0.0011541568209506,0.0011541443724493,0.59302695687875,125803,2834,0.0062227366633829,0.0062227366638134,0.0044796262652286,35.875410354985,4.7003282839881e-05,4.7003282839881e-05,4.7003282839881e-05,2664378.3325514,0.017069919885526
13219200,0.95299125427565,0.016599773671968,0.005977516761811,0.0059775167619535,0.0046447401482037,-0.0015013335777466,0.0015013335813647,5.9273411327971e-09,-5.9230746480176e-09,3.3657707915421e-10,-3.3946661017514e-10,-0.0015771720092113,0.0015771761879387,-0.0015771759409871,0.0015771722006628,-0.0015771721982465,0.001577175985982,-0.001577176189626,0.0015771719733722,-0.001370486014685,0.001370497448982,-0.0013704976430868,0.001370485756524,-3.2387389946292e-10,4.1904254816843e-10,-2.9255128026775e-09,3.0122827481165e-09,-0.0015013335369303,0.00150133362227,-0.0015771751625316,0.0015771730062417,-0.0015771731798323,0.0015771749946615,-0.0015771748858644,0.0015771732809218,-0.0015771729482224,0.0015771752294652,-0.0013704944076621,0.0013704889653486,-0.0013704886720518,0.0013704948082998,-0.0014725444112767,0.0014725457732929,-0.0014725437383111,0.0014725464494253,-5.5379436247692e-09,5.9062911660356e-09,-0.0010787906936079,0.0010787910266243,3.1141325496052e-09,-2.8537459736003e-09,-0.0011621584317547,0.0011621569297411,-0.0011621603983446,0.0011621549847439,-0.0011621545778355,0.0011621607666699,-0.0011621566372089,0.0011621587260754,-0.0011559987854078,0.0011560081848997,-0.0011560098323266,0.0011559971507704,0.59512402540605,125803,2834,0.0062355252836271,0.0062355252838106,0.0044862704343674,35.336727074492,4.2693816595935e-05,4.2693816595935e-05,4.2693816595935e-05,2663255.506562,0.017102699751217
13419200,0.9558005172792,0.016639507593242,0.005992101810581,0.005992101810718,0.0046553039719427,-0.0015040387166783,0.0015040387176773,6.0399800972835e-09,-6.0382988007636e-09,3.4764022106517e-10,-3.5327988536553e-10,-0.0015802616728586,0.0015802659324577,-0.0015802656795405,0.0015802618702322,-0.0015802618690479,0.0015802657228275,-0.0015802659374976,0.0015802616330516,-0.0013727090690157,0.0013727207188329,-0.0013727209239957,0.0013727087994008,-3.3015589519932e-10,4.2762788823053e-10,-2.8780611608341e-09,2.9664696364256e-09,-0.0015040386736045,0.0015040387608218,-0.0015802648530349,0.0015802627237844,-0.0015802628999364,0.0015802646820729,-0.0015802645706874,0.0015802630042437,-0.0015802626648906,0.0015802649205187,-0.0013727175195813,0.0013727121780464,-0.0013727118779981,0.0013727179254977,-0.0014750985772252,0.0014750998989738,-0.001475097892985,0.0014751005864642,-5.6402663697143e-09,6.0153067636251e-09,-0.0010801366482369,0.0010801369879998,3.0747934228591e-09,-2.807158161507e-09,-0.001163823166815,0.0011638215709851,-0.0011638251034221,0.0011638196553208,-0.0011638192408086,0.0011638254792924,-0.0011638212728084,0.0011638234669436,-0.0011575616079621,0.001157571246756,-0.0011575728580248,0.0011575600084546,0.58608286405376,125803,2834,0.006246722131199,0.0062467221313448,0.004491863031986,34.79777615531,3.8382209242478e-05,3.8382209242478e-05,3.8382209242478e-05,2661960.0725353,0.017131172661368
13619200,0.95838396761788,0.016675591451065,0.0060053543489236,0.0060053543490601,0.0046648827530817,-0.0015065899772532,0.0015065899809554,6.1389184950186e-09,-6.1346266381907e-09,3.1754055164823e-10,-3.2020769728641e-10,-0.0015831736370412,0.001583177945336,-0.0015831777105146,0.0015831738161298,-0.001583173813354,0.0015831777545361,-0.0015831779456297,0.0015831736011097,-0.0013748090653961,0.0013748209254183,-0.0013748211079793,0.0013748088181053,-3.1908836471655e-10,4.1489759583282e-10,-2.861523437186e-09,2.9482007748062e-09,-0.0015065899362236,0.0015065900219896,-0.0015831768315146,0.0015831747222114,-0.0015831748912581,0.0015831766668721,-0.0015831765583996,0.0015831749928532,-0.0015831746628643,0.0015831768992164,-0.0013748176113224,0.0013748122896462,-0.0013748119993227,0.0013748180065743,-0.0014775031228951,0.0014775044523247,-0.0014775024584604,0.0014775051202083,-5.7598654715626e-09,6.1398171157428e-09,-0.0010814546414372,0.0010814549860893,3.0491076946544e-09,-2.776185412377e-09,-0.0011654240228683,0.0011654223332753,-0.0011654259411943,0.0011654204338991,-0.0011654200165269,0.0011654263207765,-0.0011654220285031,0.0011654243287533,-0.0011590728383031,0.0011590827428683,-0.0011590843310547,0.0011590712622345,0.57889841924379,125803,2834,0.0062572821445231,0.0062572821445317,0.0044973384486348,34.35686244388,3.4854899551042e-05,3.4854899551042e-05,3.4854899551042e-05,2662941.6383963,0.017158231215279
13819200,0.96077399672901,0.016708947276322,0.0060176010944888,0.0060176010946297,0.0046737450872035,-0.0015090374882979,0.0015090374981813,6.2340266378831e-09,-6.2235893251476e-09,2.6294414623682e-10,-2.5887343641775e-10,-0.0015859568765505,0.0015859612156929,-0.0015859610124164,0.0015859570238018,-0.0015859570153271,0.0015859610613529,-0.0015859612084678,0.0015859568471673,-0.0013768438615561,0.0013768559429921,-0.0013768560814913,0.0013768436573756,-2.9400472935733e-10,3.8605451575152e-10,-2.8692375189435e-09,2.9524883945981e-09,-0.0015090374520575,0.0015090375344275,-0.0015859600802719,0.0015859579831702,-0.0015859581367063,0.0015859599304348,-0.0015859598261729,0.0015859582341031,-0.0015859579261671,0.0015859601453621,-0.0013768525360078,0.0013768471791263,-0.00137684690986,0.0013768529098211,-0.0014798195596179,0.0014798209389558,-0.0014798189461665,0.0014798215590854,-5.8862577133404e-09,6.2686539716889e-09,-0.0010827778687646,0.0010827782158937,3.0398456945691e-09,-2.7643296007578e-09,-0.0011669959393415,0.0011669941612064,-0.0011669978504463,0.0011669922665401,-0.0011669918481929,0.0011669982321151,-0.0011669938524217,0.0011669962481748,-0.0011605786725747,0.001160588838268,-0.0011605904161436,0.0011605771039173,0.57842146487399,125803,2834,0.0062674128573933,0.0062674128574038,0.0045028346227629,34.004412421219,3.2035299369756e-05,3.2035299369756e-05,3.2035299369756e-05,2664884.2820023,0.017184437631558
14019200,0.96298739483375,0.016739828098506,0.0060289355519394,0.0060289355520876,0.0046819569944792,-0.0015112547794777,0.0015112547931748,6.3573446920129e-09,-6.3430923654117e-09,2.340990639637e-10,-2.2587910001913e-10,-0.0015884830334327,0.0015884874358101,-0.0015884872493408,0.001588483164214,-0.0015884831522693,0.001588487303615,-0.0015884874267191,0.001588483008107,-0.0013786859285974,0.0013786982740142,-0.0013786983879441,0.0013786857503033,-2.423614953168e-10,3.2955314646789e-10,-2.8724691809153e-09,2.9511681507616e-09,-0.0015112547475275,0.0015112548251755,-0.0015884862545117,0.0015884841870685,-0.0015884843096409,0.0015884861362837,-0.0015884860357908,0.0015884844027208,-0.0015884841353528,0.0015884863139194,-0.0013786947555578,0.0013786893569027,-0.0013786891294022,0.0013786950888745,-0.0014819191967588,0.0014819206784757,-0.0014819186902978,0.0014819211901292,-5.9845421638904e-09,6.3669638785063e-09,-0.0010839603561314,0.001083960703296,3.0524563029633e-09,-2.7769880299899e-09,-0.001168406846307,0.0011684050096366,-0.0011684087658128,0.0011684031084309,-0.0011684026887484,0.0011684091474833,-0.0011684047024853,0.0011684071554184,-0.0011619316789614,0.0011619420295598,-0.0011619436131245,0.0011619301023563,0.5782099546552,125803,2834,0.0062765904825564,0.0062765904826607,0.0045077464345764,33.654299875078,2.9234399000623e-05,2.9234399000623e-05,2.9234399000623e-05,2666039.1513021,0.017208110804562
14219200,0.96503908855569,0.016767457249965,0.0060390994828818,0.0060390994830308,0.0046892582840522,-0.0015132153978651,0.0015132154154333,6.4817261011286e-09,-6.4636727869979e-09,2.0586884314227e-10,-1.9344661039766e-10,-0.0015907398011763,0.0015907442659547,-0.0015907440967226,0.0015907399146859,-0.0015907398978824,0.0015907441562325,-0.0015907442544606,0.0015907397785891,-0.0013802801010108,0.0013802927149296,-0.0013802928039329,0.0013802799472645,-1.9689298811319e-10,2.7769086168056e-10,-2.8802788566259e-09,2.9533369972952e-09,-0.0015132153707478,0.0015132154426177,-0.0015907430432975,0.0015907409965517,-0.0015907410934569,0.001590742950637,-0.0015907428543984,0.0015907411818773,-0.0015907409515411,0.0015907430955431,-0.0013802890836873,0.0013802836421004,-0.0013802834513933,0.0013802893797882,-0.0014837447044734,0.0014837462835927,-0.0014837442973946,0.0014837466944626,-6.0821749349503e-09,6.4640210145951e-09,-0.0010849648580943,0.0010849652046536,3.0681980912463e-09,-2.79343648659e-09,-0.0011696343272823,0.001169632433754,-0.0011696362561052,0.0011696305233344,-0.0011696301031797,0.0011696366384518,-0.0011696321283322,0.0011696346344623,-0.0011630706483951,0.0011630811741246,-0.0011630827694902,0.0011630690608509,0.55856304476724,125803,2834,0.0062847054032415,0.0062847054033798,0.0045119193598733,33.304282708261,2.6434261666086e-05,2.6434261666086e-05,2.6434261666086e-05,2667965.7458221,0.01722887107702
14419200,0.96691106156338,0.016792913900616,0.0060484534205621,0.0060484534207098,0.0046960070593437,-0.0015143240898609,0.001514324098553,6.6744582599993e-09,-6.6656235104831e-09,2.7719472830309e-10,-2.7395088363561e-10,-0.001592129327562,0.0015921339433028,-0.0015921337381613,0.0015921294769108,-0.001592129456155,0.0015921337967702,-0.0015921339508342,0.0015921292836629,-0.0013810589788253,0.0013810719576965,-0.001381072103658,0.0013810587590837,-1.3997058487706e-10,2.1171383458984e-10,-2.8399280901928e-09,2.9021823116791e-09,-0.001514324062782,0.0015143241253585,-0.0015921326233839,0.0015921306202141,-0.0015921306891428,0.0015921325558288,-0.0015921324567977,0.001592130778416,-0.0015921305951663,0.0015921326558491,-0.0013810681080706,0.0013810627378033,-0.0013810625910771,0.0013810683402513,-0.0014847417091767,0.0014847434182185,-0.0014847414516669,0.001484743642646,-6.1050728291586e-09,6.4860998427491e-09,-0.0010852572433017,0.0010852575888032,3.1006708345535e-09,-2.8270703027177e-09,-0.0011700858941301,0.0011700839885126,-0.0011700878277989,0.0011700820656072,-0.0011700816362459,0.0011700882216967,-0.0011700836933786,0.0011700861881154,-0.0011634835063605,0.0011634940081292,-0.0011634956363501,0.0011634818968642,0.56383116833081,125803,2834,0.0062892936523419,0.0062892936517737,0.0045131363575461,32.649352454975,2.11948196398e-05,2.11948196398e-05,2.11948196398e-05,2672333.8805096,0.01723944902639
14619200,0.96860602341715,0.01681607443228,0.0060569572063663,0.0060569572065246,0.004702160019389,-0.0015148904892546,0.001514890500995,6.7132261649018e-09,-6.7011035598273e-09,2.5199378729219e-10,-2.4582531967581e-10,-0.0015929394531333,0.0015929440976592,-0.0015929439052961,0.0015929395908575,-0.0015929395798149,0.0015929439576764,-0.0015929440914163,0.0015929394250989,-0.0013813439271361,0.0013813569633707,-0.0013813570868224,0.0013813437377412,-2.1696261217642e-10,3.0061822340488e-10,-2.8561546852332e-09,2.9310796150003e-09,-0.00151489045813,0.0015148905322566,-0.0015929427847758,0.0015929407382648,-0.0015929408512264,0.001592942677651,-0.0015929425795829,0.0015929409411223,-0.001592940690651,0.0015929428399157,-0.0013813530893144,0.0013813477108268,-0.0013813474994864,0.0013813534043866,-0.001485216285328,0.0014852178121082,-0.0014852158321377,0.0014852182607211,-6.2865056052101e-09,6.6700283384481e-09,-0.0010851038961939,0.0010851042444197,3.0601116767329e-09,-2.7835095156334e-09,-0.0011700708575557,0.0011700688225082,-0.0011700727819091,0.0011700669209222,-0.0011700664983541,0.0011700731666586,-0.0011700685157035,0.0011700711655079,-0.0011634362796331,0.0011634472119269,-0.0011634488070568,0.0011634347045833,0.5664523214106,125803,2834,0.0062916368136256,0.0062916368139087,0.0045125040392704,31.825416166829,1.4603329334636e-05,1.4603329334636e-05,1.4603329334636e-05,2672512.4331519,0.017243577560326
14819200,0.97014340898459,0.016837203510649,0.0060647085371354,0.006064708537295,0.0047077864362187,-0.0015152544086285,0.0015152544186667,6.8074761083366e-09,-6.7969578063105e-09,2.6280467402702e-10,-2.5853587167129e-10,-0.0015935163290717,0.0015935210497793,-0.0015935208481316,0.0015935164755615,-0.0015935164684869,0.0015935208967043,-0.001593521042833,0.0015935163016034,-0.0013814630924341,0.0013814762960832,-0.0013814764319666,0.0013814628911199,-2.4863023798748e-10,3.3551988663259e-10,-2.8592937625441e-09,2.9375787077774e-09,-0.0015152543750036,0.0015152544523506,-0.0015935197069863,0.0015935176442581,-0.0015935177726127,0.0015935195832909,-0.0015935194844335,0.0015935178637554,-0.0015935175911509,0.001593519767714,-0.0013814723353783,0.00138146696308,-0.0013814667292906,0.0013814726729564,-0.0014855043370568,0.0014855057950454,-0.0014855038119801,0.001485506318993,-6.4100784461294e-09,6.7946382787587e-09,-0.0010848267606838,0.0010848271099583,3.0532924113105e-09,-2.7755333349427e-09,-0.0011699160823321,0.0011699139649269,-0.0011699180041429,0.0011699120636988,-0.0011699116432735,0.0011699183868872,-0.0011699136541724,0.0011699163943802,-0.0011632570279597,0.0011632682185627,-0.0011632698038693,0.0011632554553997,0.56961683701754,125803,2834,0.0062931418032078,0.0062931418033293,0.0045113579872598,30.996977183491,7.9758174679283e-06,7.9758174679283e-06,7.9758174679283e-06,2670471.246203,0.017245477628107
15019200,0.97151921105581,0.01685603866035,0.0060716175567885,0.006071617556948,0.004712803546613,-0.0015148811541053,0.0015148811608143,6.8894467231317e-09,-6.8824020542239e-09,2.8109892726779e-10,-2.8045844553994e-10,-0.0015933327099596,0.0015933375007822,-0.0015933372874266,0.0015933328670592,-0.0015933328640593,0.0015933373288356,-0.0015933374928258,0.0015933326805101,-0.0013808763217403,0.0013808896648679,-0.0013808898215905,0.0013808761006485,-3.1185049582847e-10,4.0350713470582e-10,-2.8552017785627e-09,2.9370748468685e-09,-0.0015148811162942,0.0015148811983878,-0.0015933361386817,0.0015933340434025,-0.0015933342072765,0.0015933359764887,-0.0015933358747822,0.0015933343017806,-0.0015933339824176,0.0015933362080094,-0.0013808856118236,0.001380880282857,-0.0013808800041311,0.0013808859938702,-0.0014850606625141,0.001485061992228,-0.0014850600040852,0.0014850626493593,-6.5441562286497e-09,6.9317557103859e-09,-0.0010839221513456,0.0010839225035392,3.0291668068275e-09,-2.7479868437715e-09,-0.0011691133104529,0.0011691110914642,-0.0011691152145326,0.0011691092005696,-0.0011691087816442,0.0011691155981971,-0.0011691107739224,0.0011691136267769,-0.0011624242782727,0.0011624357598402,-0.0011624373248305,0.0011624227243211,0.56737758236254,125803,2834,0.006291594842486,0.006291594841993,0.0045076084532631,29.894610235535,-8.4311811572324e-07,-8.4311811572324e-07,-8.4311811572324e-07,2665373.8599281,0.017238519781514
15219200,0.97273218195067,0.016871944389855,0.0060774672843801,0.0060774672845471,0.004717009820928,-0.0015136720898724,0.0015136720908995,6.981808621245e-09,-6.9802947111998e-09,3.2408072955617e-10,-3.2961772640472e-10,-0.0015922997804684,0.0015923046652422,-0.0015923044256122,0.0015922999645022,-0.0015922999697505,0.0015923044599572,-0.0015923046611948,0.0015922997479851,-0.0013794685378373,0.0013794820220054,-0.0013794822166452,0.0013794682811458,-3.7403145930155e-10,4.7663812177877e-10,-2.828854548702e-09,2.9208219118624e-09,-0.001513672044331,0.0015136721364271,-0.0015923032643712,0.0015923011525377,-0.0015923013507643,0.0015923030695044,-0.0015923029606842,0.0015923014535591,-0.0015923010797127,0.0015923033456327,-0.0013794778544785,0.0013794726138348,-0.0013794722830263,0.0013794782929262,-0.0014837700508158,0.0014837712334785,-0.0014837692558712,0.0014837720411124,-6.6671512550022e-09,7.0573662491878e-09,-0.0010823070369877,0.0010823073918626,2.9972346183119e-09,-2.7130256046727e-09,-0.001167573107428,0.0011675707899538,-0.0011675749932889,0.0011675689194553,-0.0011675684997543,0.0011675753762572,-0.0011675704683004,0.0011675734296306,-0.0011608398395564,0.0011608516003256,-0.0011608531372011,0.0011608383119615,0.54391178949804,125803,2834,0.0062865876121781,0.0062865876121492,0.0045009104804401,28.489622769998,-1.2083017840017e-05,-1.2083017840017e-05,-1.2083017840017e-05,2659150.403878,0.017221522933419
15419200,0.97380382476586,0.016887879101452,0.0060832719287845,0.0060832719289565,0.0047213352437109,-0.0015122979390669,0.0015122979328919,7.1276647139121e-09,-7.1331510644255e-09,3.8048476733389e-10,-3.937939659823e-10,-0.0015910664416338,0.0015910714489905,-0.0015910711776743,0.0015910666573326,-0.0015910666635871,0.0015910712114955,-0.0015910714592414,0.0015910663956085,-0.0013779616192608,0.0013779753705026,-0.0013779756084509,0.0013779613160765,-3.7070715003338e-10,4.7580301166454e-10,-2.7954819762193e-09,2.8900295494561e-09,-0.0015122978889959,0.0015122979830665,-0.0015910699795483,0.0015910678831185,-0.0015910680792299,0.0015910697859729,-0.0015910696693295,0.0015910681900185,-0.0015910678153522,0.0015910700553748,-0.0013779710280408,0.0013779658723019,-0.0013779655371576,0.001377971465943,-0.00148238537797,0.0014823865626296,-0.0014823846048011,0.0014823873433585,-6.7373962949236e-09,7.1277115888919e-09,-0.0010806541732842,0.0010806545283736,2.9998060565246e-09,-2.715474373598e-09,-0.0011659102000795,0.0011659078283525,-0.0011659120809634,0.0011659059641092,-0.0011659055370478,0.0011659124700492,-0.0011659075127785,0.0011659105169716,-0.001159257521092,0.0011592693978419,-0.0011592709355338,0.0011592559903451,0.61487578428368,125803,2834,0.0062808977453552,0.0062808977455695,0.0044940542172779,27.076698697494,-2.3386410420044e-05,-2.3386410420044e-05,-2.3386410420044e-05,2654279.2513477,0.017202974516353
15619200,0.97476977216177,0.016902531004998,0.0060886009017356,0.0060886009019085,0.0047253292013542,-0.0015115339078002,0.0015115339056198,7.2405211159912e-09,-7.2420740471384e-09,3.500591749325e-10,-3.590297685929e-10,-0.0015903722745163,0.0015903773367854,-0.0015903770845666,0.0015903724710731,-0.0015903724739672,0.0015903771221137,-0.0015903773428673,0.00159037223294,-0.0013771302878227,0.0013771442829942,-0.0013771444941196,0.0013771300111165,-3.371778796237e-10,4.376430550792e-10,-2.8208509327722e-09,2.9114352271744e-09,-0.0015115338617779,0.0015115339517238,-0.0015903758384786,0.0015903737450312,-0.0015903739229813,0.0015903756632718,-0.0015903755509031,0.0015903740291007,-0.0015903736809198,0.001590375910548,-0.0013771398548904,0.0013771346265964,-0.001377134318105,0.0013771402660896,-0.0014816247644774,0.0014816260308329,-0.0014816240615667,0.001481626740685,-6.8472767392893e-09,7.2356054672197e-09,-0.0010795021314082,0.0010795024844669,3.0232741078674e-09,-2.7412133264294e-09,-0.0011648627293534,0.0011648602992596,-0.0011648646269355,0.001164858419042,-0.0011648579940022,0.0011648650140824,-0.0011648599856891,0.0011648630441739,-0.0011581769187573,0.0011581889893403,-0.0011581905469221,0.0011581753709046,0.62694794958635,125803,2834,0.0062777326747579,0.0062777326749266,0.0044892797298597,25.967076980081,-3.2263384159355e-05,-3.2263384159355e-05,-3.2263384159355e-05,2633416.8906234,0.017191680364799
15819200,0.97567822145542,0.016917264362991,0.0060939364826692,0.0060939364828424,0.0047293913974791,-0.0015120994810029,0.0015120994931547,7.3585811199862e-09,-7.3459477105164e-09,2.4009069986451e-10,-2.3351539385324e-10,-0.0015909728078205,0.001590977878796,-0.001590977690372,0.001590972940339,-0.0015909729283914,0.0015909777437394,-0.0015909778721848,0.0015909727795909,-0.0013776602897691,0.0013776745982969,-0.0013776747169203,0.0013776601056494,-2.3152319841933e-10,3.1672914424189e-10,-2.9125445254207e-09,2.9892735253854e-09,-0.0015120994491425,0.0015120995251037,-0.0015909763743522,0.0015909742848542,-0.0015909744016903,0.0015909762609226,-0.0015909761604178,0.0015909744944921,-0.0015909742355438,0.0015909764314192,-0.0013776701387846,0.0013776646592649,-0.0013776644402664,0.0013776704621657,-0.0014822233249742,0.0014822248595534,-0.001482222847795,0.0014822253424562,-6.9596176439282e-09,7.3410650751481e-09,-0.0010796001203682,0.0010796004664307,3.1033584516435e-09,-2.8292235811313e-09,-0.0011650964041187,0.0011650939494092,-0.0011650983564203,0.0011650920138232,-0.0011650915949084,0.0011650987378219,-0.0011650936436039,0.0011650967110945,-0.0011583866309256,0.0011583988480745,-0.0011584004682753,0.0011583850196804,0.66919697815226,125803,2834,0.0062800724411035,0.0062800724412862,0.0044896920831659,25.549235578738,-3.5606115370095e-05,-3.5606115370095e-05,-3.5606115370095e-05,2614536.3873584,0.017196860589256
16019200,0.97653416496646,0.016931112234714,0.0060989537467721,0.0060989537469458,0.0047332047409964,-0.0015127051944242,0.0015127052189158,7.4669044693704e-09,-7.4420561877625e-09,1.4937178008877e-10,-1.2941650253233e-10,-0.0015915851915573,0.0015915902808168,-0.0015915901447574,0.0015915852714959,-0.0015915852504004,0.0015915902082542,-0.0015915902599272,0.0015915851784111,-0.0013782552318334,0.0013782698096357,-0.0013782698515368,0.0013782551244564,-1.4488684121822e-10,2.1752349050429e-10,-3.0003602327484e-09,3.0655640719748e-09,-0.0015127051745548,0.0015127052388703,-0.001591588768344,0.0015915866770157,-0.0015915867440558,0.0015915887053218,-0.0015915886181623,0.0015915868220819,-0.0015915866367047,0.0015915888163738,-0.0013782653358473,0.0013782596143337,-0.0013782594695878,0.0013782655865597,-0.001482852090225,0.0014828538426686,-0.0014828517877894,0.0014828541495923,-7.0804480304601e-09,7.455471095711e-09,-0.0010796711416854,0.0010796714812036,3.1784432343586e-09,-2.911709928855e-09,-0.0011653737351166,0.0011653712507754,-0.0011653757425237,0.0011653692600739,-0.0011653688501705,0.0011653761149927,-0.0011653709488699,0.0011653740383735,-0.0011585540666543,0.0011585664626801,-0.0011585681415592,0.0011585523961607,0.66742790600858,125803,2834,0.0062825775728882,0.0062825775730639,0.0044899945161345,25.149338897829,-3.8805288817366e-05,-3.8805288817366e-05,-3.8805288817366e-05,2590055.1634268,0.017202265972194
16219200,0.97734126315677,0.016944110992679,0.0061036657601492,0.0061036657603232,0.0047367794722063,-0.001513225334942,0.0015132253671061,7.586874029618e-09,-7.5544331137834e-09,9.6502526914045e-11,-6.8276248854523e-11,-0.0015921108939093,0.0015921160286523,-0.0015921159228003,0.0015921109434293,-0.0015921109134036,0.0015921159958132,-0.001592116002016,0.0015921108868579,-0.0013787622980365,0.0013787771539066,-0.0013787771503012,0.0013787622359722,-8.5085716042721e-11,1.4849654993582e-10,-3.0708387607453e-09,3.1275864218523e-09,-0.0015132253231915,0.0015132253789539,-0.0015921144992153,0.0015921123964558,-0.0015921124295421,0.0015921144706469,-0.0015921143897792,0.0015921125002496,-0.0015921123662635,0.0015921145371485,-0.0013787726287848,0.0013787667311715,-0.001378766638086,0.0013787728286944,-0.0014833866062706,0.001483388525534,-0.0014833864351118,0.0014833887003054,-7.1869068569097e-09,7.5562677846178e-09,-0.0010796764867503,0.0010796768205066,3.2446977118923e-09,-2.984491706554e-09,-0.0011655771218769,0.0011655746073039,-0.0011655791738802,0.0011655725719663,-0.0011655721660502,0.001165579542469,-0.0011655743127155,0.0011655774178054,-0.0011586474437724,0.0011586599855816,-0.0011586617163261,0.0011586457211041,0.66425603046638,125803,2834,0.0062847285031854,0.0062847285033865,0.0044900238749038,24.750166636456,-4.1998666908354e-05,-4.1998666908354e-05,-4.1998666908354e-05,2569653.2605127,0.017206673027089
16419200,0.97810562809055,0.016955205187676,0.0061077153359571,0.0061077153361311,0.0047397745155882,-0.0015137331599182,0.0015137332151056,7.5582940901273e-09,-7.502970044533e-09,-7.058480609439e-11,1.2348330772853e-10,-0.0015926408760031,0.0015926459110368,-0.0015926458992242,0.0015926408298864,-0.0015926407974209,0.0015926459775258,-0.0015926458436127,0.001592640911223,-0.0013792222565596,0.0013792371213952,-0.0013792369782444,0.001379222335365,-1.852492633504e-10,2.6413551278809e-10,-3.1885215219988e-09,3.2593284558449e-09,-0.0015137331528304,0.0015137332223446,-0.0015926444915087,0.0015926422689947,-0.0015926423586579,0.0015926444051988,-0.0015926443306484,0.0015926424238909,-0.0015926422076717,0.0015926445618504,-0.0013792326989624,0.001379226584612,-0.001379226411673,0.0013792329853546,-0.0014838691516307,0.0014838709020204,-0.0014838687202043,0.0014838713548422,-7.4463759423141e-09,7.8164202042576e-09,-0.001079691688734,0.0010796920224883,3.2374091874892e-09,-2.9766203717808e-09,-0.0011657905345468,0.0011657878644178,-0.0011657926018957,0.0011657858139885,-0.0011657854274151,0.0011657929507807,-0.0011657875526762,0.0011657908496947,-0.0011587160218879,0.0011587291310541,-0.0011587308548235,0.001158714301303,0.59981696032821,125803,2834,0.0062868285370466,0.0062868285373586,0.0044900933184366,24.412569635722,-4.4699442914224e-05,-4.4699442914224e-05,-4.4699442914224e-05,2554967.3429602,0.017211018113046
16619200,0.97883355478765,0.016967622086432,0.0061122012336686,0.0061122012338421,0.0047432196189215,-0.0015143086469869,0.0015143086904289,7.7774718721612e-09,-7.7338552473839e-09,2.921597806016e-11,1.1010012298741e-11,-0.0015932540332255,0.001593259260928,-0.0015932591932043,0.0015932540437951,-0.0015932540104229,0.0015932592703698,-0.0015932592158741,0.0015932540450012,-0.0013797570218463,0.001379772278837,-0.0013797722157328,0.0013797570210285,-6.8423358831003e-11,1.2699447342106e-10,-3.191454795491e-09,3.2437095315989e-09,-0.0015143086430441,0.001514308694397,-0.001593257716742,0.0015932555505502,-0.001593255576152,0.0015932576954619,-0.0015932576255966,0.0015932556347624,-0.0015932555174698,0.0015932577584333,-0.0013797676874077,0.001379761518808,-0.0013797614455487,0.0013797678730249,-0.0014844703758009,0.0014844723827737,-0.001484470220501,0.0014844725447378,-7.4450283051366e-09,7.8069666036468e-09,-0.0010799072841606,0.0010799076102217,3.3312247667193e-09,-3.0796266113923e-09,-0.0011660770386646,0.001166074413591,-0.0011660791581116,0.0011660723105566,-0.0011660719196948,0.0011660795117854,-0.0011660741192777,0.0011660773346004,-0.0011590339905745,0.0011590469856431,-0.0011590487812254,0.0011590321989119,0.7023563021342,125803,2834,0.0062892101791068,0.0062892101791588,0.0044909904355587,24.158544808681,-4.6731641530551e-05,-4.6731641530551e-05,-4.6731641530551e-05,2552886.2146335,0.017216776199504
16819200,0.97952718096989,0.016979511337878,0.0061164974958965,0.0061164974960706,0.004746516345911,-0.0015150234678182,0.0015150235098123,7.8980305988219e-09,-7.8558118927509e-09,4.6652322450631e-11,-8.0008825785293e-12,-0.0015939401526463,0.0015939454660488,-0.0015939453880653,0.0015939401735092,-0.0015939401372562,0.0015939454682441,-0.001593945426859,0.0015939401584542,-0.001380492745129,0.0013805082397434,-0.0013805081892288,0.0013804927301645,-7.3864491961062e-11,1.3358708461288e-10,-3.2179134269788e-09,3.2712081027276e-09,-0.0015150234627516,0.0015150235149737,-0.0015939438921446,0.0015939416994146,-0.0015939417291137,0.0015939438674324,-0.0015939437925196,0.0015939417926558,-0.001593941670267,0.001593943930022,-0.0013805035468336,0.001380497344409,-0.0013804972647126,0.0013805037369352,-0.0014852150198253,0.0014852170482818,-0.0014852148669051,0.0014852172085879,-7.5452031206184e-09,7.9046082564084e-09,-0.0010800953623467,0.0010800956858521,3.3640209185951e-09,-3.115401750592e-09,-0.0011664840809006,0.0011664814059563,-0.0011664862184638,0.0011664792839949,-0.0011664788911398,0.001166486573957,-0.0011664811185426,0.0011664843699601,-0.0011593122848463,0.001159325433651,-0.0011593272559597,0.0011593104682526,0.70571570059856,125803,2834,0.0062921669309419,0.0062921669311375,0.0044917785042648,23.906693630102,-4.8746450959184e-05,-4.8746450959184e-05,-4.8746450959184e-05,2531332.0741589,0.017223594105614
17019200,0.98018841846125,0.016990631370193,0.006120521777174,0.0061205217773483,0.0047495878156705,-0.0015156726367531,0.0015156726752343,8.0148526422828e-09,-7.976121517845e-09,7.6814083264837e-11,-4.1996184810087e-11,-0.0015945622937265,0.0015945677040804,-0.0015945676082624,0.0015945623323514,-0.0015945622999195,0.0015945676844413,-0.0015945676677591,0.0015945622963663,-0.0013811557994921,0.0013811715001022,-0.0013811714745777,0.0013811557594175,-8.7972742963678e-11,1.4920126234312e-10,-3.2335711359136e-09,3.2881903042418e-09,-0.0015156726292632,0.0015156726828341,-0.0015945660911213,0.0015945638792803,-0.0015945639175953,0.0015945660578993,-0.0015945659821044,0.0015945639820056,-0.0015945638484627,0.0015945661308646,-0.0013811667152828,0.0013811604906182,-0.0013811604001032,0.0013811669163707,-0.0014858810360744,0.0014858830464415,-0.001485880852582,0.0014858832372034,-7.6473746109618e-09,8.0050693718609e-09,-0.0010802219994721,0.0010802223212381,3.3874584495505e-09,-3.1408320159006e-09,-0.0011668326997576,0.0011668299721226,-0.0011668348539937,0.0011668278334381,-0.0011668274427208,0.001166835207276,-0.0011668296858974,0.0011668329875532,-0.0011595207998966,0.0011595341301792,-0.0011595359708001,0.0011595189652246,0.69245974300147,125803,2834,0.0062948518207293,0.0062948518209561,0.0044923114541118,23.654930140893,-5.0760558872855e-05,-5.0760558872855e-05,-5.0760558872855e-05,2512843.9478697,0.017229599621386
17219200,0.9808039017852,0.017000714617249,0.0061241776352131,0.0061241776353875,0.0047523593466484,-0.0015154168698584,0.0015154168923434,8.1719464924088e-09,-8.1490876692596e-09,2.0042589189129e-10,-1.8295238187149e-10,-0.0015942953566403,0.0015943009406439,-0.0015943007729266,0.0015942954669395,-0.0015942954419152,0.0015943008404203,-0.0015943009270174,0.0015942953348606,-0.0013808989321394,0.0013809148756793,-0.0013809149532423,0.0013808987873139,-1.1390806471622e-10,1.7789641790941e-10,-3.176585534527e-09,3.2336795462213e-09,-0.0015154168531127,0.0015154169092145,-0.0015942992340397,0.0015942970354062,-0.001594297089082,0.0015942991844976,-0.0015942990988556,0.0015942971641024,-0.0015942970095845,0.0015942992682132,-0.0013809098930333,0.0013809038218361,-0.0013809037093341,0.0013809101134499,-0.0014856252194234,0.001485627164417,-0.0014856250053051,0.0014856273859756,-7.7018392644624e-09,8.0601091083171e-09,-0.0010795389398971,0.0010795392622442,3.3799689453681e-09,-3.13264105549e-09,-0.0011663314818949,0.0011663287048016,-0.0011663336229981,0.0011663265793126,-0.0011663261803276,0.0011663339846769,-0.0011663284253958,0.0011663317619116,-0.0011588914330235,0.0011589048520735,-0.0011589066886943,0.0011588896047323,0.67475985527079,125803,2834,0.006293790422707,0.0062937904229659,0.0044894837434484,22.996005058244,-5.6031959534047e-05,-5.6031959534047e-05,-5.6031959534047e-05,2497521.4468465,0.017224565029521
17419200,0.9813656343872,0.017009539800176,0.006127385878138,0.0061273858783125,0.004754768043725,-0.0015143552623531,0.0015143552720906,8.2700123075067e-09,-8.2596953762701e-09,2.9876885611065e-10,-2.9509277870641e-10,-0.0015932377329719,0.0015932434482399,-0.001593243222921,0.0015932379010963,-0.0015932378922359,0.0015932432733185,-0.0015932434426967,0.0015932377021532,-0.0013798199496131,0.0013798360024811,-0.001379836161908,0.0013798197218976,-2.1007735351635e-10,2.8803789589884e-10,-3.1003392074855e-09,3.1703203777416e-09,-0.0015143552329128,0.0015143553017729,-0.0015932416784533,0.0015932394744473,-0.0015932395835831,0.001593241573038,-0.0015932414798754,0.0015932396676135,-0.0015932394322758,0.0015932417289455,-0.0013798308627469,0.0013798249981266,-0.0013798248029155,0.0013798311643802,-0.0014845494665749,0.0014845511629227,-0.0014845490387923,0.0014845516022418,-7.8146653505556e-09,8.1786342409262e-09,-0.0010781606585739,0.0010781609867481,3.3130765941592e-09,-3.0592454267137e-09,-0.0011650834132941,0.0011650805229169,-0.0011650855119311,0.0011650784398026,-0.0011650780391344,0.0011650858751526,-0.0011650802334681,0.0011650837030568,-0.0011575384894305,0.0011575521995101,-0.0011575539847691,0.0011575367135758,0.64747796390081,125803,2834,0.00628939321652,0.00628939321702,0.0044837699402233,21.993642632598,-6.4050858939213e-05,-6.4050858939213e-05,-6.4050858939213e-05,2485306.0217745,0.017209808178008
17619200,0.98187870165136,0.017017302291155,0.006130213967525,0.0061302139676992,0.0047568743559308,-0.001513137130334,0.0015131371181694,8.4375098670418e-09,-8.4491818360594e-09,4.615264963294e-10,-4.8154728935498e-10,-0.0015920396767612,0.0015920456186851,-0.0015920452997046,0.0015920399365148,-0.0015920399643454,0.0015920453112439,-0.0015920456159531,0.0015920396380269,-0.0013785661806942,0.0013785824028194,-0.0013785826999443,0.0013785658126421,-2.0234472662514e-10,2.7618125544356e-10,-2.9869212340919e-09,3.0520948912579e-09,-0.001513137091309,0.0015131371566676,-0.0015920436876298,0.0015920415785969,-0.0015920416829193,0.0015920435822039,-0.001592043508813,0.0015920417493844,-0.0015920415219143,0.0015920437510965,-0.0013785770924893,0.0013785713966652,-0.0013785712103945,0.0013785773773609,-0.0014833095735553,0.0014833111693206,-0.0014833091192384,0.001483311624937,-7.8549181696129e-09,8.2206750121978e-09,-0.0010767149009738,0.0010767152308687,3.2865498133173e-09,-3.0302711889202e-09,-0.0011637139427195,0.0011637110221485,-0.0011637160356769,0.0011637089391215,-0.0011637085543571,0.0011637163850723,-0.0011637107143194,0.0011637142485889,-0.0011561070141312,0.0011561208678828,-0.0011561226351974,0.0011561052605356,0.6239023194196,125803,2834,0.0062843485920045,0.0062843485909125,0.0044777742318144,20.982302555019,-7.2141579559844e-05,-7.2141579559844e-05,-7.2141579559844e-05,2478842.0745667,0.017193447492389
17819200,0.9823485156624,0.01702417272098,0.0061327217257059,0.0061327217258862,0.0047587292693878,-0.0015118458397857,0.0015118458496938,8.353729942461e-09,-8.3431020684293e-09,2.8500212302783e-10,-2.8119848946152e-10,-0.001590783790775,0.00159078953986,-0.0015907893194106,0.0015907839549748,-0.0015907839266875,0.0015907893915605,-0.0015907895566625,0.0015907837415593,-0.0013772246721122,0.0013772409573528,-0.0013772411100766,0.001377224455697,-4.6718110217331e-10,5.8381186377436e-10,-3.0168744233586e-09,3.1226728745239e-09,-0.0015118457925164,0.0015118458971584,-0.001590787812826,0.0015907854900437,-0.0015907857428366,0.0015907875644508,-0.0015907874166574,0.001590785884026,-0.0015907854341089,0.0015907878794229,-0.0013772354991514,0.0013772300395632,-0.0013772296294057,0.0013772360188583,-0.0014819909019907,0.0014819921073364,-0.0014819899937668,0.0014819930327318,-8.1622132672568e-09,8.5432694296892e-09,-0.0010752719645675,0.0010752723100697,3.1139782961006e-09,-2.8405856441963e-09,-0.0011623046170255,0.0011623013523241,-0.0011623065597892,0.0011622994288401,-0.0011622989893491,0.0011623069593734,-0.0011623010683459,0.0011623049056243,-0.0011546681260713,0.0011546826308485,-0.0011546842569281,0.0011546665050318,0.60341626739293,125803,2834,0.0062790016959128,0.0062790016963175,0.004471788642328,19.992551938012,-8.0059584495905e-05,-8.0059584495905e-05,-8.0059584495905e-05,2477070.3426634,0.017176482332958
18019200,0.98277969346361,0.017030470203733,0.0061350192859276,0.0061350192861063,0.0047604316316988,-0.0015105002719634,0.0015105002621795,8.5982848410061e-09,-8.6073596178955e-09,4.3363067364528e-10,-4.5101707232627e-10,-0.0015894835842249,0.0015894896172533,-0.0015894893150294,0.0015894838300429,-0.0015894838556106,0.0015894893302966,-0.0015894896156835,0.0015894835496253,-0.0013758226741605,0.0013758392287411,-0.0013758395037109,0.0013758223320895,-3.4483330740269e-10,4.4423496544995e-10,-2.8928923105779e-09,2.9824698993933e-09,-0.0015105002227253,0.001510500311529,-0.001589487653648,0.0015894855196688,-0.0015894857046782,0.0015894874713454,-0.0015894873749575,0.0015894857944796,-0.0015894854420452,0.0015894877394888,-0.0013758336102951,0.0013758282028076,-0.0013758278901159,0.0013758340261292,-0.0014806199328078,0.0014806211856612,-0.0014806191710723,0.0014806219550273,-8.128369328627e-09,8.5077887876572e-09,-0.0010738430369011,0.0010738433808167,3.1346158889929e-09,-2.8629233420045e-09,-0.0011608706107486,0.0011608674115647,-0.0011608725996971,0.0011608654382564,-0.0011608650369135,0.0011608729626187,-0.0011608670919091,0.001160870931765,-0.001153240637322,0.0011532551639343,-0.0011532568083228,0.0011532390032299,0.60265701737555,125803,2834,0.0062734304432761,0.006273430443506,0.0044658598608316,19.021119387962,-8.78310448963e-05,-8.78310448963e-05,-8.78310448963e-05,2478585.8938248,0.017159118591797
18219200,0.98317583060195,0.017036361002123,0.0061371647393774,0.0061371647395559,0.0047620315231901,-0.001509112636626,0.0015091126335632,8.6467122715225e-09,-8.6491098490429e-09,3.7295053061729e-10,-3.830307122629e-10,-0.0015881376901387,0.0015881436977027,-0.001588143429761,0.0015881379016468,-0.0015881378978035,0.0015881434745377,-0.0015881437124857,0.0015881376397234,-0.0013743873872256,0.001374404146601,-0.0013744043744501,0.001374387094007,-3.8886570306676e-10,4.9444940269898e-10,-2.8763082790036e-09,2.9715637431645e-09,-0.0015091125878427,0.001509112682431,-0.0015881417652408,0.0015881395946379,-0.0015881398030986,0.0015881415589066,-0.0015881414341867,0.0015881399217444,-0.0015881395341649,0.0015881418343193,-0.0013743983599827,0.0013743930836828,-0.0013743927362692,0.0013743988123944,-0.0014792135560451,0.0014792147834259,-0.0014792127735803,0.0014792155775148,-8.2998934170599e-09,8.6857668403146e-09,-0.0010724041374679,0.0010724044878966,3.0610027791317e-09,-2.7819494995353e-09,-0.0011594177388102,0.0011594143578086,-0.0011594196539577,0.001159412457519,-0.0011594120271347,0.0011594200461359,-0.0011594140547147,0.0011594180435661,-0.0011518015477935,0.0011518164056124,-0.0011518179914738,0.0011517999703448,0.61338749551368,125803,2834,0.0062676851380629,0.0062676851382372,0.0044598895990099,18.050164364848,-9.5598685081213e-05,-9.5598685081213e-05,-9.5598685081213e-05,2479056.8039615,0.017141358716114
18419200,0.98354932895034,0.017041951769831,0.0061391990747514,0.0061391990749299,0.0047635536201496,-0.0015084887353874,0.0015084887457313,8.7345751991939e-09,-8.7232600383937e-09,2.788036137998e-10,-2.7420904410193e-10,-0.0015875421219343,0.0015875481555754,-0.001587547942539,0.0015875422809954,-0.0015875422903743,0.0015875479788854,-0.0015875481361969,0.0015875421101187,-0.0013737263739855,0.0013737432955407,-0.0013737434416855,0.0013737261589841,-3.4408744518827e-10,4.5185788747806e-10,-2.8876287452809e-09,2.9859425259062e-09,-0.0015084886932151,0.0015084887887027,-0.0015875461883606,0.0015875440618572,-0.0015875442453604,0.0015875460136588,-0.0015875459141709,0.0015875443388979,-0.0015875439789165,0.001587546279045,-0.0013737374936484,0.0013737320914487,-0.0013737317697438,0.001373737919155,-0.0014785782145774,0.0014785794569238,-0.001478577444774,0.0014785802546178,-8.4388851972229e-09,8.8248103795123e-09,-0.0010716847990364,0.0010716851496409,3.0484944782738e-09,-2.7695526899561e-09,-0.0011587092155058,0.0011587057602247,-0.0011587111512838,0.0011587038483862,-0.0011587034397868,0.0011587115186749,-0.0011587054346482,0.0011587095462548,-0.0011510952826542,0.0011511104957623,-0.0011511120754754,0.0011510937153007,0.61738401435223,125803,2834,0.0062651017636681,0.0062651017653211,0.0044569054278104,17.476776478668,-0.00010018578817066,-0.00010018578817066,-0.00010018578817066,2478751.0893993,0.01713306851541
18619200,0.98390904986479,0.017047286297945,0.0061411407883074,0.0061411407884825,0.0047650047211555,-0.001508492558288,0.0015084925757257,8.8919762071718e-09,-8.8740512520609e-09,2.1949526721731e-10,-2.0731261256552e-10,-0.0015875712901105,0.0015875773726742,-0.0015875771947646,0.0015875714116149,-0.0015875713974306,0.001587577251403,-0.001587577358908,0.0015875712696027,-0.0013736935760625,0.0013737108985591,-0.0013737109963254,0.001373693412127,-2.1186462326942e-10,2.9362586674945e-10,-2.9167846140877e-09,2.9902840480698e-09,-0.0015084925308581,0.0015084926032952,-0.0015875753577228,0.0015875732782628,-0.001587573384866,0.0015875752538398,-0.0015875751595374,0.0015875734714476,-0.0015875732302676,0.0015875754130515,-0.0013737049463474,0.0013736994380646,-0.0013736992373427,0.0013737052516476,-0.0014785703013809,0.001478571869476,-0.001478569861421,0.0014785723184856,-8.5066905634712e-09,8.8887910691814e-09,-0.0010715579826574,0.0010715583292663,3.1033855563559e-09,-2.8286622244192e-09,-0.0011586127857022,0.0011586093017839,-0.0011586147391348,0.0011586073632256,-0.0011586069456533,0.0011586151186846,-0.0011586089934345,0.0011586130957773,-0.0011509888155055,0.0011510040679739,-0.001151005687287,0.0011509872045195,0.6117863840867,125803,2834,0.0062651172619698,0.0062651172622579,0.0044563799102503,17.231230226188,-0.00010215015819049,-0.00010215015819049,-0.00010215015819049,2479464.177578,0.01713256605085
18819200,0.98425579278446,0.01705275018202,0.0061431215081295,0.0061431215083046,0.0047665071655858,-0.0015085032552205,0.0015085032850284,8.9918271328533e-09,-8.961619091453e-09,1.2924246808426e-10,-1.0370946304121e-10,-0.0015876082941442,0.0015876143973953,-0.0015876142710223,0.0015876083638886,-0.0015876083473391,0.0015876143308368,-0.0015876143620703,0.0015876082956568,-0.001373672762306,0.0013736903152278,-0.001373690336539,0.0013736726749924,-1.4543713264249e-10,2.1720873379004e-10,-2.9685322897488e-09,3.0330649341982e-09,-0.0015085032386533,0.0015085033018587,-0.0015876123639201,0.0015876103011991,-0.0015876103694412,0.0015876122986736,-0.0015876122227968,0.0015876104369426,-0.0015876102527657,0.0015876124193424,-0.0013736843367049,0.0013736786507682,-0.0013736785070948,0.0013736845872713,-0.0014785774084739,0.00147857910861,-0.0014785770800221,0.0014785794490951,-8.6344981781487e-09,9.0138193136544e-09,-0.0010714543832131,0.0010714547269233,3.1359519466331e-09,-2.8645254596519e-09,-0.0011585296379782,0.0011585260999314,-0.0011585316239987,0.001158524128703,-0.0011585237238485,0.001158531991155,-0.0011585257848559,0.0011585299547143,-0.0011509110995789,0.0011509266032476,-0.0011509282478083,0.0011509094623089,0.64922935213362,125803,2834,0.0062651613472413,0.0062651613477849,0.0044559504989121,16.994229130725,-0.0001040461669542,-0.0001040461669542,-0.0001040461669542,2480789.5868654,0.017132219308009
19019200,0.98459012934013,0.017058332949685,0.0061451383704312,0.0061451383706065,0.0047680562086469,-0.0015085786600728,0.0015085786967866,9.1244266163243e-09,-9.0874261112525e-09,8.1602574273841e-11,-4.8602427817428e-11,-0.0015876813079266,0.0015876874591455,-0.0015876873603391,0.0015876813500497,-0.0015876813169016,0.0015876874372707,-0.001587687427365,0.0015876813064518,-0.0013737485825797,0.0013737664607253,-0.00137376644079,0.0013737485363243,-7.1456341351939e-11,1.3186843156198e-10,-3.0063756762454e-09,3.0604028753333e-09,-0.0015085786521161,0.001508578704889,-0.0015876853965836,0.0015876833444049,-0.0015876833703726,0.001587685373929,-0.0015876852975443,0.001587683437284,-0.0015876833160428,0.0015876854317476,-0.0013737603675221,0.0013737545846552,-0.0013737545041167,0.0013737605541372,-0.0014786608624123,0.0014786627620276,-0.0014786607204652,0.0014786629113853,-8.7273726049462e-09,9.1026009341427e-09,-0.0010713553490102,0.0010713556886333,3.1812413860057e-09,-2.9144153292198e-09,-0.0011585024044788,0.0011584988230039,-0.0011585044119171,0.001158496830126,-0.0011584964192217,0.001158504785164,-0.0011584985219377,0.001158502707275,-0.0011508421037672,0.0011508577187473,-0.0011508593988244,0.0011508404309014,0.68719099339362,125803,2834,0.0062654726919846,0.0062654726922855,0.0044555420208452,16.757571702915,-0.00010593942637668,-0.00010593942637668,-0.00010593942637668,2474126.282331,0.017132437541323
19219200,0.98492294273107,0.017064052407988,0.006147201621964,0.0061472016221393,0.0047696491638848,-0.0015096927142028,0.0015096927577482,9.2641860685336e-09,-9.2202816056084e-09,3.5263646366868e-11,5.0573220316952e-12,-0.0015887636171534,0.0015887698307959,-0.0015887697578716,0.0015887636338778,-0.0015887635923492,0.0015887698464302,-0.0015887697972842,0.0015887636204079,-0.0013748859428308,0.0013749041369718,-0.001374904075056,0.0013748859380532,2.2945113689586e-11,2.598270378725e-11,-3.0717669445651e-09,3.1159824692348e-09,-0.0015096927151022,0.0015096927572317,-0.0015887677311099,0.001588765691996,-0.0015887656626095,0.0015887677660038,-0.0015887676965742,0.0015887657214238,-0.0015887656777135,0.0015887677517544,-0.0013748979790284,0.0013748920104834,-0.0013748920067507,0.001374898091137,-0.0014797923835609,0.0014797945136198,-0.0014797924461972,0.001479794461199,-8.8148839110007e-09,9.1828097517007e-09,-0.0010721674122689,0.0010721677445174,3.2604233064494e-09,-3.0019741385384e-09,-0.0011594555997909,0.0011594520083428,-0.0011594576625664,0.0011594499659886,-0.0011594495577823,0.0011594580309781,-0.0011594517189367,0.0011594558933223,-0.0011517065553925,0.0011517222643121,-0.0011517240067547,0.0011517048201214,0.70677986198961,125803,2834,0.0062700837087952,0.0062700837095871,0.0044589156698871,17.021930142904,-0.00010382455885677,-0.00010382455885677,-0.00010382455885677,2463975.6773989,0.017145249539609
19419200,0.98525937169697,0.017069716886566,0.0061492483323608,0.0061492483325348,0.0047712202216708,-0.0015113228978384,0.0015113229494374,9.3515205734068e-09,-9.299763932419e-09,-2.6470495521003e-11,7.5545082561349e-11,-0.0015903565247646,0.0015903627615997,-0.0015903627247571,0.0015903565046232,-0.0015903564583153,0.0015903628161948,-0.0015903627146957,0.0015903565392846,-0.0013765406005616,0.001376558998008,-0.001376558886382,0.0013765406459495,4.0043881157506e-11,3.9302595339125e-12,-3.1602686983271e-09,3.1992422720946e-09,-0.0015113229049638,0.0015113229424815,-0.0015903606720984,0.0015903585883468,-0.0015903585504555,0.0015903607147034,-0.0015903606532745,0.0015903586003764,-0.0015903585743509,0.0015903606931348,-0.0013765528366797,0.0013765466693548,-0.0013765466848839,0.0013765529297956,-0.0014814333629353,0.001481435576808,-0.0014814334532751,0.0014814354931211,-8.9539389391526e-09,9.3173610421923e-09,-0.0010734209707584,0.0010734212983566,3.321167044678e-09,-3.067969087813e-09,-0.0011608914300758,0.0011608877888336,-0.0011608935366788,0.0011608856975076,-0.0011608852992561,0.0011608938973114,-0.0011608874987686,0.0011608917220952,-0.0011530165466159,0.0011530324867954,-0.001153034276214,0.0011530147640587,0.6926475632757,125803,2834,0.0062768312634656,0.0062768312638154,0.0044641218513599,17.537936773843,-9.9696505809259e-05,-9.9696505809259e-05,-9.9696505809259e-05,2454447.2642004,0.01716427245013
19619200,0.98559929939069,0.017075303985254,0.0061512708143381,0.006151270814512,0.0047727623564043,-0.0015129337925913,0.0015129338422823,9.4964491079396e-09,-9.4466005867188e-09,-8.8313053273314e-12,5.5811838692521e-11,-0.0015919459208201,0.001591952259024,-0.0015919522118916,0.0015919459113075,-0.0015919458605018,0.0015919523081148,-0.0015919522209243,0.0015919459271447,-0.0013781576344312,0.0013781763226612,-0.0013781762249218,0.0013781576651459,6.3955236093791e-11,-2.357622284093e-11,-3.2070727218758e-09,3.242816231532e-09,-0.001512933800462,0.0015129338346433,-0.0015919501302093,0.0015919480236801,-0.0015919479727217,0.001591950187191,-0.001591950122021,0.0015919480253895,-0.0015919480197069,0.0015919501414734,-0.001378170060962,0.0013781638037041,-0.0013781638396867,0.001378170133235,-0.0014830459497258,0.0014830482587067,-0.0014830461084484,0.0014830481048068,-9.0309330839424e-09,9.3886244984956e-09,-0.0010746695448134,0.0010746698665928,3.3900746320654e-09,-3.1434755713973e-09,-0.0011623044651907,0.001162300810296,-0.0011623066141245,0.0011622986782556,-0.0011622982788194,0.0011623069753271,-0.0011623005325566,0.0011623047451833,-0.0011543198478076,0.0011543358597767,-0.0011543377034094,0.0011543180115627,0.67638952152814,125803,2834,0.0062834991327935,0.0062834991332727,0.0044693063996296,18.060575180993,-9.5515398552058e-05,-9.5515398552058e-05,-9.5515398552058e-05,2449926.0926129,0.017183111688186
19819200,0.98594245598608,0.017080786945268,0.0061532597100349,0.0061532597102081,0.0047742675250253,-0.0015145098415696,0.0015145098931134,9.5647674262736e-09,-9.5130702618806e-09,-1.83626342106e-11,6.7296527607864e-11,-0.001593514987656,0.0015935213736174,-0.0015935213311374,0.001593514972907,-0.0015935149278081,0.0015935214214101,-0.0015935213254972,0.0015935150032051,-0.0013797215159911,0.0013797403222455,-0.0013797402160314,0.0013797215555848,2.3214800333197e-11,2.1810479815222e-11,-3.268637460781e-09,3.3085127976536e-09,-0.0015145098481952,0.0015145098866589,-0.0015935192498972,0.0015935170847772,-0.0015935170577488,0.0015935192825212,-0.0015935192208603,0.0015935171070943,-0.001593517069172,0.0015935192735983,-0.0013797340584201,0.0013797276866144,-0.001379727690398,0.0013797341644005,-0.0014846169993615,0.0014846192485704,-0.0014846170515948,0.0014846192022617,-9.184940854554e-09,9.5403873189515e-09,-0.0010759061073672,0.0010759064268388,3.4199121015916e-09,-3.1759861989322e-09,-0.0011636824386023,0.0011636787083992,-0.0011636846155485,0.0011636765470751,-0.0011636761579318,0.0011636849670311,-0.0011636784250459,0.0011636827239162,-0.0011556104358213,0.0011556267467409,-0.0011556286129588,0.0011556085760183,0.6578689318226,125803,2834,0.0062900229978821,0.0062900229982351,0.0044744401484767,18.583480853539,-9.1332153171691e-05,-9.1332153171691e-05,-9.1332153171691e-05,2449624.0803582,0.01720160663181
20019200,0.98627935201564,0.017086359012855,0.0061552770894865,0.0061552770896598,0.0047758048337085,-0.0015152057272627,0.0015152057671026,9.6792739320608e-09,-9.6391494740119e-09,7.4346123659308e-11,-3.811428098782e-11,-0.0015942182524706,0.0015942247707918,-0.0015942246743433,0.0015942182918198,-0.0015942182557355,0.0015942247548488,-0.0015942247360463,0.0015942182539043,-0.0013803983949867,0.001380417365993,-0.0013804173371973,0.0013803983571345,-5.946765865679e-11,1.1578536005203e-10,-3.2461527290041e-09,3.2962814195932e-09,-0.0015152057228535,0.0015152057716851,-0.001594222600074,0.0015942203959045,-0.0015942204174617,0.0015942225842625,-0.0015942225105691,0.0015942204795784,-0.0015942203724996,0.0015942226320722,-0.0013804109652834,0.0013804047026209,-0.0013804046375516,0.0013804111398226,-0.0014853087882136,0.0014853108691041,-0.0014853086735072,0.001485310990677,-9.2842520321728e-09,9.6405748660554e-09,-0.0010763486987655,0.001076349019141,3.4102406345924e-09,-3.1653322561437e-09,-0.0011642191538242,0.0011642153487596,-0.0011642213219631,0.0011642131966563,-0.0011642128043543,0.0011642216763875,-0.0011642150666248,0.0011642194378556,-0.0011560958003288,0.0011561123077421,-0.0011561141665297,0.0011560939486767,0.68048382323702,125803,2834,0.0062929031505033,0.0062929031508613,0.0044762785975891,18.671399521863,-9.0628803825096e-05,-9.0628803825096e-05,-9.0628803825096e-05,2450283.1477942,0.017209336763366
20219200,0.98660758218254,0.01709193898878,0.0061572943863822,0.0061572943865554,0.0047773502158421,-0.0015156911739098,0.0015156912014274,9.7779970178442e-09,-9.7501188054456e-09,1.6829566209481e-10,-1.4543922563737e-10,-0.0015946944357566,0.0015947010786162,-0.0015947009275628,0.0015946945294726,-0.0015946945052243,0.0015947009948277,-0.0015947010549533,0.0015946944248571,-0.0013808827422638,0.0013809018391143,-0.0013809018896877,0.001380882625551,-1.6247480285924e-10,2.3231441847524e-10,-3.2007402431048e-09,3.2630508468012e-09,-0.0015156911570043,0.0015156912183997,-0.0015946988622667,0.0015946966241858,-0.0015946967054649,0.0015946987855151,-0.001594698700108,0.0015946967803629,-0.001594696588001,0.0015946989076411,-0.001380895294797,0.0013808891933091,-0.0013808890431456,0.001380895553933,-0.0014857983344858,0.0014858001861738,-0.0014857980034879,0.0014858005237466,-9.3976344548678e-09,9.7578377772834e-09,-0.0010765669451856,0.0010765672694867,3.3690108085397e-09,-3.1196516431137e-09,-0.0011645484694735,0.001164544562486,-0.0011645506082667,0.0011645424383027,-0.0011645420426814,0.0011645509662374,-0.0011645442758883,0.0011645487575196,-0.0011563566037566,0.0011563733704658,-0.0011563751962848,0.0011563547848829,0.69908658197837,125803,2834,0.0062949117363903,0.0062949117365276,0.0044771872844765,18.638434810398,-9.0892521516819e-05,-9.0892521516819e-05,-9.0892521516819e-05,2445828.8734052,0.017214347926667
20419200,0.98692731670799,0.017097381878548,0.006159262392956,0.0061592623931295,0.0047788570924629,-0.0015161815895384,0.0015161816071425,9.8733135832238e-09,-9.8552028638468e-09,2.453600396545e-10,-2.3325604718787e-10,-0.0015951650545002,0.0015951718102154,-0.0015951716143201,0.0015951651934571,-0.0015951651796476,0.0015951716710035,-0.0015951717957064,0.0015951650344821,-0.0013813816427804,0.0013814008689607,-0.0013814009837162,0.0013813814616764,-2.5204740606593e-10,3.3539256094946e-10,-3.1484308664802e-09,3.2232491318964e-09,-0.0015161815615202,0.001516181635315,-0.0015951695474623,0.0015951672890418,-0.0015951674221664,0.0015951694191662,-0.0015951693229582,0.0015951675089954,-0.0015951672402666,0.001595169605726,-0.0013813941783335,0.0013813882412977,-0.0013813880142529,0.0013813945137605,-0.0014862938336226,0.0014862954748041,-0.0014862933116081,0.001486296006416,-9.5154478005026e-09,9.8799629083856e-09,-0.0010767656689427,0.0010767659976204,3.3188480205189e-09,-3.0645616216578e-09,-0.0011648791446469,0.0011648751278726,-0.0011648812498886,0.0011648730387299,-0.0011648726392039,0.0011648816111288,-0.0011648748364913,0.0011648794379954,-0.0011565971213222,0.001156614164727,-0.0011566159514282,0.0011565953421875,0.69998399431877,125803,2834,0.0062969406251839,0.0062969406255027,0.0044780157474443,18.602212386373,-9.1182300909016e-05,-9.1182300909016e-05,-9.1182300909016e-05,2438788.9595817,0.017219318873365
20619200,0.98723878623832,0.01710215182194,0.0061609989871442,0.0061609989873177,0.004780153847478,-0.001516630707756,0.0015166307145797,9.9940656563309e-09,-9.9866374554926e-09,3.2654870245541e-10,-3.2610274466735e-10,-0.0015956026482287,0.0015956095337523,-0.0015956092909464,0.0015956028342455,-0.0015956028293801,0.0015956093379277,-0.0015956095308972,0.0015956026158808,-0.0013818238510176,0.0013818432596726,-0.0013818434429702,0.0013818236013141,-3.100006663395e-10,4.0156566691545e-10,-3.0876438259201e-09,3.1699536290117e-09,-0.0015166306705528,0.0015166307519358,-0.001595607204559,0.0015956049489088,-0.0015956051156253,0.0015956070422968,-0.0015956069377148,0.0015956052117388,-0.0015956048939495,0.0015956072689608,-0.0013818363959457,0.0013818306232689,-0.0013818303471589,0.0013818367794085,-0.0014867307321346,0.0014867322249672,-0.0014867300922149,0.0014867328750852,-9.6076038135292e-09,9.9757675195617e-09,-0.0010769272843845,0.0010769276167852,3.275786681936e-09,-3.0172853158807e-09,-0.0011651757384804,0.001165171631085,-0.001165177812288,0.0011651695734582,-0.0011651691689025,0.0011651781784323,-0.0011651713372963,0.0011651760340655,-0.0011567867550627,0.0011568040121815,-0.0011568057654946,0.0011567850101501,0.63099123352293,125803,2834,0.006298798509406,0.0062987985097217,0.0044786900426912,18.565858150723,-9.1473134794214e-05,-9.1473134794214e-05,-9.1473134794214e-05,2433345.7589594,0.017223785486496
20819200,0.98752772643021,0.017106902689937,0.0061627205088115,0.006162720508985,0.0047814616721402,-0.0015154188658349,0.0015154188623719,1.0050336867931e-08,-1.0053445383615e-08,3.9007350981615e-10,-4.008002555332e-10,-0.0015944235141201,0.0015944304801676,-0.0015944302011291,0.0015944237350666,-0.0015944237420932,0.001594430231228,-0.0015944304802696,0.0015944234743423,-0.0013805771913072,0.0013805966530063,-0.0013805968963803,0.0013805768841703,-4.5621742728252e-10,5.6345040295203e-10,-2.994233289496e-09,3.0897167866664e-09,-0.0015154188157424,0.001515418912139,-0.0015944281220435,0.001594425842154,-0.0015944260928004,0.0015944278709979,-0.0015944277555622,0.0015944262015075,-0.0015944257667808,0.001594428207865,-0.0013805896249949,0.0013805841255027,-0.0013805837346834,0.0013805901217133,-0.0014855069321033,0.0014855080747764,-0.0014855059790343,0.0014855090324173,-9.7604757781211e-09,1.0140227627359e-08,-0.0010756540478333,0.0010756543918222,3.1524932174778e-09,-2.8806941516497e-09,-0.0011639019310268,0.0011638976463464,-0.0011639039178504,0.0011638956660218,-0.0011638952565435,0.0011639042922796,-0.0011638973353413,0.0011639022404006,-0.001155519791852,0.0011555374673063,-0.0011555391224891,0.0011555181440271,0.67642716635068,125803,2834,0.0062937810710998,0.0062937810704249,0.0044734073537262,17.743989363906,-9.8048085088752e-05,-9.8048085088752e-05,-9.8048085088752e-05,2435214.9512912,0.017208204472522
21019200,0.98779450276294,0.017111154008726,0.0061642637757937,0.0061642637759693,0.0047826264569629,-0.0015140644500442,0.0015140644163224,1.0352401778408e-08,-1.0386046104833e-08,6.0885441109215e-10,-6.5212273745095e-10,-0.0015930703149725,0.0015930775941397,-0.0015930771906923,0.001593070658015,-0.0015930706731185,0.0015930772058946,-0.0015930776375211,0.001593070222995,-0.0013792168928522,0.0013792368502244,-0.0013792372817542,0.0013792163967718,-3.6688245222822e-10,4.5342519708106e-10,-2.8155859651241e-09,2.8905732534345e-09,-0.0015140643933394,0.0015140644715631,-0.0015930750019241,0.0015930728751864,-0.0015930730753208,0.0015930747946777,-0.0015930746775501,0.0015930731868277,-0.0015930728326454,0.0015930750525637,-0.0013792294020113,0.0013792242435834,-0.0013792239354683,0.0013792298060851,-0.0014841454245173,0.0014841466858639,-0.0014841447211274,0.0014841473700825,-9.66262655343e-09,1.0043133622809e-08,-0.0010741999141836,0.0010742002592395,3.1384861554538e-09,-2.8651393901624e-09,-0.0011624937627076,0.0011624895107298,-0.0011624957134626,0.001162487553271,-0.0011624871272287,0.0011624961094552,-0.001162489214121,0.0011624940511113,-0.0011540636898839,0.0011540811251606,-0.0011540827711167,0.0011540620550511,0.65601664037431,125803,2834,0.0062881726364463,0.0062881726334137,0.0044673761492229,16.833591889116,-0.00010533126488707,-0.00010533126488707,-0.00010533126488707,2427406.719725,0.017190660104374
21219200,0.98804098158321,0.017115104544276,0.0061656968321835,0.0061656968323645,0.0047837108797278,-0.001512638826382,0.0015126388086389,1.0279807655403e-08,-1.0296819131773e-08,4.9512710773614e-10,-5.2119496391044e-10,-0.0015916567467254,0.0015916639315185,-0.0015916635919765,0.0015916570298459,-0.0015916570513606,0.0015916636095795,-0.0015916639481197,0.0015916566929206,-0.0013777766245602,0.0013777964611324,-0.0013777967902939,0.0013777762297143,-5.1610056730546e-10,6.3722184766049e-10,-2.7908883696007e-09,2.9000198302966e-09,-0.0015126387630405,0.0015126388719757,-0.0015916614158934,0.0015916592335827,-0.0015916595169713,0.0015916611334733,-0.0015916610069161,0.0015916596390219,-0.0015916591470301,0.0015916615114583,-0.0013777890255462,0.0013777839708977,-0.001377783518862,0.0013777895794392,-0.0014827134209707,0.0014827143103928,-0.0014827123373553,0.0014827154048833,-9.9581961055238e-09,1.0351161304363e-08,-0.001072730284435,0.0010727306420346,2.9842197287313e-09,-2.697067160206e-09,-0.0011610327840544,0.0011610282599132,-0.0011610346565686,0.0011610264008747,-0.0011610259756891,0.0011610350438963,-0.0011610279374219,0.0011610331075224,-0.0011525904281975,0.0011526086348785,-0.0011526101600156,0.0011525889123428,0.6596710103917,125803,2834,0.0062822699089372,0.0062822699089271,0.0044612793813407,15.920635500672,-0.00011263491599463,-0.00011263491599463,-0.00011263491599463,2423212.0520654,0.017172450429555
21419200,0.98827216822916,0.017118833348091,0.0061670484770492,0.0061670484772301,0.0047847363938119,-0.0015116324002179,0.0015116323816796,1.0522920606646e-08,-1.0540766697283e-08,4.9445293797862e-10,-5.21489472384e-10,-0.0015906571226498,0.0015906644501644,-0.0015906641107868,0.0015906574044818,-0.0015906574074726,0.0015906641454165,-0.0015906644840145,0.0015906570487394,-0.0013767589568291,0.0013767793266561,-0.0013767796546996,0.0013767585632024,-4.2674706669946e-10,5.3171432151004e-10,-2.716725780825e-09,2.8116021900456e-09,-0.0015116323434563,0.0015116324383383,-0.0015906618197699,0.0015906597244859,-0.0015906599549569,0.0015906615872952,-0.0015906614559113,0.0015906600825329,-0.0015906596682208,0.0015906618830691,-0.0013767715552249,0.0013767666396147,-0.0013767662639976,0.0013767720345438,-0.0014817037601526,0.0014817048253048,-0.0014817029234657,0.0014817056755802,-9.9347225742875e-09,1.0327299813138e-08,-0.0010716645309537,0.0010716648881825,2.9814850955335e-09,-2.694570114297e-09,-0.0011599831641968,0.001159978633377,-0.0011599850153185,0.001159976793627,-0.0011599763518503,0.0011599854211351,-0.0011599783284055,0.0011599834675729,-0.0011515279912907,0.0011515460982432,-0.0011515476198637,0.0011515264755168,0.66373453078178,125803,2834,0.006278102696697,0.0062781026964822,0.0044568583620647,15.231732464911,-0.00011814614028071,-0.00011814614028071,-0.00011814614028071,2419408.5834171,0.017159476111618
21619200,0.98848948830025,0.017122368091443,0.0061683288322949,0.0061683288324767,0.0047857104266711,-0.0015106624729922,0.0015106624641952,1.0607008902924e-08,-1.0615463213709e-08,4.1565346630721e-10,-4.3193655387007e-10,-0.0015896926684493,0.0015897000035114,-0.0015896997114433,0.0015896929022298,-0.001589692897417,0.0015896997519568,-0.0015897000239229,0.0015896926056955,-0.0013757813848818,0.0013758019685073,-0.001375802234953,0.0013757810513325,-3.6614489064257e-10,4.611964879809e-10,-2.7129080698118e-09,2.7972296075924e-09,-0.001510662425669,0.0015106625109955,-0.0015896973483013,0.0015896952944735,-0.0015896954912617,0.0015896971477975,-0.0015896970281992,0.0015896956066553,-0.0015896952445453,0.0015896974048774,-0.0013757941123668,0.0013757891507017,-0.0013757888292869,0.0013757945300059,-0.0014807305139144,0.0014807316948704,-0.0014807297992396,0.001480732411119,-1.007437289079e-08,1.0469438271377e-08,-0.0010706381986118,0.0010706385582215,2.9550418081372e-09,-2.6652414819072e-09,-0.0011589777691963,0.0011589731306118,-0.0011589796005787,0.0011589713030823,-0.0011589708630128,0.0011589800072319,-0.0011589728198062,0.0011589780761927,-0.0011505023341057,0.0011505207402491,-0.0011505222442747,0.0011505008399044,0.66920854475159,125803,2834,0.0062740865634551,0.00627408656237,0.0044526010011145,14.567333170036,-0.00012346133463971,-0.00012346133463971,-0.00012346133463971,2415105.2635679,0.017146975817219
21819200,0.9886939010486,0.017125645847712,0.0061695169333078,0.0061695169334918,0.0047866119809127,-0.0015096807732672,0.0015096807759015,1.0696776334296e-08,-1.0693678045241e-08,3.3364165488823e-10,-3.3756815387756e-10,-0.0015887139085746,0.0015887212546206,-0.0015887210096913,0.0015887140972539,-0.001588714083411,0.001588721063747,-0.0015887212674189,0.0015887138596556,-0.0013747949020733,0.0013748157179296,-0.0013748159121006,0.00137479464173,-2.9693993557115e-10,3.8690354057933e-10,-2.7184335981029e-09,2.7991786288636e-09,-0.0015096807343559,0.0015096808147444,-0.0015887185745898,0.001588716561627,-0.0015887167172417,0.0015887184195047,-0.0015887183046454,0.0015887168265533,-0.0015887165175959,0.0015887186251164,-0.0013748077766393,0.0013748027546667,-0.0013748024853186,0.0013748081452897,-0.0014797443271429,0.0014797456378181,-0.0014797437499203,0.0014797462207568,-1.0210466502104e-08,1.0605908977996e-08,-0.0010696028104484,0.0010696031706108,2.9411772498223e-09,-2.6509168416925e-09,-0.001157968126505,0.0011579633901438,-0.0011579699533399,0.0011579615765294,-0.0011579611334336,0.0011579703591757,-0.0011579630807062,0.0011579684364754,-0.0011494639544287,0.0011494826422752,-0.0011494841346514,0.0011494624705891,0.65988853981008,125803,2834,0.0062700216155979,0.0062700216154558,0.0044483062090801,13.903644567396,-0.00012877084346083,-0.00012877084346083,-0.00012877084346083,2409958.684628,0.017134338360569
22019200,0.9888979677707,0.017128867223602,0.0061706854096838,0.0061706854098678,0.0047874964040504,-0.0015104532451056,0.0015104532677312,1.0789395535725e-08,-1.0766473910965e-08,1.8357041963792e-10,-1.658083092582e-10,-0.0015894871624011,0.0015894944855271,-0.0015894943274691,0.0015894872639134,-0.001589487239669,0.0015894943932172,-0.0015894944703592,0.0015894871424061,-0.0013755519863104,0.0013755730647031,-0.0013755731324012,0.001375551852365,-1.5694275480069e-10,2.2677489577302e-10,-2.8189430106286e-09,2.8812954656991e-09,-0.0015104532255215,0.0015104532872852,-0.0015894918027224,0.0015894898189568,-0.0015894898937477,0.0015894917289381,-0.0015894916403587,0.0015894899749852,-0.0015894897844519,0.0015894918432186,-0.0013755651529985,0.0013755598081737,-0.0013755596577008,0.0013755654046204,-0.0014805177083516,0.0014805193297482,-0.001480517399573,0.0014805196425942,-1.0351608765959e-08,1.0740170809978e-08,-0.0010702346957004,0.0010702350488457,3.0193680109681e-09,-2.7370315374936e-09,-0.0011586417329628,0.0011586369615254,-0.0011586436231484,0.0011586350842952,-0.0011586346570067,0.0011586440136012,-0.0011586366502367,0.0011586420447547,-0.0011501283352454,0.0011501472567657,-0.0011501488104583,0.0011501267890425,0.64982377898046,125803,2834,0.0062732196342692,0.0062732196342059,0.0044509287013491,14.153022480393,-0.00012677582015686,-0.00012677582015686,-0.00012677582015686,2411877.3862741,0.017143511531711
22219200,0.9891028917164,0.017132077454254,0.006171850468108,0.006171850468292,0.0047883765178534,-0.0015114066407708,0.0015114066780478,1.0905325687257e-08,-1.0867895633425e-08,7.6920900236946e-11,-4.329799680533e-11,-0.0015904549133549,0.0015904622477351,-0.0015904621511384,0.0015904549532023,-0.001590454915283,0.0015904622315908,-0.0015904622181857,0.0015904549084731,-0.0013764782758973,0.0013764996567462,-0.0013764996339892,0.001376478232349,-5.1253187367955e-11,1.0545398686049e-10,-2.9245270839118e-09,2.9725519679491e-09,-0.0015114066357489,0.0015114066830452,-0.0015904595614735,0.0015904575736532,-0.0015904575879632,0.0015904595491433,-0.0015904594743136,0.0015904576537813,-0.0015904575531375,0.0015904595879054,-0.0013764917350537,0.0013764861066603,-0.0013764860466935,0.0013764918978209,-0.0014814650165597,0.0014814669111042,-0.0014814649295264,0.0014814670006157,-1.0467372505668e-08,1.0847847344004e-08,-0.0010710475933283,0.0010710479382551,3.1121510225696e-09,-2.839130180486e-09,-0.0011594952098939,0.0011594904211532,-0.0011594971652835,0.0011594884785826,-0.0011594880598023,0.0011594975475044,-0.0011594901175974,0.001159495513949,-0.0011509713123114,0.0011509903803024,-0.0011509920067965,0.0011509696928189,0.64497434367154,125803,2834,0.0062771668088432,0.0062771668087913,0.0044543017417016,14.499172530168,-0.00012400661975865,-0.00012400661975865,-0.00012400661975865,2416834.8333754,0.017154972474537
22419200,0.98930861474741,0.017135434876751,0.0061730659085718,0.0061730659087559,0.0047893030594235,-0.0015123673893099,0.0015123674351608,1.101826929473e-08,-1.0972337974842e-08,1.7892565806161e-11,2.4978159110855e-11,-0.0015914323241408,0.0015914396973678,-0.0015914396343992,0.0015914323301454,-0.0015914322842283,0.0015914397236144,-0.0015914396595352,0.0015914323280592,-0.0013774113156125,0.0013774329598139,-0.0013774328862217,0.0013774113228012,6.7917601634479e-12,3.8483380582944e-11,-3.0206163179392e-09,3.0604784033753e-09,-0.0015123673927239,0.0015123674317361,-0.001591437005564,0.0015914349900358,-0.0015914349714914,0.0015914370269134,-0.0015914369597554,0.0015914350283855,-0.0015914349777877,0.0015914370239908,-0.0013774250211168,0.0013774191624038,-0.0013774191529061,0.0013774251350759,-0.0014824234781789,0.0014824255479306,-0.0014824235134503,0.0014824255144802,-1.0582866007269e-08,1.0955829057884e-08,-0.0010718734019188,0.0010718737392072,3.1988145381249e-09,-2.9344567559257e-09,-0.0011603548640193,0.0011603500540574,-0.0011603568802675,0.0011603480508392,-0.0011603476396346,0.0011603572549321,-0.0011603497579448,0.0011603551607659,-0.0011518312028581,0.0011518504216879,-0.0011518521161746,0.001151829514958,0.67139353061039,125803,2834,0.00628114446951,0.0062811444694869,0.0044577282139913,14.848139907385,-0.00012121488074092,-0.00012121488074092,-0.00012121488074092,2422151.8791707,0.017166549823634
22619200,0.98951489625095,0.017138839097804,0.0061742976990688,0.0061742976992529,0.0047902436994818,-0.0015133554052445,0.0015133554535074,1.1127686297587e-08,-1.1079359150948e-08,3.7163348214634e-12,4.1732375163409e-11,-0.00159242096672,0.0015924284044714,-0.0015924283492819,0.0015924209648029,-0.0015924209169065,0.0015924284408427,-0.001592428364128,0.0015924209733177,-0.0013783876990056,0.0013784095671095,-0.0013784094808018,0.0013783877188065,1.8679265302443e-11,2.4507274100964e-11,-3.1000424802522e-09,3.1379803633502e-09,-0.0015133554108498,0.001513355447901,-0.0015924257028672,0.0015924236421311,-0.0015924236173319,0.001592425731266,-0.0015924256659038,0.0015924236716786,-0.0015924236318988,0.0015924257198319,-0.0013784015986497,0.0013783955748451,-0.0013783955764894,0.0013784017026491,-0.0014834122646072,0.0014834144092874,-0.0014834123244921,0.0014834143509265,-1.0698196550659e-08,1.1064954022132e-08,-0.0010726796654804,0.0010726799964579,3.2721160081131e-09,-3.0149302409038e-09,-0.0011612332039332,0.0011612283644794,-0.0011612352717942,0.0011612263098975,-0.0011612259050411,0.0011612356400225,-0.0011612280743862,0.0011612334948074,-0.0011526714867004,0.0011526908684028,-0.0011526926203693,0.0011526697413413,0.67880266820418,125803,2834,0.0062852345035424,0.0062852345035392,0.0044610750330405,15.186335237712,-0.0001185093180983,-0.0001185093180983,-0.0001185093180983,2422309.9718594,0.017178275043172
22819200,0.98971874425244,0.017142193658617,0.0061755119940884,0.0061755119942724,0.004791169670256,-0.0015139197759043,0.0015139198163186,1.1249130297379e-08,-1.1208548137666e-08,6.6203077306138e-11,-2.929283259466e-11,-0.0015929843851541,0.0015929919416295,-0.0015929918498406,0.0015929844196638,-0.0015929843781316,0.0015929919349275,-0.0015929919102682,0.0015929843824516,-0.0013789444378782,0.0013789665036729,-0.0013789664689573,0.0013789444057866,-1.2893075243049e-11,6.0387564956857e-11,-3.1331272510744e-09,3.1750437801214e-09,-0.0015139197756298,0.0015139198166231,-0.001592989202071,0.0015929870981582,-0.0015929870919618,0.0015929892120225,-0.0015929891414322,0.0015929871514927,-0.0015929870856658,0.0015929892217433,-0.0013789584552735,0.0013789523931829,-0.0013789523687549,0.0013789585860706,-0.0014839755462433,0.0014839776550118,-0.0014839755437517,0.0014839776599609,-1.0795091623017e-08,1.1157866752771e-08,-0.0010730739202543,0.0010730742471947,3.3194525850499e-09,-3.0668559354376e-09,-0.0011617019286786,0.0011616970535664,-0.0011617040285928,0.0011616949677116,-0.0011616945652173,0.0011617043940397,-0.0011616967688511,0.0011617022143262,-0.0011530910560406,0.0011531105825409,-0.0011531123717193,0.0011530892736869,0.67691801987856,125803,2834,0.0062875703840066,0.0062875703840681,0.0044627127277768,15.303261739516,-0.00011757390608387,-0.00011757390608387,-0.00011757390608387,2420220.1998509,0.017184693362763
23019200,0.98992008238171,0.017145285795615,0.0061766363144962,0.0061766363146802,0.0047920131664383,-0.0015144520074631,0.0015144520411682,1.1340727322094e-08,-1.1306784893895e-08,1.1914390958829e-10,-8.9524654377379e-11,-0.0015935185714804,0.0015935262237608,-0.0015935261009455,0.0015935186369706,-0.0015935186032138,0.0015935261776389,-0.0015935261971928,0.0015935185633416,-0.0013794623035466,0.0013794845066042,-0.0013794845163685,0.001379462227091,-9.3801248259783e-11,1.5248886127757e-10,-3.1580565119502e-09,3.2101175200397e-09,-0.0015144519986877,0.001514452049968,-0.001593523468676,0.0015935212991848,-0.0015935213403074,0.0015935234316007,-0.0015935233525437,0.0015935214087204,-0.0015935212755205,0.0015935235004646,-0.0013794763875411,0.001379470329768,-0.0013794702380846,0.0013794765860413,-0.0014845012919015,0.0014845032574206,-0.0014845011157123,0.0014845034372784,-1.0921088813719e-08,1.128281863493e-08,-0.0010734408916932,0.0010734412175523,3.3350497412807e-09,-3.0837354289121e-09,-0.0011621391914121,0.0011621342440937,-0.0011621413034479,0.0011621321456,-0.0011621317456587,0.001162141666384,-0.0011621339589006,0.0011621394774399,-0.0011534796827514,0.0011534994471679,-0.0011535012484188,0.0011534778886226,0.63260002073062,125803,2834,0.0062897732377946,0.006289773237844,0.0044642370501986,15.414516419778,-0.00011668386864178,-0.00011668386864178,-0.00011668386864178,2418935.633094,0.017190725836751
23219200,0.990118908206,0.017148469673695,0.0061777907628073,0.0061777907629913,0.0047928881478965,-0.0015149115649296,0.0015149115897559,1.1446119816544e-08,-1.142094964824e-08,1.8758211190701e-10,-1.6758607465457e-10,-0.0015940049182463,0.0015940126836366,-0.0015940125210378,0.0015940050235314,-0.0015940049983552,0.0015940125886808,-0.0015940126655607,0.0015940049011127,-0.0013798842444054,0.0013799066050298,-0.00137990667224,0.0013798841105628,-1.6209988654797e-10,2.3050676868931e-10,-3.1679547916157e-09,3.2288836127411e-09,-0.0015149115472436,0.0015149116074672,-0.0015940098962825,0.0015940076776003,-0.0015940077586143,0.0015940098195805,-0.0015940097319419,0.0015940078359975,-0.0015940076454298,0.0015940099372556,-0.0013798983925628,0.0013798923639226,-0.0013798922151223,0.0013798986486075,-0.0014849561774412,0.0014849580176212,-0.0014849558576443,0.0014849583421436,-1.1032201928596e-08,1.13927729619e-08,-0.0010738129617744,0.0010738132864621,3.3485917709597e-09,-3.0986475656387e-09,-0.0011625142747753,0.0011625092620868,-0.0011625163964773,0.0011625071542416,-0.0011625067553661,0.0011625167581221,-0.0011625089780005,0.0011625145597493,-0.0011538792738287,0.0011538992440935,-0.0011539010561867,0.0011538774693324,0.65900009077595,125803,2834,0.0062916760269979,0.0062916760270493,0.004465780224171,15.525543701762,-0.00011579565038591,-0.00011579565038591,-0.00011579565038591,2425333.661251,0.017196166663773
23419200,0.99031606694531,0.01715159511227,0.0061789247937659,0.0061789247939499,0.0047937455245542,-0.0015155457560866,0.0015155457740623,1.155174626514e-08,-1.1533358534696e-08,2.3962575989164e-10,-2.2706760935805e-10,-0.0015946494474584,0.0015946573159781,-0.0015946571231321,0.001594649583035,-0.0015946495646029,0.0015946571837314,-0.0015946573043838,0.001594649423537,-0.0013804959099342,0.0013805184398705,-0.001380518550783,0.0013804957322704,-2.1533032851216e-10,2.9152184308142e-10,-3.1661287813664e-09,3.2342154422618e-09,-0.0015155457313983,0.0015155457987976,-0.0015946544927598,0.0015946522422413,-0.0015946523541539,0.0015946543853299,-0.0015946542909823,0.0015946524386644,-0.0015946522031216,0.001594654541143,-0.0013805101223673,0.0013805041349174,-0.0013805039410419,0.0013805104234985,-0.0014855878649547,0.0014855896006709,-0.001485587432676,0.0014855900387216,-1.114353484281e-08,1.1504152155813e-08,-0.0010743088188082,0.0010743091435342,3.3496223279254e-09,-3.0996668870874e-09,-0.0011630537471364,0.0011630486610848,-0.0011630558698334,0.0011630465525876,-0.0011630461536935,0.0011630562312792,-0.0011630483768641,0.0011630540323459,-0.0011544025472477,0.0011544227352865,-0.0011544245481803,0.0011544007422648,0.65256367513461,125803,2834,0.00629430135633,0.0062943013564261,0.0044678384330483,15.704081687885,-0.00011436734649692,-0.00011436734649692,-0.00011436734649692,2426756.8870752,0.017203601545674
23619200,0.99051572099604,0.017154830035985,0.0061800969576771,0.0061800969578612,0.0047946361204465,-0.0015168287577161,0.0015168287713338,1.1684134117194e-08,-1.1670183976008e-08,2.6946976153082e-10,-2.6170792106148e-10,-0.0015959431406037,0.0015959511131256,-0.0015959509028929,0.0015959432929242,-0.0015959432764864,0.001595950961176,-0.001595951107787,0.0015959431103366,-0.001381752323438,0.001381775099506,-0.0013817752356705,0.0013817521218336,-2.0140941313951e-10,2.7401728944094e-10,-3.168201958429e-09,3.2329628821149e-09,-0.0015168287322061,0.0015168287966958,-0.0015959482353802,0.0015959459903542,-0.0015959460932815,0.0015959481352541,-0.0015959480408037,0.0015959461774721,-0.0015959459555778,0.0015959482795987,-0.0013817666621876,0.0013817606670156,-0.0013817604874727,0.0013817669502637,-0.0014868725069998,0.0014868742770841,-0.0014868721105406,0.0014868746736703,-1.1230153014494e-08,1.1589122184272e-08,-0.0010754222633442,0.0010754225863726,3.3722437231514e-09,-3.1241283829535e-09,-0.0011642132259516,0.0011642080937063,-0.0011642153615743,0.0011642059715485,-0.0011642055721496,0.0011642157234157,-0.0011642078133298,0.0011642135073569,-0.0011555594090747,0.0011555797417166,-0.001155581570431,0.0011555575862959,0.66669033155766,125803,2834,0.0062996129732222,0.0062996129729148,0.0044724587947564,16.218021797533,-0.00011025582561974,-0.00011025582561974,-0.00011025582561974,2431126.3112549,0.017219107703172
23819200,0.99071784678592,0.017158275845313,0.0061813420055783,0.0061813420057625,0.0047955918339721,-0.0015181674989373,0.0015181675197404,1.1731149464789e-08,-1.1709946443174e-08,2.169427164901e-10,-2.0136153195518e-10,-0.0015972848558851,0.0015972928344869,-0.0015972926544758,0.0015972849786454,-0.0015972849616606,0.0015972927140418,-0.0015972928164921,0.0015972848392232,-0.0013830750682551,0.0013830979538839,-0.0013830980459286,0.0013830749101552,-2.5557957080778e-10,3.3783598787751e-10,-3.1933762988895e-09,3.2671103183643e-09,-0.001518167472842,0.00151816754588,-0.001597289975534,0.0015972876864985,-0.0015972878211575,0.0015972898455362,-0.0015972897495355,0.0015972879072034,-0.0015972876381173,0.0015972900339849,-0.0013830894768199,0.0013830834525611,-0.0013830832251391,0.0013830898129236,-0.0014882164944626,0.0014882181583583,-0.0014882159653395,0.0014882186944012,-1.1406140942344e-08,1.176758083813e-08,-0.0010765597273083,0.0010765600528035,3.3453371504265e-09,-3.0945590030957e-09,-0.0011654207207258,0.0011654154616102,-0.0011654228446644,0.0011654133521962,-0.0011654129563357,0.0011654232026846,-0.0011654151728877,0.0011654210111315,-0.0011567425916085,0.0011567633106593,-0.0011567651189135,0.0011567407899122,0.70079153623006,125803,2834,0.0063051550678238,0.0063051550679147,0.0044771796244243,16.740578364169,-0.00010607537308665,-0.00010607537308665,-0.00010607537308665,2432978.0362644,0.017235185289737
24019200,0.99092230493805,0.017161801231699,0.0061826154544362,0.0061826154546204,0.0047965703226424,-0.0015195664649643,0.0015195664882884,1.181594583626e-08,-1.1792205578214e-08,1.993197622122e-10,-1.8100789186256e-10,-0.0015986668356059,0.0015986748620784,-0.0015986746926711,0.0015986669478211,-0.0015986669310192,0.0015986747520451,-0.0015986748388784,0.0015986668241224,-0.0013844777061345,0.0013845007630337,-0.0013845008400865,0.0013844775634734,-2.6921780834546e-10,3.5352966442016e-10,-3.1951761926377e-09,3.2708166939496e-09,-0.0015195664391696,0.0015195665141221,-0.0015986719828419,0.0015986696863823,-0.0015986698294211,0.0015986718445737,-0.0015986717494858,0.0015986699147744,-0.001598669633501,0.001598672045946,-0.0013844922008043,0.0013844861753755,-0.0013844859363549,0.0013844925492224,-0.0014896229448841,0.0014896245762929,-0.0014896223795806,0.0014896251488299,-1.1542079827997e-08,1.1905297573743e-08,-0.0010776917753914,0.0010776921027006,3.3289948858516e-09,-3.076242912659e-09,-0.0011666731635574,0.0011666678052991,-0.0011666752785583,0.0011666657051072,-0.0011666653102631,0.0011666756357582,-0.0011666675120689,0.0011666734584553,-0.001157921202647,0.0011579422107704,-0.0011579440050714,0.0011579194143334,0.70866199325912,125803,2834,0.0063109458178428,0.0063109458179223,0.0044818797527088,17.263480544889,-0.00010189215564089,-0.00010189215564089,-0.00010189215564089,2429257.6065097,0.01725174817604
24219200,0.99112772073765,0.017165197787798,0.0061838459300795,0.0061838459302637,0.004797505927455,-0.0015207828130616,0.0015207828349472,1.1938561043449e-08,-1.1916091258356e-08,2.1471665731821e-10,-1.9792931451295e-10,-0.0015998658751596,0.0015998739928717,-0.0015998738144709,0.0015998659974782,-0.0015998659817434,0.0015998738749592,-0.0015998739739394,0.0015998658615242,-0.0013856967691803,0.0013857200582202,-0.0013857201465703,0.0013856966144215,-2.5873610567193e-10,3.4481818559822e-10,-3.162253181115e-09,3.2399364172069e-09,-0.0015207827860774,0.0015207828622936,-0.0015998710547025,0.0015998687854232,-0.0015998689224377,0.0015998709249031,-0.0015998708279304,0.0015998690100556,-0.0015998687333799,0.0015998711163272,-0.0013857113499831,0.0013857053859643,-0.0013857051513247,0.0013857116940359,-0.0014908406149724,0.0014908422463781,-0.001490840072755,0.001490842801257,-1.163857316611e-08,1.2002959533355e-08,-0.0010786321698576,0.0010786324984117,3.3108717620815e-09,-3.056794267038e-09,-0.0011677437758477,0.0011677383408047,-0.0011677458797437,0.0011677362572725,-0.0011677358586873,0.0011677462388372,-0.0011677380487221,0.0011677440715293,-0.0011589024022159,0.0011589236113985,-0.0011589253925121,0.0011589006289247,0.6801006208256,125803,2834,0.0063159802952425,0.0063159802959915,0.0044857850083618,17.691515584728,-9.8467875322174e-05,-9.8467875322174e-05,-9.8467875322174e-05,2424995.2725588,0.017265964239512
24419200,0.99133095163606,0.017168554678731,0.0061850623543567,0.00618506235454,0.0047984299698347,-0.0015214869981067,0.001521487018715,1.2041277897285e-08,-1.2020226855262e-08,2.2010211309035e-10,-2.0470287605589e-10,-0.0016005723371625,0.001600580526356,-0.0016005803452022,0.0016005724614476,-0.0016005724462121,0.0016005804025383,-0.0016005805063682,0.0016005723218703,-0.0013863860861679,0.0013864095716266,-0.0013864096669202,0.0013863859254023,-2.9339373049352e-10,3.8128482483615e-10,-3.1160196955463e-09,3.1948542104557e-09,-0.0015214869693795,0.001521487047553,-0.0016005775474263,0.0016005752874186,-0.0016005754447808,0.0016005773947365,-0.0016005772962713,0.0016005755345632,-0.0016005752320363,0.0016005776124192,-0.0013864007080511,0.0013863948574571,-0.001386394597786,0.0013864010763415,-0.0014915424057609,0.0014915439407991,-0.0014915417930399,0.0014915445637611,-1.1753062439823e-08,1.2122367581756e-08,-0.0010791359391903,0.0010791362726844,3.2589324980624e-09,-2.9991949393188e-09,-0.0011683260580712,0.0011683205132237,-0.0011683281231311,0.0011683184627539,-0.0011683180612629,0.0011683284872975,-0.001168320214627,0.001168326357943,-0.0011594404451783,0.0011594619248224,-0.0011594636641926,0.0011594387124947,0.67934588390863,125803,2834,0.0063188948972395,0.0063188948974671,0.0044878771064231,17.88442280685,-9.6924617545201e-05,-9.6924617545201e-05,-9.6924617545201e-05,2425007.5816186,0.017274022797544
24619200,0.99153188337324,0.017172023548368,0.0061863161512431,0.0061863161514265,0.004799391245698,-0.0015221771299287,0.0015221771442969,1.218921750689e-08,-1.2174354908167e-08,2.6676322268431e-10,-2.5811297753159e-10,-0.0016012622448442,0.0016012705575686,-0.0016012703496825,0.0016012623959803,-0.0016012623832772,0.0016012704045023,-0.0016012705475893,0.0016012622197305,-0.001387064495489,0.0013870882484588,-0.0013870883825518,0.0013870642954544,-2.6856848706413e-10,3.5327307496984e-10,-3.0487468794733e-09,3.1247504170417e-09,-0.0015221770995594,0.0015221771747901,-0.0016012674891122,0.0016012652852588,-0.0016012654278974,0.0016012673504945,-0.0016012672513777,0.0016012655185311,-0.0016012652360999,0.0016012675470502,-0.0013870791889543,0.0013870734634123,-0.0013870732235545,0.0013870795361322,-0.0014922363446573,0.001492237892379,-0.0014922357935347,0.0014922384521725,-1.1821066083493e-08,1.2192973770492e-08,-0.0010796327217299,0.0010796330578874,3.2270628332912e-09,-2.9642761510463e-09,-0.0011688918978965,0.0011688862829648,-0.0011688939373258,0.0011688842591474,-0.0011688838510766,0.0011688943075388,-0.0011688859855128,0.0011688921967813,-0.0011599760631962,0.0011599976926511,-0.0011599994074478,0.0011599743555931,0.70944457055281,125803,2834,0.0063217514103145,0.0063217514105698,0.0044899400408864,18.071271979772,-9.5429824161821e-05,-9.5429824161821e-05,-9.5429824161821e-05,2424917.3889221,0.017281933357742
24819200,0.99173047957087,0.017175214107411,0.0061874747831526,0.0061874747833361,0.0048002645409225,-0.0015228981227175,0.0015228981366668,1.2296315474944e-08,-1.2281858048903e-08,2.7012200113476e-10,-2.6191443475263e-10,-0.0016019695889638,0.0016019779750864,-0.0016019777652188,0.0016019697421329,-0.0016019697300902,0.0016019778192764,-0.0016019779653155,0.0016019695637488,-0.001387784311017,0.0013878082707662,-0.0013878084074515,0.0013877841083719,-2.7763109073722e-10,3.6358354473391e-10,-3.0003697270137e-09,3.0775183253394e-09,-0.0015228980915313,0.0015228981679394,-0.0016019748567534,0.0016019726795646,-0.0016019728270612,0.0016019747126628,-0.0016019746128342,0.0016019729188146,-0.0016019726287863,0.0016019749160239,-0.0013877990576635,0.0013877934327524,-0.0013877931846595,0.0013877994119348,-0.0014929552798609,0.0014929567774332,-0.0014929547089213,0.0014929573566113,-1.1932349963396e-08,1.230819018618e-08,-0.0010801114124594,0.0010801117526421,3.179144101738e-09,-2.9117842987715e-09,-0.001169482647809,0.0011694769282851,-0.0011694846538546,0.0011694749373938,-0.0011694745255972,0.0011694850277789,-0.0011694766266437,0.0011694829509498,-0.0011604855889337,0.0011605074781197,-0.0011605091555951,0.0011604839186391,0.66112226137602,125803,2834,0.0063247351663996,0.0063247351665773,0.0044919293039178,18.257878047725,-9.3936975618199e-05,-9.3936975618199e-05,-9.3936975618199e-05,2420447.2088133,0.017290028287201
25019200,0.99192896766897,0.017178366292494,0.0061886203091884,0.0061886203093718,0.0048011256739338,-0.0015238950141722,0.0015238950350844,1.2376987475764e-08,-1.2355505761133e-08,2.1498143499414e-10,-1.9932754362154e-10,-0.0016029805800944,0.0016029889885285,-0.0016029888097885,0.0016029807012322,-0.0016029806840391,0.0016029888677414,-0.0016029889682148,0.0016029805637176,-0.0013887486720651,0.0013887728215672,-0.0013887729107485,0.0013887485163677,-2.9484108851302e-10,3.8107361653934e-10,-2.9895240532024e-09,3.0674237774562e-09,-0.0015238949861586,0.0015238950632144,-0.0016029858594318,0.001602983681466,-0.0016029838379965,0.0016029857037795,-0.0016029856060664,0.0016029839284178,-0.0016029836271246,0.0016029859220202,-0.0013887634999538,0.0013887579035128,-0.0013887576411879,0.0013887638704449,-0.0014939475143315,0.0014939489606445,-0.0014939469027119,0.0014939495872986,-1.2073842789459e-08,1.2453403817062e-08,-0.0010809260464417,0.0010809263904399,3.136021450587e-09,-2.8644552087116e-09,-0.0011703460057087,0.0011703401663313,-0.0011703479831131,0.0011703382020477,-0.0011703377899141,0.0011703483590049,-0.001170339857454,0.0011703463143336,-0.001161341073445,0.0011613632845912,-0.0011613649265066,0.001161339433779,0.65362536061104,125803,2834,0.0063288620262112,0.0063288620264498,0.0044953098961614,18.629026107268,-9.0967791141859e-05,-9.0967791141859e-05,-9.0967791141859e-05,2425736.1803876,0.017301864102522
25219200,0.99213054336709,0.017181671919778,0.0061898191874229,0.0061898191876071,0.0048020335447475,-0.0015254151966074,0.0015254152190405,1.2520755110173e-08,-1.2497895020945e-08,2.0534159442583e-10,-1.879491056956e-10,-0.0016045174821051,0.0016045259772522,-0.0016045258052166,0.0016045175974617,-0.0016045175771123,0.0016045258679968,-0.0016045259594718,0.0016045174654085,-0.0013902318138817,0.0013902562599781,-0.001390256342238,0.0013902316657907,-2.1547426193862e-10,2.9256628459116e-10,-2.9779941560948e-09,3.0470628922688e-09,-0.0015254151737378,0.0015254152419942,-0.0016045227780479,0.0016045206542741,-0.0016045207656027,0.0016045226696966,-0.0016045225776291,0.0016045208493234,-0.0016045206112913,0.0016045228288118,-0.0013902468037804,0.0013902411788716,-0.0013902409829846,0.0013902471058162,-0.0014954675329304,0.0014954691352226,-0.0014954670926967,0.0014954695829441,-1.2151912147073e-08,1.2529875170973e-08,-0.0010822458736209,0.0010822462159804,3.1529925781087e-09,-2.8831705125951e-09,-0.0011717113927455,0.0011717055093908,-0.0011717133804124,0.0011717035371496,-0.00117170312325,0.0011717137566338,-0.0011717052057466,0.0011717116978329,-0.0011627139232208,0.0011627362644735,-0.0011627379209262,0.0011627122728533,0.67454672175279,125803,2834,0.006335155466425,0.0063351554665977,0.0045007861028437,19.269390870702,-8.5844873034386e-05,-8.5844873034386e-05,-8.5844873034386e-05,2433465.2099248,0.017320240063464
25419200,0.992335094307,0.017185296674677,0.0061911280759759,0.0061911280761601,0.0048030405225408,-0.001527004168659,0.0015270041877953,1.269791185298e-08,-1.2678339138736e-08,2.3037457986178e-10,-2.1648922999086e-10,-0.0016061098594908,0.0016061184834166,-0.0016061182975821,0.0016061099900759,-0.001606109968265,0.0016061183624964,-0.0016061184751599,0.0016061098351993,-0.0013918007618467,0.0013918255506078,-0.0013918256532203,0.001391800592805,-1.1617398914085e-10,1.8108918277865e-10,-2.9564336657642e-09,3.0145999296407e-09,-0.0015270041500775,0.0015270042068318,-0.0016061151848221,0.001606113131862,-0.00160611318645,0.0016061151360094,-0.001606115049871,0.001606113262653,-0.001606113105467,0.001606115218013,-0.0013918159311431,0.0013918102924984,-0.0013918101772359,0.0013918161523201,-0.0014970640893637,0.0014970658819416,-0.0014970638697032,0.001497066109027,-1.2195168099824e-08,1.2570084078854e-08,-0.0010835941936162,0.0010835945328305,3.1876726789606e-09,-2.9214210490362e-09,-0.0011731362927474,0.0011731303982144,-0.0011731383010999,0.0011731284082213,-0.0011731279914539,0.0011731386786965,-0.0011731301029792,0.0011731365900027,-0.001164119899545,0.0011641422814758,-0.0011641439667901,0.00116411822354,0.72789188466513,125803,2834,0.0063417332586854,0.0063417332596261,0.0045063816898092,19.916720111443,-8.0666239108456e-05,-8.0666239108456e-05,-8.0666239108456e-05,2437090.8488492,0.017339316420373
25619200,0.99254240578128,0.017188993448016,0.0061924631919061,0.0061924631920893,0.004804067064021,-0.0015286823705852,0.0015286823961154,1.2791203715154e-08,-1.2765332580264e-08,1.7987471583326e-10,-1.590862371423e-10,-0.0016077610163781,0.0016077696725657,-0.001607769514931,0.0016077611172627,-0.0016077610906745,0.0016077695842786,-0.0016077696552063,0.001607760999414,-0.0013934894941482,0.0013935144971136,-0.0013935145581542,0.0013934893663875,-1.1137473946051e-10,1.7349145620476e-10,-2.9744779487351e-09,3.0298318557497e-09,-0.0015286823562289,0.001528682410608,-0.0016077663611102,0.001607764301369,-0.0016077643519178,0.0016077663135589,-0.0016077662314992,0.0016077644247909,-0.0016077642750364,0.0016077663941741,-0.0013935047916682,0.0013934991087842,-0.0013934990002669,0.0013935050052254,-0.0014987524373286,0.0014987542478704,-0.0014987522256609,0.0014987544658138,-1.2325711996295e-08,1.2700570807515e-08,-0.0010849328001112,0.0010849331393051,3.1837694960347e-09,-2.9174447252703e-09,-0.0011746299358808,0.0011746239539746,-0.0011746319417298,0.0011746219627228,-0.0011746215484779,0.0011746323182891,-0.0011746236566676,0.0011746302342789,-0.0011655160369847,0.001165538680544,-0.001165540363036,0.0011655143620304,0.73243472230767,125803,2834,0.0063486794303701,0.0063486794306505,0.0045119397483266,20.564318619199,-7.5485451046405e-05,-7.5485451046405e-05,-7.5485451046405e-05,2432147.4737402,0.01735910487126
25819200,0.9927471112894,0.017192549591139,0.0061937501195932,0.0061937501197764,0.0048050493517699,-0.0015295595826383,0.0015295596066295,1.2855344572106e-08,-1.28309789824e-08,1.9264465895555e-10,-1.7352323663129e-10,-0.0016086156088551,0.0016086243185914,-0.0016086241535447,0.0016086157172912,-0.0016086156948954,0.001608624218459,-0.0016086242998938,0.0016086155931736,-0.0013943764697118,0.0013944015813377,-0.0013944016530241,0.0013943763316353,-1.5384988810917e-10,2.2205805712529e-10,-2.9665657982971e-09,3.0274781168092e-09,-0.0015295595647039,0.0015295596247028,-0.0016086209894587,0.0016086189112847,-0.0016086189865388,0.0016086209172512,-0.0016086208326451,0.001608619062357,-0.0016086188767509,0.0016086210310595,-0.001394391802696,0.0013943861575923,-0.0013943860131627,0.0013943920521216,-0.001499631699666,0.0014996334152978,-0.0014996313907369,0.0014996337309132,-1.2479867308034e-08,1.2857771577257e-08,-0.0010855049852526,0.0010855053275268,3.1486136503378e-09,-2.8788044325273e-09,-0.0011753509380547,0.001175344833339,-0.0011753529221692,0.0011753428639967,-0.0011753424495894,0.0011753532989209,-0.0011753445302407,0.0011753512423244,-0.0011661289360839,0.0011661519200684,-0.0011661535747577,0.0011661272889302,0.71386316510347,125803,2834,0.006352309380567,0.0063523093808529,0.0045143180855598,20.804397012107,-7.3564823903146e-05,-7.3564823903146e-05,-7.3564823903146e-05,2425661.2459149,0.017368911201488
26019200,0.99294467593462,0.017195849810538,0.0061949475819979,0.0061949475821812,0.0048059546463584,-0.0015296639933284,0.0015296640144189,1.2929905131568e-08,-1.290845557966e-08,2.1639038418701e-10,-2.0043715501779e-10,-0.0016087118028948,0.0016087205791757,-0.0016087204007036,0.0016087119250451,-0.0016087119073344,0.0016087204604903,-0.0016087205613115,0.0016087117865229,-0.0013944774831495,0.001394502719161,-0.0013945028112878,0.001394477326249,-2.5633161465689e-10,3.3895093309588e-10,-2.9338231940025e-09,3.0077045805316e-09,-0.0015296639672081,0.0015296640405626,-0.0016087172365833,0.0016087151182555,-0.0016087152532813,0.0016087171046916,-0.0016087170091395,0.0016087153408967,-0.0016087150687177,0.0016087172942116,-0.0013944928124286,0.0013944872984194,-0.0013944870687483,0.0013944931472027,-0.0014997321289346,0.0014997336209552,-0.0014997315989108,0.001499734155876,-1.2621802451163e-08,1.300449226857e-08,-0.0010853863905117,0.0010853867376339,3.0941911271622e-09,-2.8188515277202e-09,-0.0011753343040635,0.001175328071395,-0.0011753362516334,0.0011753261378435,-0.00117532572071,0.001175336631036,-0.0011753277617724,0.0011753346153912,-0.0011660363201366,0.0011660596354743,-0.0011660612462549,0.0011660347162679,0.68688289101694,125803,2834,0.0063527403910902,0.0063527403911375,0.0045138292165858,20.676007047576,-7.4591943619391e-05,-7.4591943619391e-05,-7.4591943619391e-05,2420975.9532254,0.017369291402145
26219200,0.99313527567696,0.017199215072174,0.0061961644614052,0.0061961644615885,0.0048068861491806,-0.0015296971878609,0.0015296971990225,1.3070755014289e-08,-1.3059076374357e-08,2.9113842227399e-10,-2.8594892228024e-10,-0.0016087481042193,0.0016087570198123,-0.0016087567978966,0.0016087482698841,-0.0016087482598565,0.0016087568496107,-0.0016087570134041,0.0016087480757274,-0.0013944968695315,0.0013945223331114,-0.0013945224876526,0.0013944966490975,-2.8426492925448e-10,3.7120809105247e-10,-2.8847006177668e-09,2.9627414170444e-09,-0.0015296971548644,0.0015296972321455,-0.0016087536008707,0.0016087514958666,-0.0016087516468999,0.0016087534526409,-0.0016087533518863,0.0016087517405117,-0.0016087514443947,0.0016087536599441,-0.0013945122521708,0.0013945068603086,-0.0013945066058594,0.0013945126111129,-0.0014997680410578,0.0014997694500334,-0.0014997674575663,0.0014997700419057,-1.2695652026913e-08,1.3079514825859e-08,-0.0010852562459407,0.001085256594272,3.074779082856e-09,-2.7980395547351e-09,-0.0011752544676689,0.0011752481711724,-0.0011752564006591,0.0011752462537299,-0.0011752458333671,0.0011752567830155,-0.0011752478621166,0.0011752547781727,-0.0011659381387385,0.0011659616087537,-0.0011659632056217,0.0011659365494225,0.72524658623135,125803,2834,0.0063528771945751,0.0063528771948356,0.0045132908042747,20.538019387357,-7.5695844901146e-05,-7.5695844901146e-05,-7.5695844901146e-05,2420516.9568857,0.017369022087592
26419200,0.99331919150935,0.017202552359554,0.0061973695290759,0.0061973695292592,0.0048078133012189,-0.0015297802452722,0.0015297802512826,1.317736902648e-08,-1.3170781835597e-08,3.3090280179361e-10,-3.3129425607024e-10,-0.0016088123496474,0.0016088213610113,-0.0016088211159291,0.001608812538506,-0.0016088125334556,0.0016088211623383,-0.001608821359537,0.0016088123159896,-0.0013945898327128,0.0013946154767628,-0.0013946156644705,0.0013945895790711,-3.2464283309018e-10,4.1728964341423e-10,-2.8554141945075e-09,2.9386674598881e-09,-0.0015297802070671,0.0015297802896131,-0.0016088178970279,0.0016088157862416,-0.0016088159605444,0.0016088177251754,-0.0016088176195239,0.0016088160595646,-0.0016088157295777,0.0016088179613963,-0.0013946052626601,0.0013945999569746,-0.0013945996682418,0.0013946056553087,-0.0014998582087089,0.0014998595202733,-0.0014998575403422,0.0014998601975827,-1.2806007849406e-08,1.3191760738706e-08,-0.0010851223897162,0.001085122739982,3.0486398529466e-09,-2.7696762740888e-09,-0.0011752179857664,0.001175211599005,-0.0011752199005883,0.0011752096995365,-0.0011752092772698,0.0011752202847295,-0.0011752112880359,0.0011752182982145,-0.0011658340137184,0.0011658577217172,-0.0011658592987382,0.0011658324445192,0.74502753044376,125803,2834,0.0063532198583256,0.0063532198585837,0.0045127387036477,20.399645570107,-7.6802835439143e-05,-7.6802835439143e-05,-7.6802835439143e-05,2413964.2800178,0.01736915790168
26619200,0.99350072861231,0.017205817331067,0.006198549345418,0.0061985493456013,0.0048087186400481,-0.0015305967724275,0.0015305967808155,1.3292620308398e-08,-1.3283688586491e-08,3.131723198006e-10,-3.1098320479421e-10,-0.0016095975317832,0.001609606608739,-0.0016096063738694,0.0016095977103546,-0.0016095977028805,0.0016096064229147,-0.0016096066051569,0.0016095975003462,-0.0013954237277051,0.0013954496106332,-0.0013954497833798,0.0013954234889096,-3.0259352468141e-10,3.9200944158032e-10,-2.8703506783215e-09,2.9506629009282e-09,-0.0015305967368972,0.0015305968164686,-0.0016096031101942,0.0016096010030429,-0.0016096011646046,0.0016096029511476,-0.0016096028481179,0.0016096012607312,-0.0016096009494537,0.0016096031713912,-0.0013954392993576,0.0013954339491137,-0.0013954336791652,0.001395439673418,-0.0015006833668808,0.0015006847314021,-0.0015006827454956,0.0015006853615238,-1.2913234193531e-08,1.3297304894757e-08,-0.0010856478640927,0.0010856482126502,3.0638206854216e-09,-2.7867454994105e-09,-0.0011758788126765,0.0011758723638444,-0.0011758807380874,0.0011758704538264,-0.0011758700330955,0.001175881120738,-0.0011758720547469,0.0011758791232409,-0.0011664025340199,0.0011664264372595,-0.0011664280266838,0.0011664009522946,0.73848437602032,125803,2834,0.006356598719318,0.0063565987195706,0.0045149229609769,20.62936753779,-7.4965059697681e-05,-7.4965059697681e-05,-7.4965059697681e-05,2407542.6113204,0.017378255625724
26819200,0.99368208109238,0.01720900161906,0.0061997019664401,0.0061997019666233,0.0048095976859963,-0.0015317931292341,0.0015317931428148,1.3365428530215e-08,-1.3351613508549e-08,2.6822161342559e-10,-2.6027508501011e-10,-0.0016107705629266,0.0016107796610521,-0.0016107794538225,0.0016107707125948,-0.0016107707017263,0.0016107795020883,-0.0016107796458884,0.0016107705384748,-0.0013966267345542,0.0013966527824459,-0.001396652921496,0.0013966265292951,-2.557550517999e-10,3.3502274726367e-10,-2.9250327549445e-09,2.9947706631796e-09,-0.001531793100832,0.0015317931709001,-0.0016107761538955,0.0016107740411331,-0.0016107741779159,0.0016107760173551,-0.0016107759268174,0.0016107742606535,-0.0016107739925757,0.0016107762101953,-0.0013966424641789,0.0013966369616487,-0.0013966367367118,0.0013966427904631,-0.0015018831310834,0.0015018846192413,-0.0015018826022896,0.0015018851479244,-1.3064032773251e-08,1.3446905464445e-08,-0.001086537782444,0.0010865381296836,3.0868788422571e-09,-2.8112825263368e-09,-0.0011769044057131,0.001176897873178,-0.001176906345258,0.0011768959386403,-0.0011768955252476,0.0011769067245527,-0.0011768975594796,0.0011769047164594,-0.0011673405090798,0.0011673646960072,-0.0011673663035942,0.0011673389097667,0.72121902743385,125803,2834,0.0063615501374874,0.0063615501368286,0.0045186187871948,21.06354028175,-7.1491677745998e-05,-7.1491677745998e-05,-7.1491677745998e-05,2404930.9632219,0.017392091193239
27019200,0.99386315396381,0.017212096070805,0.0062008242253373,0.0062008242255221,0.0048104476199456,-0.0015329667903877,0.0015329668103616,1.3521806325216e-08,-1.3501425527483e-08,2.2412952440864e-10,-2.0935177550579e-10,-0.0016119354192874,0.0016119445934185,-0.0016119444103165,0.0016119355457215,-0.0016119355268361,0.0016119444711562,-0.0016119445784712,0.0016119353991322,-0.0013977912708423,0.0013978176670751,-0.0013978177654448,0.0013977911063037,-2.1347368964296e-10,2.8983801329654e-10,-2.9503322928519e-09,3.0185758768805e-09,-0.001532966766644,0.0015329668341522,-0.0016119410451588,0.0016119389403009,-0.0016119390506176,0.0016119409377177,-0.0016119408457988,0.0016119391344188,-0.0016119388986214,0.0016119410942706,-0.0013978072085411,0.0013978016383716,-0.0013978014445606,0.0013978075074236,-0.00150305467806,0.0015030562690086,-0.0015030542449435,0.0015030567086105,-1.3133810172573e-08,1.3511604604695e-08,-0.0010874335011634,0.0010874338433412,3.1355383298497e-09,-2.8656875692587e-09,-0.0011779118216242,0.0011779052712045,-0.0011779137963523,0.001177903310448,-0.0011779028963044,0.0011779141731719,-0.0011779049682545,0.0011779121255011,-0.0011682823371537,0.0011683066084582,-0.0011683082542278,0.0011682806986802,0.70228503366042,125803,2834,0.006366407900786,0.0063664079008819,0.0045223376524071,21.503089795337,-6.7975281637307e-05,-6.7975281637307e-05,-6.7975281637307e-05,2406000.053423,0.017405759812759
27219200,0.99404379079289,0.017215091788836,0.0062019129409141,0.006201912941099,0.0048112659068228,-0.0015341042962697,0.0015341043212718,1.3648188893315e-08,-1.3622854950721e-08,1.8606131960146e-10,-1.6582484498834e-10,-0.0016130781347376,0.0016130873679713,-0.0016130872068957,0.0016130782390753,-0.0016130782143689,0.0016130872740696,-0.0016130873494007,0.0016130781186713,-0.0013989036507096,0.001398930324865,-0.0013989303910487,0.001398903518086,-1.7637553778957e-10,2.475050442751e-10,-2.985376124522e-09,3.0488624670136e-09,-0.0015341042774583,0.0015341043401595,-0.0016130837908931,0.0016130816847677,-0.0016130817735786,0.0016130837052059,-0.0016130836166186,0.0016130818534239,-0.0016130816489487,0.0016130838341378,-0.0013989197732867,0.00139891411117,-0.0013989139486056,0.0013989200410926,-0.0015041869766113,0.0015041886655865,-0.0015041866244701,0.0015041890235243,-1.3232193344274e-08,1.3606591134334e-08,-0.0010883320548463,0.0010883323935716,3.1746153913959e-09,-2.908649718823e-09,-0.0011788916785266,0.0011788850868476,-0.0011788936797187,0.0011788830999823,-0.0011788826880038,0.0011788940542597,-0.0011788847885066,0.0011788919779983,-0.0011692265295515,0.0011692509561728,-0.0011692526325958,0.0011692248600391,0.68191770206292,125803,2834,0.0063711163342596,0.006371116334416,0.0045260672268931,21.942856098576,-6.4457151211395e-05,-6.4457151211395e-05,-6.4457151211395e-05,2410075.9814665,0.017419135567964
27419200,0.99422241765797,0.01721814363725,0.0062030200318666,0.0062030200320515,0.0048121035733321,-0.0015349560108922,0.0015349560368765,1.3740464557122e-08,-1.3714135520338e-08,1.7937324997622e-10,-1.5809066502694e-10,-0.0016139478481201,0.001613957140215,-0.0016139569829294,0.0016139479486672,-0.0016139479246044,0.001613957049494,-0.0016139571191417,0.001613947834644,-0.001399720116455,0.0013997469714145,-0.0013997470317855,0.0013997199896051,-1.6588648798754e-10,2.3539244631584e-10,-3.0120324013204e-09,3.0740702479038e-09,-0.0015349559933125,0.0015349560545413,-0.0016139535384897,0.0016139514227714,-0.0016139515056457,0.0016139534590184,-0.0016139533733028,0.0016139515822925,-0.0016139513868944,0.0016139535819494,-0.0013997363614924,0.001399730635021,-0.0013997304814017,0.001399736620562,-0.0015050351816696,0.0015050369038878,-0.0015050348468699,0.0015050372441449,-1.3361628495176e-08,1.3734768930767e-08,-0.0010890017880927,0.0010890021255425,3.1897365116509e-09,-2.9252469652049e-09,-0.0011796044110936,0.0011795977445626,-0.0011796064245217,0.0011795957455892,-0.001179595336408,0.0011796067962652,-0.0011795974458398,0.0011796047109025,-0.0011699394320192,0.0011699641034522,-0.0011699657919438,0.0011699377507012,0.70214876031207,125803,2834,0.0063746420306586,0.0063746420308329,0.004528846359508,22.251420564792,-6.1988635481664e-05,-6.1988635481664e-05,-6.1988635481664e-05,2416085.1647118,0.017429137572737
27619200,0.9943985086234,0.017221197179014,0.0062041268554436,0.0062041268556286,0.0048129434679419,-0.0015357569027929,0.0015357569284855,1.3832465418029e-08,-1.380633514088e-08,1.8390175298651e-10,-1.629331927381e-10,-0.0016147544909853,0.0016147638490641,-0.0016147636890331,0.0016147545946795,-0.0016147545725653,0.0016147637544728,-0.001614763827621,0.0016147544787381,-0.0014004987023995,0.0014005257301782,-0.0014005257936195,0.0014004985722022,-1.7334771164052e-10,2.4538841134441e-10,-3.0279623395521e-09,3.0924536064849e-09,-0.0015357568840784,0.0015357569474226,-0.0016147602213424,0.001614758091659,-0.0016147581790342,0.0016147601386003,-0.0016147600523549,0.0016147582562108,-0.0016147580529879,0.0016147602677396,-0.0014005150488671,0.0014005092929053,-0.0014005091313602,0.0014005153164667,-0.0015058365889976,0.0015058383028997,-0.0015058362336984,0.0015058386664992,-1.3490322210504e-08,1.3862836685032e-08,-0.0010895987452472,0.0010895990820621,3.1963610008251e-09,-2.9326487681502e-09,-0.0011802668039909,0.0011802600575336,-0.0011802688244105,0.001180258053585,-0.0011802576458351,0.0011802691939984,-0.001180259758569,0.0011802671048565,-0.0011705783127886,0.0011706032344269,-0.0011706049285303,0.001170576626611,0.71252804767286,125803,2834,0.0063779570075694,0.0063779570080287,0.0045313245537636,22.518530903673,-5.9851752770619e-05,-5.9851752770619e-05,-5.9851752770619e-05,2417964.6965156,0.017438404762603
27819200,0.99457199384625,0.017224254048933,0.0062052339645774,0.0062052339647622,0.0048137861195938,-0.0015365681018505,0.0015365681255217,1.397557545641e-08,-1.3951522498388e-08,1.9753842327794e-10,-1.7876608470118e-10,-0.0016155648317785,0.0016155742909896,-0.0016155741231041,0.0016155649428906,-0.0016155649198429,0.0016155741886935,-0.0016155742734737,0.0016155648146446,-0.0014012950022564,0.0014013223087171,-0.0014013223842602,0.0014012948602846,-1.8335347238316e-10,2.5553933480144e-10,-3.0269119124445e-09,3.0913518174049e-09,-0.0015365680819295,0.0015365681455514,-0.0016155706166387,0.0016155684788337,-0.0016155685720227,0.0016155705271129,-0.0016155704378244,0.0016155686522947,-0.00161556844208,0.0016155706611947,-0.0014013114794598,0.0014013057399955,-0.0014013055719593,0.0014013117537103,-0.0015066503716006,0.0015066520735829,-0.0015066500038753,0.0015066524477306,-1.3567099476571e-08,1.3938433595539e-08,-0.0010901963940648,0.001090196729674,3.2122618729099e-09,-2.9498822625933e-09,-0.0011809420979808,0.0011809353075374,-0.0011809441259557,0.0011809332943162,-0.001180932885553,0.001180944497094,-0.0011809350119987,0.0011809423947775,-0.0011712190479383,0.0011712440985806,-0.0011712458045943,0.0011712173492465,0.72383354077111,125803,2834,0.0063813144645605,0.0063813144647838,0.0045338061396952,22.784528107285,-5.7723775141721e-05,-5.7723775141721e-05,-5.7723775141721e-05,2417800.2470058,0.017447761949179
28019200,0.99474281778057,0.017227316038561,0.0062063419870196,0.0062063419872043,0.0048146320643368,-0.0015373917186891,0.0015373917409178,1.4056996915687e-08,-1.4034363442419e-08,2.0872908276392e-10,-1.9152909656463e-10,-0.0016163814275028,0.0016163909498058,-0.0016163907753846,0.0016163815451539,-0.0016163815255718,0.0016163908374334,-0.0016163909316596,0.0016163814110262,-0.0014021104839301,0.001402137935795,-0.0014021380206449,0.0014021103327157,-1.9822842572825e-10,2.7255247917438e-10,-3.0382798334594e-09,3.1046820917329e-09,-0.0015373916970541,0.0015373917626538,-0.001616387251263,0.0016163850986724,-0.0016163852004721,0.0016163871531673,-0.0016163870639803,0.0016163852806272,-0.0016163850580075,0.0016163872999858,-0.0014021270427169,0.0014021212855124,-0.0014021211048906,0.0014021273295184,-0.0015074779575366,0.0015074796323735,-0.0015074775524039,0.001507480043979,-1.3705467292694e-08,1.4077081207361e-08,-0.0010907948845847,0.0010907952204748,3.2109788486238e-09,-2.9483106148478e-09,-0.0011816304580392,0.0011816235767788,-0.0011816324872163,0.0011816215624545,-0.001181621155425,0.0011816328565274,-0.0011816232789025,0.0011816307572498,-0.0011718619413155,0.0011718872703718,-0.001171888975151,0.0011718602439047,0.73612507367202,125803,2834,0.0063847231330641,0.0063847231332716,0.0045362917564723,23.050480203012,-5.5596158375901e-05,-5.5596158375901e-05,-5.5596158375901e-05,2415825.5243402,0.017457227571987
28219200,0.99491026881161,0.017230373039813,0.0062074472569808,0.0062074472571656,0.0048154785256663,-0.0015380998568903,0.0015380998764453,1.4177851422195e-08,-1.4157872116196e-08,2.2906215448489e-10,-2.147485976954e-10,-0.0016170766391431,0.0016170862540817,-0.0016170860679169,0.0016170767685768,-0.0016170767506226,0.0016170861281597,-0.0016170862394034,0.0016170766189907,-0.001402817831221,0.0014028455081338,-0.0014028456101502,0.0014028176627489,-2.1687646863158e-10,2.938924632022e-10,-3.0289161732905e-09,3.0977400453959e-09,-0.0015380998326937,0.0015380999007458,-0.0016170825123012,0.0016170803533634,-0.001617080466098,0.0016170824033277,-0.0016170823109236,0.0016170805496875,-0.0016170803112552,0.0016170825625201,-0.0014028344854237,0.0014028287625008,-0.0014028285662396,0.0014028347877376,-0.0015081911184583,0.0015081927538254,-0.0015081906768657,0.0015081932021649,-1.3803526334519e-08,1.4175396415193e-08,-0.0010912659050641,0.0010912662412106,3.2090657477074e-09,-2.9461084916321e-09,-0.0011822040258834,0.0011821970769819,-0.0011822060527153,0.0011821950649506,-0.0011821946567324,0.0011822064231819,-0.0011821967797706,0.0011822043244021,-0.0011723754672155,0.0011724009872636,-0.0011724026905094,0.0011723737715404,0.74948914837002,125803,2834,0.0063876535342394,0.0063876535344527,0.0045382490547371,23.250451539544,-5.3996387683645e-05,-5.3996387683645e-05,-5.3996387683645e-05,2412152.5158007,0.017465182537786
28419200,0.99507425412824,0.017233425907327,0.0062085500736189,0.0062085500738037,0.0048163257599047,-0.0015388013312411,0.0015388013483932,1.4306608485814e-08,-1.4289010204547e-08,2.4745695847743e-10,-2.3575150171815e-10,-0.0016177580114858,0.0016177677225698,-0.0016177675256516,0.0016177581517169,-0.0016177581347845,0.0016177675848328,-0.0016177677115787,0.0016177579876123,-0.0014035263805593,0.0014035543003026,-0.0014035544176856,0.0014035261966665,-2.317466364758e-10,3.1083721017233e-10,-3.013845670766e-09,3.0845961001109e-09,-0.0015388013048737,0.0015388013748679,-0.0016177639329557,0.0016177617735211,-0.0016177618947552,0.0016177638154075,-0.0016177637198535,0.0016177619817325,-0.0016177617308078,0.0016177639837823,-0.0014035431342663,0.0014035374553083,-0.0014035372464389,0.0014035434489628,-0.0015088992457545,0.0015089008460097,-0.0015088987767229,0.0015089013221072,-1.3893824997254e-08,1.426606194813e-08,-0.0010917117403333,0.0010917120768608,3.2050453791924e-09,-2.9416509599841e-09,-0.001182766650808,0.001182759638051,-0.0011827686736652,0.0011827576302593,-0.0011827572202682,0.0011827690457786,-0.0011827593418485,0.0011827669484094,-0.001172864665247,0.0011728903619013,-0.00117289206204,0.0011728629728097,0.76402414376071,125803,2834,0.0063905561445296,0.0063905561447498,0.0045401023955906,23.441100085026,-5.2471199319793e-05,-5.2471199319793e-05,-5.2471199319793e-05,2407067.0273428,0.01747297525933
28619200,0.99523477855614,0.017236434085231,0.0062096366755535,0.0062096366757383,0.0048171607339392,-0.0015395122453826,0.0015395122612907,1.439921030695e-08,-1.4382837127375e-08,2.5740688592574e-10,-2.4705380761694e-10,-0.0016184423810459,0.0016184521609162,-0.0016184519581747,0.0016184425270799,-0.0016184425124834,0.0016184520148994,-0.0016184521499449,0.0016184423570787,-0.0014042512871925,0.0014042793778603,-0.001404279503475,0.0014042510951082,-2.446657634524e-10,3.2553760296042e-10,-3.0062924856585e-09,3.0786683925512e-09,-0.0015395122175759,0.0015395122892057,-0.0016184483379195,0.0016184461764756,-0.0016184463051534,0.0016184482126925,-0.001618448116781,0.001618446392659,-0.0016184461309951,0.0016184483915432,-0.0014042681161122,0.0014042624578284,-0.0014042622380298,0.0014042684415873,-0.0015096165719604,0.0015096181389643,-0.0015096160725406,0.0015096186457495,-1.4020526856406e-08,1.4394091636852e-08,-0.0010921448190835,0.0010921451569505,3.1906880573061e-09,-2.9257836353918e-09,-0.0011833330774768,0.0011833259721446,-0.0011833350914044,0.001183323973253,-0.0011833235631103,0.0011833354636536,-0.001183325673466,0.0011833333775516,-0.0011733408522593,0.0011733668129766,-0.0011733685016911,0.0011733391712024,0.76896077240555,125803,2834,0.0063934976140875,0.0063934976143098,0.0045419033411324,23.631484408514,-5.0948124731891e-05,-5.0948124731891e-05,-5.0948124731891e-05,2400817.7728879,0.017480793880242
28819200,0.99539187218002,0.01723930345363,0.0062106750012416,0.0062106750014264,0.0048179534509617,-0.001540217892466,0.0015402179077197,1.4508914081458e-08,-1.4493189428364e-08,2.6270285619631e-10,-2.5305951279383e-10,-0.0016191220050674,0.0016191318615561,-0.0016191316557294,0.001619122154231,-0.001619122140244,0.001619131711801,-0.0016191318512448,0.0016191219804358,-0.0014049695017029,0.0014049978036159,-0.0014049979336408,0.0014049693052435,-2.4986572100903e-10,3.3141813986024e-10,-2.9945957720347e-09,3.0675943771232e-09,-0.0015402178640162,0.0015402179362776,-0.0016191279979938,0.001619125841079,-0.0016191259727783,0.0016191278696969,-0.0016191277732089,0.0016191260609927,-0.0016191257949568,0.0016191280521993,-0.0014049864229568,0.0014049807913118,-0.0014049805671895,0.0014049867526944,-0.0015103251155372,0.0015103266646567,-0.0015103246052856,0.0015103271823799,-1.4130498627334e-08,1.4504934013517e-08,-0.0010925668799345,0.0010925672186921,3.1798858196305e-09,-2.9139647917168e-09,-0.0011838921211402,0.0011838849353569,-0.0011838941275165,0.0011838829440687,-0.0011838825330339,0.0011838945006262,-0.0011838846358327,0.0011838924220779,-0.0011738041019757,0.001173830287136,-0.0011738319673943,0.0011738024293638,0.74978432650022,125803,2834,0.0063964172265854,0.0063964172268071,0.0045436585896827,23.824075455569,-4.9407396355444e-05,-4.9407396355444e-05,-4.9407396355444e-05,2395120.4734726,0.017488521658029
29019200,0.99554666604763,0.017241983326023,0.0062116481464272,0.0062116481466121,0.0048186870329841,-0.0015411167046047,0.0015411167214359,1.4619076173434e-08,-1.4601781186961e-08,2.5071461813463e-10,-2.3936641775554e-10,-0.0016200083216561,0.0016200182442992,-0.0016200180453689,0.001620008463945,-0.0016200084485199,0.0016200181030406,-0.0016200182324592,0.001620008298709,-0.0014058630220044,0.0014058915481504,-0.0014058916679809,0.0014058628357369,-2.3815987443814e-10,3.1805098450523e-10,-2.9935342707074e-09,3.065059004294e-09,-0.0015411166777037,0.0015411167484554,-0.0016200143436471,0.0016200121948866,-0.0016200123196996,0.0016200142222636,-0.0016200141272801,0.0016200124063598,-0.0016200121501456,0.0016200143963502,-0.0014058800585775,0.0014058744206152,-0.0014058742062037,0.0014058803787065,-0.0015112214863229,0.0015112230569595,-0.001511221000517,0.0015112235503659,-1.4241535295386e-08,1.461609126121e-08,-0.0010932091024214,0.0010932094413056,3.1777840533013e-09,-2.9117185599222e-09,-0.001184644794132,0.0011846375330335,-0.001184646799238,0.0011846355432388,-0.0011846351321375,0.0011846471724057,-0.001184637233365,0.0011846450952667,-0.0011744903919878,0.0011745167963847,-0.0011745184749855,0.0011744887209119,0.71130251546262,125803,2834,0.0064001368687038,0.0064001368689472,0.0045463260942407,24.13963321872,-4.6882934250241e-05,-4.6882934250241e-05,-4.6882934250241e-05,2393744.0539034,0.017498805707885
29219200,0.99569911545617,0.017244561676441,0.0062125858646894,0.0062125858648743,0.0048193899468774,-0.0015419565588798,0.001541956577251,1.4731983432136e-08,-1.4713168241045e-08,2.3863917408998e-10,-2.2561381547633e-10,-0.0016208602119786,0.001620870202189,-0.0016208700103595,0.0016208603471664,-0.0016208603301373,0.0016208700696967,-0.0016208701890062,0.0016208601904702,-0.0014066718471385,0.0014067006035149,-0.0014067007132854,0.0014066716708614,-2.253121401629e-10,3.0342781961558e-10,-2.9918970393761e-09,3.0617663212509e-09,-0.0015419565335705,0.0015419566026658,-0.00162086626335,0.0016208641235207,-0.0016208642408837,0.0016208661493628,-0.0016208660558383,0.0016208643259661,-0.0016208640804833,0.0016208663142316,-0.0014066890016245,0.0014066833580081,-0.0014066831543984,0.0014066893107769,-0.0015120546369808,0.0015120562317494,-0.0015120541784147,0.001512056697455,-1.4349809134502e-08,1.4724446435857e-08,-0.0010938629672867,0.0010938633062552,3.176615002651e-09,-2.9104548500516e-09,-0.0011853525913999,0.0011853452572088,-0.0011853545954858,0.001185343268279,-0.0011853428569807,0.0011853549688718,-0.001185344957574,0.0011853528924929,-0.0011751871944574,0.0011752138112874,-0.0011752154889892,0.001175185524203,0.69516965328486,125803,2834,0.0064036131687324,0.0064036131689488,0.0045490398037664,24.458353939072,-4.4333168487421e-05,-4.4333168487421e-05,-4.4333168487421e-05,2398413.9666922,0.017508641457961
29419200,0.99584914911508,0.017246934319728,0.006213452667913,0.0062134526680979,0.0048200289837169,-0.0015427624325352,0.0015427624524328,1.484092676358e-08,-1.4820607173271e-08,2.2687402803653e-10,-2.1219593885384e-10,-0.0016216901826529,0.0016217002382948,-0.0016217000533187,0.0016216903110058,-0.0016216902926338,0.0016217001140935,-0.0016217002235339,0.0016216901628284,-0.0014074322494915,0.0014074612272943,-0.0014074613272518,0.0014074320830592,-2.1411802766476e-10,2.9069635111225e-10,-2.9912890574103e-09,3.0597483873202e-09,-0.0015427624087056,0.0015427624763772,-0.0016216962630216,0.0016216941307002,-0.0016216942415627,0.0016216961555681,-0.0016216960635409,0.0016216943250801,-0.0016216940889149,0.0016216963125646,-0.0014074495182706,0.0014074438675063,-0.0014074436732443,0.0014074498180611,-0.0015128493545475,0.0015128509702036,-0.0015128489190868,0.0015128514126309,-1.4462000479007e-08,1.4836838793289e-08,-0.0010945194192961,0.0010945197584653,3.1742603365293e-09,-2.9078740829116e-09,-0.001186037271565,0.0011860298611959,-0.0011860392741279,0.0011860278737779,-0.0011860274624232,0.0011860396475902,-0.0011860295612564,0.0011860375729769,-0.0011758819936115,0.0011759088324479,-0.0011759105082538,0.0011758803251942,0.6508985599046,125803,2834,0.0064069491460581,0.0064069491462938,0.0045517632839199,24.777202028051,-4.1782383775589e-05,-4.1782383775589e-05,-4.1782383775589e-05,2405165.0581493,0.017518201673707
29619200,0.9959966179202,0.017249233378183,0.0062142932231165,0.0062142932233014,0.004820646931765,-0.0015434793154136,0.0015434793362578,1.4952025792523e-08,-1.493076093262e-08,2.1968883236285e-10,-2.0398693910374e-10,-0.0016224570505091,0.0016224671757356,-0.0016224669949367,0.0016224571747004,-0.001622457155386,0.0016224670567138,-0.0016224671601309,0.0016224570316114,-0.0014080773890491,0.001408106589789,-0.0014081066836985,0.0014080772286899,-2.0693714950625e-10,2.8250410060219e-10,-2.9890664873816e-09,3.0566004020625e-09,-0.001543479292526,0.0015434793592617,-0.0016224631627445,0.0016224610363489,-0.0016224611430371,0.001622463059474,-0.0016224629683006,0.0016224612256455,-0.0016224609954931,0.0016224632112895,-0.0014080947695881,0.0014080891181774,-0.0014080889299347,0.0014080950633235,-0.0015135539632453,0.0015135555913407,-0.0015135535428956,0.0015135560184335,-1.4571756346914e-08,1.4946757873924e-08,-0.0010951720157997,0.0010951723551502,3.1719270944259e-09,-2.9053503016841e-09,-0.0011866518284257,0.0011866443433624,-0.0011866538293316,0.0011866423576013,-0.0011866419460226,0.001186654203021,-0.0011866440432743,0.0011866521299991,-0.0011765731298893,0.0011766001853584,-0.001176601859381,0.0011765714632408,0.64191384722361,125803,2834,0.0064099175639372,0.006409917564176,0.004554468489032,25.086843412025,-3.9305252703796e-05,-3.9305252703796e-05,-3.9305252703796e-05,2417891.6616852,0.017526995077053
29819200,0.99614097760738,0.017251614049872,0.0062151600773113,0.0062151600774962,0.0048212938950647,-0.0015440785176455,0.0015440785382855,1.5061441025198e-08,-1.5040373773435e-08,2.2137007147274e-10,-2.0588454625079e-10,-0.0016231091700077,0.0016231193691916,-0.0016231191874854,0.0016231092951988,-0.0016231092760543,0.0016231192491126,-0.0016231193539202,0.0016231091508834,-0.0014086054338054,0.0014086348477694,-0.0014086349431477,0.0014086052719071,-2.0992892263904e-10,2.8612308761333e-10,-2.9830061131042e-09,3.0510709749275e-09,-0.001544078494397,0.0015440785616578,-0.0016231153182054,0.0016231131938613,-0.001623113302342,0.001623115213248,-0.0016231151215597,0.0016231133855011,-0.0016231131525918,0.001623115367162,-0.001408622914011,0.0014086172766286,-0.0014086170856759,0.0014086232101277,-0.0015141466812113,0.0015141482997345,-0.0015141462544243,0.0015141487330754,-1.4683247125831e-08,1.5057164512019e-08,-0.0010957372523281,0.0010957375906053,3.1648701974173e-09,-2.8992994242962e-09,-0.001187162518041,0.0011871549535346,-0.0011871645145681,0.0011871529722334,-0.0011871525616353,0.0011871648871933,-0.0011871546546141,0.0011871628185279,-0.0011771771307149,0.001177204406429,-0.0011772060773304,0.0011771754674513,0.67837702209276,125803,2834,0.0064123989741339,0.0064123989743883,0.0045568109901218,25.339218391557,-3.7286252867541e-05,-3.7286252867541e-05,-3.7286252867541e-05,2430067.5522331,0.017534428249492
30019200,0.99628219850588,0.017253978774793,0.0062160202108677,0.0062160202110526,0.0048219383528727,-0.0015447381261796,0.0015447381461392,1.5172536070438e-08,-1.5152143494711e-08,2.2633988758945e-10,-2.1160203858532e-10,-0.0016237973926382,0.0016238076690901,-0.0016238074844622,0.001623797520723,-0.0016237975022476,0.0016238075453542,-0.0016238076543939,0.0016237973728632,-0.0014092193343354,0.0014092489624017,-0.0014092490619247,0.00140921916841,-2.1276565891987e-10,2.8924158588131e-10,-2.9768484711538e-09,3.0452046970574e-09,-0.0015447381024374,0.0015447381700017,-0.0016238035782633,0.0016238014563362,-0.001623801566367,0.0016238034716204,-0.0016238033796799,0.0016238016498638,-0.0016238014146679,0.0016238036275896,-0.0014092369145225,0.0014092312912472,-0.0014092310979778,0.0014092372131538,-0.0015148048068075,0.001514806415544,-0.0015148043741174,0.0015148068550197,-1.4792077945147e-08,1.5166395169391e-08,-0.0010963055008608,0.0010963058395486,3.16049657508e-09,-2.894462359261e-09,-0.0011877315575807,0.0011877239177396,-0.001187733551076,0.0011877219394628,-0.0011877215285248,0.0011877339240567,-0.0011877236183647,0.0011877318584882,-0.001177783302269,0.001177810795043,-0.0011778124623108,0.0011777816424434,0.68873088854545,125803,2834,0.0064151296906586,0.0064151296909057,0.0045591682325115,25.590115360047,-3.5279077119624e-05,-3.5279077119624e-05,-3.5279077119624e-05,2434575.7491183,0.017542384076723
30219200,0.99642026673693,0.017256192564752,0.0062168277345862,0.0062168277347711,0.0048225370953951,-0.0015454090003424,0.0015454090197792,1.5282084259287e-08,-1.5262203766798e-08,2.3020624753363e-10,-2.160377168431e-10,-0.001624490907159,0.0016245012590715,-0.0016245010722071,0.0016244910374819,-0.0016244910194928,0.0016245011325702,-0.0016245012448843,0.0016244908868334,-0.001409849645525,0.0014098794854915,-0.0014098795882747,0.0014098494763457,-2.1718317496779e-10,2.9430153439251e-10,-2.9721132626802e-09,3.0410551736497e-09,-0.0015454089760415,0.0015454090441968,-0.001624497130321,0.0016244950087721,-0.001624495121338,0.0016244970210925,-0.0016244969285994,0.0016244952054709,-0.0016244949665312,0.001624497180218,-0.0014098673254369,0.0014098617146391,-0.0014098615176116,0.0014098676277883,-0.0015154724792912,0.0015154740763775,-0.0015154720373506,0.0015154745252139,-1.4902546654816e-08,1.5277243468934e-08,-0.0010968706934428,0.0010968710325182,3.1559802406943e-09,-2.8895137148716e-09,-0.0011883143529107,0.0011883066365048,-0.0011883163432363,0.0011883046613883,-0.0011883042500563,0.0011883167166073,-0.0011883063367568,0.0011883146541859,-0.0011783827743537,0.0011784104871859,-0.0011784121509432,0.0011783811180776,0.6600831147354,125803,2834,0.0064179068095162,0.0064179068097558,0.0045615134302346,25.840952723696,-3.3272378210429e-05,-3.3272378210429e-05,-3.3272378210429e-05,2436915.1301043,0.017550422294322
30419200,0.99655546226243,0.017258243639781,0.0062175786355057,0.0062175786356907,0.0048230863685846,-0.0015460980356797,0.0015460980548509,1.539361581725e-08,-1.5373984844787e-08,2.3215585932727e-10,-2.1828456143884e-10,-0.0016252198510229,0.001625230278551,-0.0016252300905051,0.0016252199824986,-0.0016252199647565,0.0016252301506584,-0.0016252302646566,0.0016252198304079,-0.0014104788849171,0.0014105089421149,-0.0014105090463094,0.0014104787142307,-2.1600751200114e-10,2.9304133092866e-10,-2.9711020407855e-09,3.0400268571266e-09,-0.0015460980112903,0.0015460980793736,-0.0016252261113188,0.001625223991155,-0.001625224102946,0.0016252260027989,-0.0016252259103937,0.0016252241870301,-0.0016252239490251,0.0016252261610658,-0.0014104966727707,0.0014104910634187,-0.0014104908671002,0.0014104969746092,-0.0015161545339391,0.0015161561323235,-0.0015161540944657,0.0015161565791945,-1.5011468917177e-08,1.5385943741509e-08,-0.0010975052293448,0.0010975055682034,3.1566142183046e-09,-2.8903802624185e-09,-0.0011889259644594,0.0011889181757526,-0.0011889279553564,0.0011889162002738,-0.0011889157891126,0.0011889283285155,-0.0011889178762495,0.0011889262655084,-0.0011790513624115,0.0011790792874891,-0.001179080951849,0.0011790497052675,0.62526526289945,125803,2834,0.0064207596214983,0.0064207596217723,0.0045641448308207,26.128821871515,-3.0969425027876e-05,-3.0969425027876e-05,-3.0969425027876e-05,2443892.9929712,0.017558905720038
30619200,0.99668856708506,0.017260387934678,0.0062183601826173,0.0062183601828023,0.0048236675692582,-0.0015469424284413,0.0015469424476418,1.5509704582348e-08,-1.5490450278024e-08,2.2688275918156e-10,-2.1311550705578e-10,-0.001626120470095,0.0016261309709332,-0.0016261307856928,0.0016261205983963,-0.0016261205800424,0.0016261308463563,-0.0016261309577947,0.0016261204500153,-0.0014112483491083,0.0014112786415371,-0.00141127874475,0.0014112481836108,-2.0328185829053e-10,2.7520531779513e-10,-2.9794767572626e-09,3.0429850108379e-09,-0.0015469424058308,0.0015469424699448,-0.0016261267654971,0.001626124649128,-0.0016261247519132,0.001626126664346,-0.0016261265732347,0.0016261248335708,-0.001626124610097,0.0016261268132795,-0.0014112662664363,0.0014112606297903,-0.0014112604518642,0.0014112665497169,-0.0015169957262059,0.0015169973600646,-0.0015169953140415,0.0015169977599862,-1.511586961762e-08,1.5489890148959e-08,-0.0010983570219193,0.0010983573601085,3.1681727098955e-09,-2.9023803737057e-09,-0.0011897045811099,0.0011896967288882,-0.0011897065783583,0.001189694745375,-0.0011896943343523,0.0011897069510521,-0.0011896964311979,0.0011897048813058,-0.0011799451651079,0.0011799732840084,-0.001179974955632,0.0011799435007939,0.66318229163018,125803,2834,0.0064242562316694,0.0064242562310316,0.0045676757466995,26.522822778619,-2.7817417771049e-05,-2.7817417771049e-05,-2.7817417771049e-05,2455751.1428002,0.017569614416762
30819200,0.99681950420059,0.0172625916506,0.0062191610512528,0.0062191610514378,0.004824269547909,-0.0015478672792712,0.0015478673004999,1.5615208537804e-08,-1.5593571611032e-08,2.1588071116893e-10,-1.9979623830324e-10,-0.0016270750285759,0.0016270855937136,-0.0016270854150951,0.0016270751505789,-0.0016270751308069,0.0016270854773851,-0.0016270855779121,0.0016270750100745,-0.0014121269981716,0.0014121575014684,-0.0014121575924074,0.0014121268410786,-2.0034463760884e-10,2.7480254155819e-10,-2.9896349506836e-09,3.0561034804747e-09,-0.0015478672570479,0.0015478673228126,-0.0016270813588832,0.0016270792363523,-0.0016270793390374,0.0016270812595658,-0.0016270811690499,0.0016270794208482,-0.0016270791964564,0.0016270814065556,-0.0014121450326151,0.0014121393755353,-0.0014121391934146,0.0014121453205747,-0.0015179225337554,0.0015179241753951,-0.0015179221274773,0.001517924587265,-1.5232997356839e-08,1.5605167810482e-08,-0.0010992220446136,0.0010992223811254,3.1726470246788e-09,-2.9089318381806e-09,-0.001190559466995,0.0011905515405398,-0.0011905614692392,0.0011905495534269,-0.0011905491445349,0.0011905618401047,-0.0011905512434425,0.0011905597656959,-0.0011808520010332,0.0011808803433038,-0.0011808820214791,0.0011808503301988,0.6923632710319,125803,2834,0.0064280850656946,0.0064280850658776,0.0045712639823499,26.919573308587,-2.4643413531302e-05,-2.4643413531302e-05,-2.4643413531302e-05,2459430.0146941,0.017581057963989
31019200,0.99694817847441,0.017264820305303,0.0062199695845214,0.0062199695847065,0.004824881136075,-0.0015488444153839,0.0015488444371905,1.5725708209173e-08,-1.5703510578414e-08,2.1133353614083e-10,-1.9460316194816e-10,-0.0016280615308095,0.0016280721668341,-0.0016280719908591,0.0016280616501575,-0.0016280616298426,0.0016280720537595,-0.0016280721504558,0.0016280615128998,-0.0014130795457745,0.0014131102687766,-0.0014131103559238,0.0014130793923912,-1.9539694234577e-10,2.6916135956074e-10,-2.997924680858e-09,3.0637520312726e-09,-0.0015488443937782,0.0015488444588964,-0.0016280678977486,0.0016280657728089,-0.0016280658726725,0.0016280678013377,-0.0016280677114252,0.0016280659537762,-0.0016280657335558,0.0016280679447673,-0.0014130976999779,0.0014130920231082,-0.001413091845202,0.001413097983818,-0.0015189049461546,0.0015189066028152,-0.0015189045502385,0.0015189070042716,-1.5343838613058e-08,1.5714862685438e-08,-0.0011000859979753,0.0011000863333239,3.180200015124e-09,-2.9177265798446e-09,-0.0011914595265207,0.0011914515308696,-0.0011914615342708,0.0011914495383218,-0.0011914491306041,0.0011914619039638,-0.0011914512349406,0.0011914598240782,-0.001181757366262,0.0011817859177636,-0.0011817876025368,0.0011817556888035,0.71215831036124,125803,2834,0.0064321297172846,0.0064321297174899,0.0045748494958075,27.316434907268,-2.1468520741852e-05,-2.1468520741852e-05,-2.1468520741852e-05,2457659.5183061,0.017592938286218
31219200,0.99707560234946,0.017267132541117,0.0062208062436188,0.0062208062438038,0.0048255200536945,-0.0015501491360619,0.0015501491591774,1.583661437589e-08,-1.5813106917791e-08,2.0130251575809e-10,-1.8316561423974e-10,-0.0016293601360869,0.001629370839742,-0.0016293706695507,0.0016293602495664,-0.0016293602279676,0.0016293707337851,-0.0016293708221054,0.0016293601194242,-0.001414375049226,0.0014144059967308,-0.0014144060752785,0.0014143749042379,-1.7795841902187e-10,2.4915129586065e-10,-3.0146837665645e-09,3.0781896634996e-09,-0.0015501491162855,0.0015501491790467,-0.0016293665370131,0.0016293644117838,-0.0016293645015507,0.0016293664507334,-0.0016293663629914,0.0016293645802332,-0.0016293643748737,0.0016293665816717,-0.0014143933381877,0.0014143876161771,-0.0014143874529317,0.0014143936074345,-0.0015202184039603,0.001520220105245,-0.0015202180447162,0.0015202204697339,-1.5455262974357e-08,1.5824022385919e-08,-0.0011012356674028,0.0011012360004675,3.1967430302646e-09,-2.9367561305655e-09,-0.0011926757672516,0.0011926677075664,-0.0011926777867921,0.0011926657032027,-0.001192665297728,0.0011926781543051,-0.001192667413852,0.0011926760624811,-0.0011829563956675,0.0011829851486743,-0.001182986847669,0.0011829547039948,0.7454602848365,125803,2834,0.0064375300605207,0.0064375300607108,0.0045796213231148,27.865599599085,-1.7075203207322e-05,-1.7075203207322e-05,-1.7075203207322e-05,2452945.1671993,0.017608785135734
31419200,0.99720173267235,0.017269318172442,0.0062215995340581,0.0062215995342432,0.0048261191041403,-0.0015515336108441,0.0015515336388797,1.5953837584978e-08,-1.5925423543831e-08,1.6520187525493e-10,-1.4179470756313e-10,-0.0016307213942907,0.0016307321532369,-0.001630732003792,0.0016307214872093,-0.001630721461068,0.0016307320737886,-0.0016307321320372,0.0016307213831592,-0.0014157669630398,0.001415798167552,-0.0014157982144234,0.0014157668503302,-1.9626734416736e-10,2.7026590867977e-10,-3.0344938256028e-09,3.1009268134027e-09,-0.0015515335920483,0.0015515336577073,-0.0016307278353518,0.0016307256858245,-0.0016307257853728,0.0016307277394472,-0.0016307276480565,0.0016307258673507,-0.0016307256464308,0.0016307278832606,-0.0014157853924367,0.0014157796457405,-0.0014157794664144,0.0014157856782956,-0.0015216072756347,0.0015216089533276,-0.0015216068765033,0.0015216093554848,-1.5561783022395e-08,1.592908260999e-08,-0.0011023983576144,0.0011023986892732,3.2042415795604e-09,-2.9457141846191e-09,-0.0011939587742817,0.0011939506476899,-0.0011939607998316,0.001193948639272,-0.00119394823419,0.0011939611659028,-0.0011939503563579,0.001193959068704,-0.0011841650808554,0.0011841940342382,-0.001184195738858,0.0011841633817163,0.71242629001135,125803,2834,0.0064432598515468,0.0064432598516114,0.004584448829567,28.43363438703,-1.2530924903758e-05,-1.2530924903758e-05,-1.2530924903758e-05,2444252.5283781,0.017625359785054
31619200,0.99732638571148,0.01727138011855,0.0062223502318577,0.0062223502320426,0.0048266796546499,-0.0015528537323236,0.0015528537566788,1.605488572832e-08,-1.603018857039e-08,1.9144632203451e-10,-1.7197641165044e-10,-0.0016320396680108,0.0016320505111292,-0.0016320503466485,0.0016320397757089,-0.0016320397530846,0.0016320504121377,-0.0016320504922291,0.0016320396527369,-0.0014170719816964,0.0014171033633973,-0.001417103433864,0.0014170718448424,-1.6035048781443e-10,2.2905544603289e-10,-3.0423723503277e-09,3.1036016822608e-09,-0.0015528537143105,0.0015528537747844,-0.0016320461422735,0.0016320440097887,-0.0016320440894048,0.0016320460663805,-0.001632045980817,0.001632044165592,-0.0016320439750759,0.0016320461848249,-0.0014170905213163,0.001417084732028,-0.0014170845839348,0.0014170907758527,-0.0015229252938915,0.0015229270472094,-0.0015229249713095,0.0015229273747658,-1.5680496315421e-08,1.6045683849137e-08,-0.0011035532502567,0.0011035535796892,3.2224846120975e-09,-2.9663928920275e-09,-0.0011951843941181,0.0011951762003672,-0.0011951864322821,0.0011951741775688,-0.0011951737757317,0.0011951867960894,-0.0011951759102133,0.0011951846858732,-0.0011853650668768,0.0011853942356271,-0.001185395956422,0.0011853633531858,0.68057765870489,125803,2834,0.0064487238625894,0.0064487238627783,0.0045892419342689,29.002213797155,-7.9822896227609e-06,-7.9822896227609e-06,-7.9822896227609e-06,2442402.4401256,0.017641358567902
31819200,0.99744727661691,0.017273312494911,0.0062230553442395,0.0062230553444245,0.0048272018062473,-0.0015535225090445,0.001553522530132,1.6174367823224e-08,-1.6152871259577e-08,2.1648009091711e-10,-2.0055456937204e-10,-0.0016327298956526,0.0016327408339129,-0.0016327406548187,0.0016327300179872,-0.0016327299981395,0.0016327407172147,-0.001632740818337,0.0016327298767436,-0.00141770467771,0.001417736276763,-0.0014177363680232,0.0014177045200918,-1.9902984277492e-10,2.7300970472737e-10,-3.0238970235346e-09,3.0900133973e-09,-0.001553522486919,0.0015535225523409,-0.0016327364234064,0.0016327342788718,-0.0016327343808214,0.001632736325037,-0.0016327362344783,0.0016327344624659,-0.0016327342395618,0.0016327364707261,-0.0014177232935349,0.0014177175691678,-0.0014177173883739,0.0014177235806528,-0.0015235871960617,0.0015235888633022,-0.0015235867933312,0.0015235892716675,-1.5779078455795e-08,1.6145929055715e-08,-0.0011041343293152,0.0011041346604565,3.2085564110173e-09,-2.950616718794e-09,-0.0011957805402573,0.0011957722717312,-0.0011957825682087,0.0011957702590259,-0.0011957698552716,0.0011957829339839,-0.0011957719801361,0.0011957808333858,-0.0011859773362806,0.0011860067102214,-0.0011860084195021,0.0011859756341939,0.65805652181827,125803,2834,0.0064514922130087,0.0064514922131794,0.0045916527102006,29.265154014123,-5.8787678870118e-06,-5.8787678870118e-06,-5.8787678870118e-06,2445492.8966995,0.017649446539273
32019200,0.99756281252204,0.017275329819128,0.006223787145931,0.006223787146116,0.0048277555270811,-0.0015536762100445,0.0015536762249556,1.6273384093581e-08,-1.6257987378293e-08,2.6291347529145e-10,-2.5367497957997e-10,-0.0016329158330062,0.0016329268663617,-0.0016329266604997,0.0016329159822715,-0.0016329159685598,0.0016329267164183,-0.0016329268566636,0.0016329158080722,-0.0014178155166373,0.0014178472757236,-0.0014178474062375,0.0014178153198399,-2.4940628857379e-10,3.3104456975256e-10,-2.9883799949923e-09,3.0614261686644e-09,-0.0015536761813537,0.00155367625374,-0.0016329224121023,0.0016329202598074,-0.0016329203909069,0.0016329222844585,-0.0016329221875959,0.0016329204794715,-0.0016329202136179,0.001632922466477,-0.0014178341602875,0.0014178285407514,-0.0014178283170287,0.001417834489757,-0.0015237405634726,0.0015237421094521,-0.0015237400538668,0.0015237426255284,-1.5895394627342e-08,1.6266509760175e-08,-0.001104263252294,0.0011042635877519,3.1739102422575e-09,-2.9112722505714e-09,-0.0011958773381944,0.0011958689705666,-0.0011958793417788,0.0011958669824351,-0.0011958665744505,0.0011958797115166,-0.0011958686745855,0.0011958776358615,-0.0011861324858343,0.0011861621211998,-0.0011861638017894,0.0011861308129279,0.7176633794789,125803,2834,0.0064521288725249,0.0064521288727164,0.0045921865010182,29.280924570653,-5.7526034347782e-06,-5.7526034347782e-06,-5.7526034347782e-06,2450878.6790226,0.017651285411761
32219200,0.99767318463023,0.017277299821851,0.006224500919366,0.006224500919551,0.0048282979829339,-0.0015539088290497,0.0015539088392413,1.6383757421928e-08,-1.6373029343134e-08,2.9906652207598e-10,-2.9494588566448e-10,-0.001633141754264,0.0016331528837474,-0.0016331526568953,0.0016331419245957,-0.0016331419153213,0.001633152708066,-0.0016331528786669,0.0016331417244821,-0.0014180447554142,0.001418076705165,-0.001418076866015,0.0014180445282859,-2.8404986358929e-10,3.7061305794345e-10,-2.9534934831345e-09,3.0310388219181e-09,-0.0015539087957321,0.0015539088726565,-0.0016331483806487,0.0016331462298084,-0.0016331463809075,0.0016331482327305,-0.0016331481315943,0.0016331464742824,-0.0016331461792177,0.001633148439426,-0.0014180634479145,0.0014180579216827,-0.0014180576685902,0.0014180638062488,-0.0015239794243206,0.0015239808803833,-0.0015239788421617,0.0015239814696331,-1.6001310242023e-08,1.63761151471e-08,-0.001104370450519,0.001104370789709,3.1446254490165e-09,-2.877910462537e-09,-0.0011960387371433,0.0011960302804023,-0.0011960407198312,0.0011960283132745,-0.0011960279014812,0.0011960410932628,-0.0011960299808204,0.0011960390384219,-0.0011862646023182,0.0011862944729534,-0.0011862961290724,0.0011862629540954,0.73340851167925,125803,2834,0.0064530910705809,0.0064530910707808,0.0045926335074295,29.290187507076,-5.6784999433878e-06,-5.6784999433878e-06,-5.6784999433878e-06,2445655.960978,0.017653698884204
32419200,0.99777861886736,0.017279227979926,0.0062251986493048,0.0062251986494898,0.0048288306811315,-0.0015541557623005,0.0015541557692138,1.6491543998357e-08,-1.6484051462661e-08,3.2473150073438e-10,-3.2416362843543e-10,-0.0016333723708397,0.0016333835882805,-0.0016333833464874,0.0016333725561428,-0.0016333725500172,0.0016333833942588,-0.0016333835862861,0.0016333723377212,-0.0014182988949823,0.0014183310375526,-0.0014183312198558,0.0014182986464135,-3.1019353844739e-10,4.0036679538873e-10,-2.9230925018065e-09,3.0039295537053e-09,-0.0015541557256765,0.0015541558059275,-0.0016333790392449,0.0016333768922585,-0.0016333770584809,0.00163337887591,-0.0016333787717654,0.0016333771553476,-0.0016333768383285,0.0016333791013079,-0.0014183176449163,0.0014183121968438,-0.0014183119216842,0.0014183180248939,-0.0015242333039,0.0015242346892173,-0.0015242326669095,0.0015242353337809,-1.6110697544723e-08,1.648884231948e-08,-0.0011044647917091,0.0011044651342832,3.117374017507e-09,-2.8469661507808e-09,-0.0011962089822013,0.0011962004353609,-0.0011962109455081,0.0011961984875894,-0.0011961980724797,0.0011962113222398,-0.0011962001323945,0.0011962092868259,-0.0011863842084357,0.0011864143192048,-0.0011864159526784,0.0011863825830412,0.75109424842728,125803,2834,0.0064541122424452,0.0064541122426289,0.0045930278703148,29.299186162135,-5.6065107029174e-06,-5.6065107029174e-06,-5.6065107029174e-06,2438712.2534738,0.017656178892125
32619200,0.99787907676633,0.017280929541972,0.0062258174393602,0.0062258174395453,0.0048292946630667,-0.0015543217598311,0.0015543217657225,1.6598558848362e-08,-1.6592083213541e-08,3.3357391454589e-10,-3.3412127600084e-10,-0.0016335151369014,0.0016335264313861,-0.0016335261843787,0.0016335153275037,-0.0016335153224219,0.0016335262310144,-0.0016335264303162,0.0016335151028794,-0.0014184790156028,0.001418511361304,-0.001418511550813,0.001418478759821,-3.2010359299614e-10,4.1152997448558e-10,-2.8993889971235e-09,2.9813923697302e-09,-0.0015543217221173,0.0015543218035346,-0.0016335218390567,0.0016335197016808,-0.0016335198736427,0.0016335216698245,-0.0016335215647323,0.0016335199716971,-0.0016335196464546,0.001633521902311,-0.0014184978406352,0.0014184924458308,-0.0014184921622807,0.0014184982286671,-0.0015244009653571,0.0015244023153577,-0.0015244003074172,0.0015244029811103,-1.6222722277908e-08,1.6602692227208e-08,-0.001104452353537,0.0011044526979597,3.0941305294583e-09,-2.8215995629636e-09,-0.0011962959142042,0.0011962872777277,-0.0011962978614471,0.0011962853461266,-0.0011962849292818,0.0011962982398692,-0.0011962869728826,0.0011962962207257,-0.001186390368109,0.0011864207182371,-0.0011864223336442,0.0011863887607363,0.69653885700029,125803,2834,0.0064547980815539,0.0064547980817552,0.0045929799269601,29.262983500782,-5.8961319937409e-06,-5.8961319937409e-06,-5.8961319937409e-06,2430199.4622828,0.01765752650184
32819200,0.99797468192923,0.017282425820493,0.0062263644188703,0.0062263644190554,0.0048296969825675,-0.0015543413254605,0.0015543413318206,1.670774440076e-08,-1.6700791113178e-08,3.2939109174002e-10,-3.2943626453649e-10,-0.0016335452195572,0.0016335565843236,-0.0016335563397084,0.0016335454078317,-0.0016335454023565,0.0016335563869725,-0.0016335565830092,0.0016335451861288,-0.0014184772575657,0.001418509820337,-0.0014185100062282,0.0014184770056791,-3.1818123001713e-10,4.0946573761083e-10,-2.8821882052725e-09,2.9641610617525e-09,-0.0015543412880209,0.0015543413693682,-0.0016335519505827,0.0016335498260015,-0.0016335499964781,0.0016335517826882,-0.0016335516776357,0.0016335500946058,-0.0016335497707845,0.001633552013696,-0.0014184961747976,0.0014184908125836,-0.0014184905303419,0.0014184965617266,-0.0015244153713563,0.0015244167131375,-0.0015244147171835,0.0015244173752321,-1.6333521314024e-08,1.6714880148062e-08,-0.0011043941056457,0.0011043944515,3.076709712053e-09,-2.8025420388518e-09,-0.0011962546927894,0.0011962459712115,-0.001196256628088,0.0011962440520591,-0.0011962436336549,0.0011962570078611,-0.0011962456651296,0.0011962550008178,-0.0011863479849952,0.0011863785671632,-0.0011863801686096,0.0011863463910682,0.64446134739248,125803,2834,0.0064548788209383,0.00645487882116,0.0045927388614749,29.204566584318,-6.3634673254555e-06,-6.3634673254555e-06,-6.3634673254555e-06,2431207.977708,0.017657445655074
33019200,0.99806567921822,0.017283964440407,0.0062269237972744,0.0062269237974595,0.0048301168456732,-0.0015542764295044,0.0015542764368531,1.6819914033995e-08,-1.6811982335598e-08,3.2007458947041e-10,-3.1902691671139e-10,-0.0016335194524713,0.0016335308860323,-0.001633530647159,0.0016335196350473,-0.001633519628533,0.0016335306952832,-0.0016335308836475,0.0016335194199228,-0.0014183636192136,0.0014183964082208,-0.0014183965868361,0.0014183633744097,-3.0639748864939e-10,3.963044607567e-10,-2.8697428689092e-09,2.9503573620527e-09,-0.001554276393222,0.0015542764732324,-0.0016335262101567,0.0016335241010622,-0.0016335242647556,0.0016335260489953,-0.0016335259453606,0.0016335243615105,-0.0016335240470979,0.001633526271787,-0.001418382641651,0.0014183772954043,-0.001418377022651,0.0014183830184325,-0.0015243478666919,0.0015243492236178,-0.0015243472371966,0.0015243498607435,-1.6441770121918e-08,1.6824134402125e-08,-0.0011043505213208,0.0011043508681945,3.0654801810046e-09,-2.7901609956448e-09,-0.0011961459357181,0.0011961371347427,-0.0011961478629073,0.0011961352231995,-0.0011961348039344,0.0011961482437609,-0.0011961368275309,0.0011961462446264,-0.001186323217665,0.0011863540211971,-0.0011863556141732,0.0011863216327601,0.69524134550389,125803,2834,0.0064546110147473,0.0064546110149458,0.0045925557373269,29.145558074551,-6.8355354035934e-06,-6.8355354035934e-06,-6.8355354035934e-06,2440121.5898945,0.017656713878707
33219200,0.99815230356368,0.017285501809065,0.0062274810346239,0.0062274810348089,0.0048305397396319,-0.0015542955170727,0.0015542955263476,1.6930761669147e-08,-1.6920928820004e-08,3.0508074463973e-10,-3.0194596552272e-10,-0.0016335454946722,0.001633556992795,-0.0016335567626702,0.0016335456685252,-0.0016335456601619,0.0016335568127557,-0.0016335569885737,0.0016335454640972,-0.0014183681179076,0.0014184011347341,-0.0014184013008155,0.0014183678856168,-2.9156587380387e-10,3.7942765686743e-10,-2.8627725487598e-09,2.941524604277e-09,-0.0015542954827012,0.0015542955608208,-0.0016335522777724,0.0016335501825641,-0.0016335503375897,0.0016335521252288,-0.0016335520234442,0.0016335504324503,-0.0016335501303853,0.0016335523374399,-0.0014183872528047,0.0014183819096479,-0.0014183816492182,0.00141838761714,-0.0015243701286594,0.0015243715095439,-0.0015243695302684,0.0015243721154116,-1.655204535135e-08,1.6934957270268e-08,-0.0011043089998694,0.0011043093472966,3.0577899843796e-09,-2.7818261158165e-09,-0.0011961145684151,0.0011961056889304,-0.0011961164902632,0.0011961037827258,-0.0011961033629408,0.0011961168716655,-0.0011961053811853,0.0011961148778574,-0.0011862989234998,0.0011863299492924,-0.0011863315363077,0.0011862973444325,0.72922789894079,125803,2834,0.0064546898702211,0.0064546898704294,0.0045923840919074,29.086525496598,-7.3077960272178e-06,-7.3077960272178e-06,-7.3077960272178e-06,2439430.0557779,0.017656699687583
33419200,0.99823610938338,0.017287017315547,0.0062280297984987,0.0062280297986838,0.0048309577183642,-0.0015549146183585,0.0015549146339196,1.704997026823e-08,-1.7033912218263e-08,2.5734966290916e-10,-2.47396231862e-10,-0.0016341486635886,0.001634160211023,-0.0016341600085913,0.0016341488096859,-0.0016341487949644,0.0016341600655562,-0.0016341602012386,0.0016341486390226,-0.001418992532879,0.0014190258185047,-0.0014190259443838,0.0014189923408219,-2.4643784943404e-10,3.2797233344194e-10,-2.8879894172736e-09,2.9609666571371e-09,-0.0015549145900555,0.0015549146623266,-0.0016341554659832,0.0016341533817974,-0.0016341535106736,0.001634155339794,-0.001634155243098,0.0016341535998826,-0.0016341533357284,0.001634155519355,-0.0014190118422131,0.0014190064186341,-0.0014190061963115,0.0014190121690037,-0.001524996484157,0.0015249979699169,-0.0015249959816823,0.0015249984794419,-1.665695291032e-08,1.7039002774455e-08,-0.0011047825952257,0.0011047829417569,3.0812369920161e-09,-2.806448390816e-09,-0.001196655981973,0.0011966470476236,-0.0011966579194781,0.001196645125858,-0.0011966447065142,0.0011966583004675,-0.0011966467412035,0.0011966562901986,-0.0011868007440209,0.0011868319562904,-0.0011868335600069,0.0011867991479475,0.74278651695632,125803,2834,0.0064572518569565,0.0064572518571694,0.0045943512544133,29.31137062149,-5.5090350280772e-06,-5.5090350280772e-06,-5.5090350280772e-06,2434743.3893123,0.017663916259822
33619200,0.9983174876427,0.017288489503888,0.0062285629927173,0.0062285629929023,0.0048313635182683,-0.0015556954314725,0.0015556954550523,1.7153636661057e-08,-1.712964155662e-08,1.9699645071718e-10,-1.7845040587436e-10,-0.001634907776968,0.0016349193577423,-0.001634919189787,0.0016349078879533,-0.0016349078666435,0.0016349192540388,-0.0016349193387844,0.0016349077614921,-0.0014197855496257,0.0014198190791185,-0.0014198191547288,0.0014197854096864,-2.170922140407e-10,2.9414758701036e-10,-2.933803174203e-09,3.0027368907175e-09,-0.0015556954092024,0.0015556954774234,-0.0016349146014016,0.0016349125066121,-0.0016349126180889,0.001634914492094,-0.0016349144003491,0.0016349127023,-0.0016349124632673,0.0016349146519367,-0.0014198050367494,0.0014197994997984,-0.0014197993045862,0.0014198053412964,-0.0015257815259954,0.001525783097101,-0.0015257810860829,0.001525783550282,-1.6779570382253e-08,1.7158244888514e-08,-0.0011053931742139,0.001105393517235,3.1007290174967e-09,-2.8296028779522e-09,-0.001197357085119,0.0011973480825179,-0.0011973590380477,0.0011973461450855,-0.0011973457307824,0.0011973594144169,-0.0011973477787575,0.0011973573907546,-0.0011874401839132,0.0011874716190609,-0.0011874732388404,0.0011874385704876,0.74303041285678,125803,2834,0.0064604830036411,0.0064604830038478,0.0045968872061783,29.612928525868,-3.0965717930594e-06,-3.0965717930594e-06,-3.0965717930594e-06,2428868.3782225,0.017673073887436
33819200,0.99839644955503,0.017289922278975,0.0062290819253029,0.006229081925488,0.0048317584281845,-0.0015564713173631,0.0015564713267098,1.7325943431145e-08,-1.7316158849763e-08,2.9492687589227e-10,-2.9153918897202e-10,-0.0016356635285277,0.0016356752773867,-0.0016356750537384,0.0016356636958392,-0.0016356636806941,0.0016356751108852,-0.0016356752798595,0.0016356634904276,-0.0014205727978638,0.0014206066132288,-0.0014206067742956,0.0014205725689695,-4.6748374222198e-11,1.0074770827331e-10,-2.8825683944441e-09,2.9298866517166e-09,-0.0015564712991029,0.0015564713453174,-0.0016356703709971,0.0016356684084219,-0.001635668422295,0.0016356703608226,-0.0016356702832318,0.0016356684907754,-0.0016356683941702,0.0016356703899553,-0.0014205924305369,0.0014205868920641,-0.0014205868382585,0.0014205925873609,-0.0015265594965657,0.0015265613824383,-0.0015265594309369,0.0015265614529147,-1.68256990933e-08,1.7194162642722e-08,-0.0011059983641866,0.0011059986966865,3.2217321372616e-09,-2.9624672689452e-09,-0.00119805275571,0.0011980437924462,-0.0011980547857089,0.0011980417778232,-0.0011980413660882,0.0011980551592661,-0.0011980435058128,0.0011980530424317,-0.0011880748200357,0.0011881062163947,-0.0011881079361232,0.0011880731126136,0.74517767943906,125803,2834,0.0064636936709744,0.0064636936716898,0.004599400717768,29.91657760913,-6.6737912695757e-07,-6.6737912695757e-07,-6.6737912695757e-07,2423970.8860703,0.017682167099053
34019200,0.99847299950492,0.017291271699551,0.0062295716260684,0.0062295716262536,0.0048321284472289,-0.0015572394656308,0.0015572394946027,1.7383259828874e-08,-1.7353950421786e-08,1.5428656729833e-10,-1.2977667811745e-10,-0.0016364123547256,0.0016364240596739,-0.0016364239167766,0.0016364124406642,-0.0016364124133955,0.001636423987181,-0.0016364240366405,0.0016364123439205,-0.0014213513271558,0.0014213853383299,-0.0014213853773537,0.0014213512216268,-1.3483391944573e-10,2.0082855810815e-10,-2.9895221495011e-09,3.0482978562878e-09,-0.0015572394512254,0.0015572395091408,-0.0016364192351608,0.0016364171526393,-0.0016364172167001,0.0016364191743131,-0.0016364190913071,0.0016364172906166,-0.0016364171204519,0.0016364192744464,-0.0014213711386237,0.0014213654355073,-0.0014213653068616,0.0014213713730973,-0.0015273277367778,0.0015273295060826,-0.0015273274681861,0.0015273297806753,-1.6998237953176e-08,1.7368516048639e-08,-0.0011065924526971,0.0011065927872782,3.1720181398835e-09,-2.9102097563525e-09,-0.0011987393615613,0.0011987302575377,-0.0011987413636007,0.0011987282693351,-0.0011987278622427,0.0011987417327062,-0.0011987299626757,0.0011987396580507,-0.001188697697852,0.0011887294899073,-0.0011887311708996,0.0011886960241844,0.72426543991901,125803,2834,0.0064668723405069,0.0064668723407788,0.0046018681892131,30.220312187128,1.7624974970251e-06,1.7624974970251e-06,1.7624974970251e-06,2419690.7501514,0.017691148444028
34219200,0.99854842253537,0.017292567097898,0.0062300425265403,0.0062300425267255,0.0048324820446317,-0.0015585615279991,0.0015585615604884,1.7499049484991e-08,-1.7466241605249e-08,1.2699097316e-10,-9.8664183641622e-11,-0.0016377247843636,0.0016377365495143,-0.0016377364227454,0.0016377248542653,-0.0016377248233247,0.0016377364971993,-0.00163773652352,0.0016377247766952,-0.0014226694812374,0.0014227037398112,-0.0014227037563375,0.0014226693983865,-9.8081505559684e-11,1.5891383257803e-10,-3.0341969584775e-09,3.0882532535786e-09,-0.0015585615177489,0.0015585615708706,-0.00163773169823,0.0016377296091798,-0.001637729652297,0.0016377316587689,-0.0016377315798227,0.0016377297215444,-0.0016377295821565,0.001637731732335,-0.0014226894724174,0.0014226836567107,-0.0014226835598134,0.0014226896762826,-0.0015286483969227,0.0015286502669446,-0.0015286482066003,0.0015286504633001,-1.7107678430939e-08,1.7472136347699e-08,-0.0011077604972717,0.0011077608259653,3.2185440266415e-09,-2.9631607667161e-09,-0.0011999751765432,0.0011999660276967,-0.0011999772116746,0.0011999640079177,-0.0011999636062554,0.0011999775753453,-0.0011999657390348,0.0011999754668711,-0.0011899080794882,0.0011899400404515,-0.0011899417597487,0.0011899063674228,0.70594347562796,125803,2834,0.0064723442940031,0.0064723442942737,0.0046067154780615,30.83116746293,6.6493397034413e-06,6.6493397034413e-06,6.6493397034413e-06,2419799.5684672,0.017707219420557
34419200,0.99862272620484,0.017293848312332,0.0062305081710839,0.0062305081712691,0.0048328319699791,-0.0015599193291727,0.0015599193635554,1.7614466657076e-08,-1.7579481966187e-08,1.1987767281938e-10,-8.9300421580478e-11,-0.0016390861312303,0.0016390979694937,-0.0016390978481538,0.0016390861986277,-0.0016390861669193,0.0016390979264328,-0.0016390979449226,0.0016390861259641,-0.001424010764167,0.0014240452507041,-0.0014240452592205,0.0014240106852322,-6.9881572165939e-11,1.3507417700618e-10,-3.0674850718059e-09,3.1255896586167e-09,-0.0015599193190438,0.0015599193745577,-0.0016390930849648,0.0016390909893629,-0.0016390910190421,0.0016390930666287,-0.0016390929864064,0.0016390910886411,-0.0016390909631346,0.001639093117878,-0.0014240309144194,0.0014240250145142,-0.0014240249302802,0.0014240311024082,-0.00153000186057,0.001530003807279,-0.0015300017226068,0.0015300039586653,-1.7216939826719e-08,1.7575752690761e-08,-0.0011089962457129,0.0011089965686882,3.2607684587545e-09,-3.0119632755278e-09,-0.0012012539321113,0.0012012447384176,-0.0012012560010183,0.0012012426922201,-0.0012012422938305,0.0012012563584951,-0.0012012444569371,0.0012012542176275,-0.0011911858809989,0.0011912180138537,-0.0011912197737353,0.0011911841358888,0.70867957381644,125803,2834,0.0064779645163931,0.0064779645181972,0.0046118425544006,31.474887705023,1.1799101640185e-05,1.1799101640185e-05,1.1799101640185e-05,2423031.2246041,0.017723877147705
34619200,0.99869577669339,0.017295157564431,0.0062309828865637,0.0062309828867487,0.0048331917911186,-0.0015612845021953,0.0015612845356334,1.7727042992123e-08,-1.7693324409379e-08,1.2066263578048e-10,-9.1276645267024e-11,-0.0016404533010957,0.0016404652141313,-0.0016404650909904,0.0016404533673557,-0.0016404533353997,0.0016404651667145,-0.0016404651874646,0.0016404532941116,-0.0014253616183836,0.0014253963284944,-0.0014253963393436,0.0014253615403339,-6.4680773105604e-11,1.2083580653998e-10,-3.101527092885e-09,3.151307378572e-09,-0.0015612844946227,0.0015612845433803,-0.00164046030087,0.0016404581875873,-0.0016404582119139,0.0016404602811616,-0.0016404602060059,0.0016404582765435,-0.0016404581653522,0.0016404603304259,-0.0014253819130238,0.0014253759420457,-0.0014253758731728,0.0014253820888665,-0.0015313644199009,0.0015313663995966,-0.0015313642997916,0.0015313665245489,-1.7326494530424e-08,1.7681131337986e-08,-0.0011102382891767,0.0011102386079761,3.2963916795006e-09,-3.0518582630446e-09,-0.0012025411514616,0.0012025319056851,-0.0012025432420366,0.0012025298306583,-0.001202529438448,0.0012025435961924,-0.0012025316269187,0.0012025414318177,-0.0011924706915506,0.0011925030052421,-0.0011925047900776,0.0011924689142466,0.73613737550015,125803,2834,0.0064836151942456,0.0064836151946026,0.0046169958494699,32.119575591898,1.6956604735181e-05,1.6956604735181e-05,1.6956604735181e-05,2425523.1095202,0.017740623816342
34819200,0.99876856157638,0.017296473234894,0.0062314597700324,0.0062314597702174,0.0048335536946444,-0.0015632426817188,0.0015632427190316,1.7880829949272e-08,-1.7843226437857e-08,9.0976715429675e-11,-5.7416944069418e-11,-0.0016423947804796,0.0016424067735849,-0.0016424066675422,0.0016423948293017,-0.0016423947893993,0.0016424067512679,-0.0016424067470595,0.0016423947730603,-0.0014273212417321,0.00142735628701,-0.0014273562722376,0.0014273211879747,-7.1238855231285e-11,1.2831279654115e-10,-3.1485631296535e-09,3.1992121779772e-09,-0.0015632426756479,0.0015632427252579,-0.0016424018399691,0.0016423996871709,-0.0016423997153492,0.0016424018164086,-0.0016424017361999,0.0016423997848511,-0.0016423996683786,0.0016424018663684,-0.0014273417415098,0.0014273356957036,-0.0014273356207411,0.0014273419228371,-0.0015333227128732,0.0015333247236296,-0.0015333225915671,0.0015333248504351,-1.7397458497066e-08,1.7747917355896e-08,-0.0011120100067514,0.0011120103211927,3.3268527516747e-09,-3.0869606540363e-09,-0.0012044044137906,0.0012043951356988,-0.0012044065218544,0.0012043930426079,-0.0012043926508457,0.0012044068759202,-0.0012043948653132,0.0012044046854909,-0.0011942974497651,0.0011943298586102,-0.0011943316703866,0.0011942956456071,0.74236046084418,125803,2834,0.006491720003873,0.0064917200041913,0.0046243479160874,33.049626763186,2.4397014105488e-05,2.4397014105488e-05,2.4397014105488e-05,2424279.6780066,0.017764604215995
35019200,0.99884123386911,0.01729774905924,0.0062319231578014,0.0062319231579865,0.004833902743452,-0.0015654045894726,0.0015654046326814,1.8097531699653e-08,-1.8054414493619e-08,4.0127300785564e-11,-3.1442386515498e-13,-0.0016445388607847,0.0016445509554278,-0.0016445508792221,0.0016445388778662,-0.0016445388220089,0.0016445509758348,-0.0016445509297168,0.001644538850133,-0.0014294851262575,0.0014295206608202,-0.0014295206066847,0.0014294851176991,-1.2407191092358e-10,1.8150518126423e-10,-3.2066599947028e-09,3.2573094463331e-09,-0.0015654045850734,0.0015654046364585,-0.0016445460106887,0.0016445437781061,-0.0016445438359751,0.001644545952271,-0.0016445458594536,0.0016445439174572,-0.0016445437644774,0.001644546033953,-0.0014295058930447,0.0014294997958436,-0.0014294996882492,0.0014295061118479,-0.0015354812741334,0.0015354832501514,-0.001535481073444,0.0015354834459762,-1.7404468721892e-08,1.7754420981861e-08,-0.0011139649832174,0.0011139652971204,3.3304557796378e-09,-3.090814784684e-09,-0.0012064671983368,0.0012064579073836,-0.001206469295444,0.0012064558169107,-0.0012064554185527,0.0012064696586934,-0.0012064576454626,0.0012064674597968,-0.0011963108394926,0.0011963432343017,-0.001196345044062,0.0011963090307736,0.72136486947812,125803,2834,0.0065006678609748,0.0065006678596847,0.0046324605585457,34.081416326603,3.2651330612826e-05,3.2651330612826e-05,3.2651330612826e-05,2423023.8195081,0.017791075549899
35219200,0.99891351681784,0.017298983631237,0.006232372414191,0.0062323724143766,0.0048342388026697,-0.0015675361690703,0.0015675361893265,1.7745753685759e-08,-1.7725188505952e-08,2.1310116843499e-10,-1.9788418459752e-10,-0.0016466665365708,0.0016466785415158,-0.0016466783649986,0.0016466666555657,-0.0016466666613282,0.0016466784020292,-0.0016466785017507,0.0016466665406142,-0.0014316046814037,0.0014316392870037,-0.0014316393778519,0.001431604522756,2.8152254085609e-11,1.3687128609229e-11,-3.1495883547616e-09,3.1859649888573e-09,-0.0015675361614908,0.0015675361969483,-0.0016466735564974,0.0016466714947627,-0.0016466714652023,0.0016466735897195,-0.0016466735521818,0.0016466714911006,-0.0016466714599933,0.0016466735977078,-0.0014316250408672,0.0014316188353725,-0.0014316188468098,0.0014316251351917,-0.0015376060175467,0.0015376081351406,-0.00153760601956,0.0015376081338008,-1.7972067916285e-08,1.8312621108819e-08,-0.0011159244220752,0.0011159247265451,3.4273900092754e-09,-3.1986008942958e-09,-0.0012085059159733,0.0012084963474661,-0.0012085081238305,0.001208494154404,-0.001208493801739,0.0012085084388962,-0.0012084960570366,0.0012085062064747,-0.0011983290855405,0.0011983626152374,-0.0011983645078474,0.0011983272023345,0.70214228009268,125803,2834,0.006509490408111,0.0065094904081964,0.0046405905386113,35.115955458926,4.0927643671409e-05,4.0927643671409e-05,4.0927643671409e-05,2425418.4328146,0.017817310034567
35419200,0.99898428022297,0.017300156235894,0.0062328000018875,0.0062328000020732,0.0048345562319333,-0.0015692056210056,0.0015692056504076,1.8201637136597e-08,-1.8172144421932e-08,1.4304246138629e-10,-1.1846730678745e-10,-0.0016483460058528,0.0016483582508209,-0.0016483581115774,0.0016483460848318,-0.0016483460521988,0.0016483581858584,-0.0016483582288483,0.0016483459914005,-0.0014332492743793,0.0014332849152996,-0.0014332849468106,0.0014332491848839,-1.3988108237601e-10,1.9725618112072e-10,-3.1916895971881e-09,3.2432337804343e-09,-0.0015692056094108,0.0015692056615403,-0.0016483532245627,0.0016483510044807,-0.0016483510686615,0.0016483531592897,-0.0016483530750955,0.0016483511427117,-0.0016483509796995,0.0016483532586353,-0.0014332700865213,0.0014332640023938,-0.001433263886173,0.0014332703257111,-0.0015392659841025,0.0015392678870385,-0.0015392657264243,0.00153926814996,-1.7735886971807e-08,1.8083487566103e-08,-0.0011174715827504,0.0011174718942386,3.3516466117577e-09,-3.1145456236597e-09,-0.0012100983864918,0.0012100888966753,-0.001210100510892,0.0012100867822765,-0.0012100863960485,0.0012101008612057,-0.0012100886280819,0.0012100986555006,-0.0011999252340519,0.0011999582875503,-0.0011999601111827,0.001199923407688,0.68162296318653,125803,2834,0.0065164004718148,0.0065164004708572,0.004647009128695,35.928521894668,4.7428175157344e-05,4.7428175157344e-05,4.7428175157344e-05,2430102.2823736,0.017837909951251
35619200,0.9990527227427,0.017301249084499,0.0062331994899977,0.0062331994901837,0.004834850104318,-0.0015705135760891,0.0015705135934431,1.8176486527872e-08,-1.8158622335788e-08,2.4085433418307e-10,-2.2895779496712e-10,-0.0016496762966412,0.0016496885935538,-0.001649688400128,0.0016496764323729,-0.001649676423805,0.0016496884512074,-0.0016496885736027,0.0016496762811964,-0.0014345209549486,0.0014345564364943,-0.0014345565477239,0.0014345207771366,-1.6307500193534e-10,2.3231176513396e-10,-3.1254195771787e-09,3.1873003878595e-09,-0.0015705135543449,0.0015705136153136,-0.0016496835224211,0.0016496813400484,-0.0016496814209887,0.0016496834449578,-0.0016496833661294,0.0016496814900745,-0.0016496812977478,0.0016496835728973,-0.0014345416347114,0.0014345356641144,-0.001434535513206,0.001434541894643,-0.0015405641090905,0.0015405658894888,-0.0015405637599387,0.0015405662477029,-1.7975726058287e-08,1.832578786876e-08,-0.001118709013549,0.0011187093276967,3.3359094506128e-09,-3.0964421730267e-09,-0.0012113431711171,0.0012113335256402,-0.0012113452974562,0.001211331414259,-0.0012113310349181,0.0012113456388861,-0.0012113332429721,0.0012113434547988,-0.0012012042676915,0.0012012378391657,-0.0012012396561382,0.0012012024569551,0.65729898125507,125803,2834,0.006521814574721,0.0065218145749806,0.0046521416610527,36.573219747019,5.2585757976155e-05,5.2585757976155e-05,5.2585757976155e-05,2436954.8115313,0.017854155716528
35819200,0.99911873071354,0.017302366572096,0.0062336062988755,0.0062336062990613,0.0048351539741596,-0.0015717761008025,0.00157177611445,1.8355556233827e-08,-1.8341409202833e-08,2.6778945962759e-10,-2.5991945940364e-10,-0.0016509722167057,0.0016509846435434,-0.0016509844347198,0.0016509723681911,-0.0016509723564904,0.0016509844885566,-0.001650984633873,0.0016509721910566,-0.0014357358750508,0.0014357717083894,-0.0014357718436131,0.001435735673908,-2.3277866953614e-10,3.1191995693891e-10,-3.0891645160458e-09,3.1599425337629e-09,-0.0015717760725642,0.001571776142746,-0.0016509795200609,0.0016509773119743,-0.001650977433392,0.001650979402617,-0.001650979308239,0.0016509775186645,-0.0016509772672882,0.0016509795735124,-0.0014357566612473,0.0014357508297263,-0.0014357506209879,0.0014357569781982,-0.0015418203171301,0.0015418219604197,-0.0015418198405666,0.0015418224436594,-1.801186887237e-08,1.8368429534733e-08,-0.0011199509403046,0.0011199512610132,3.2809670137099e-09,-3.0343167010137e-09,-0.0012125523109261,0.0012125425997751,-0.0012125543914937,0.0012125405336727,-0.0012125401412206,0.0012125547459008,-0.0012125423174734,0.0012125525945684,-0.0012024904696545,0.0012025241437622,-0.0012025259156408,0.0012024887052729,0.69619234115604,125803,2834,0.0065270411384322,0.0065270411385493,0.0046572915487992,37.213461694936,5.770769355949e-05,5.770769355949e-05,5.770769355949e-05,2446522.8162794,0.017870037326325
36019200,0.99918221905457,0.017303503622781,0.0062340187763817,0.0062340187765676,0.0048354660698316,-0.0015731054770266,0.001573105485448,1.8458444509897e-08,-1.8449456312656e-08,3.0733504712527e-10,-3.0513175372849e-10,-0.0016523099685034,0.0016523224891038,-0.0016523222574026,0.0016523101429911,-0.0016523101367022,0.001652322305468,-0.0016523224840649,0.0016523099379771,-0.001437044128138,0.0014370801335357,-0.0014370803020532,0.0014370438937143,-2.7090214447838e-10,3.5557515346645e-10,-3.0405425009745e-09,3.1163667140405e-09,-0.0015731054436296,0.0015731055188966,-0.0016523173142616,0.0016523151150654,-0.0016523152584497,0.0016523171745388,-0.001652317075916,0.0016523153486452,-0.0016523150649232,0.001652317373104,-0.001437064939932,0.0014370592296452,-0.0014370589883955,0.0014370652886772,-0.0015431482753284,0.0015431498115119,-0.0015431477173318,0.0015431503767661,-1.8124404957955e-08,1.8486496143527e-08,-0.0011211940282889,0.001121194354602,3.2388404219939e-09,-2.9861148806014e-09,-0.0012138221718676,0.001213812359739,-0.0012138242228065,0.0012138103233615,-0.0012138099257306,0.0012138245822771,-0.0012138120714617,0.0012138224614941,-0.0012037775988641,0.0012038115355299,-0.0012038132719543,0.0012037758703087,0.73586308803692,125803,2834,0.0065325435680516,0.0065325435681559,0.0046624486185373,37.853521280708,6.2828170245662e-05,6.2828170245662e-05,6.2828170245662e-05,2448650.9321129,0.017886488377144
36219200,0.99924105529075,0.017304524867273,0.0062343900527951,0.006234390052981,0.0048357447614971,-0.0015732015691494,0.0015732015682522,1.8555919656804e-08,-1.8556180559833e-08,3.7928222460015e-10,-3.8720831322829e-10,-0.001652399742957,0.0016524123737144,-0.001652412100076,0.0016523999595421,-0.0016523999624111,0.0016524121381341,-0.0016524123771623,0.0016523997034833,-0.00143714102499,0.0014371771689401,-0.0014371773977184,0.0014371407307729,-3.4948825907947e-10,4.4455921277282e-10,-2.9534940774981e-09,3.0388623748331e-09,-0.0015732015262155,0.0015732016112175,-0.0016524071390959,0.0016524049491999,-0.0016524051377793,0.001652406953152,-0.0016524068457751,0.001652405237972,-0.0016524048888446,0.0016524072082032,-0.001437161793675,0.0014371563090525,-0.0014371560016793,0.0014371622070946,-0.0015432410471844,0.0015432423720893,-0.0015432403231053,0.001543243103484,-1.8237633255271e-08,1.861064681475e-08,-0.001121173321388,0.0011211736587561,3.1525571393596e-09,-2.8877499563911e-09,-0.0012138716266498,0.0012138616849195,-0.0012138736163727,0.0012138597097442,-0.0012138593015496,0.001213873986304,-0.0012138613853139,0.0012138719275835,-0.0012037717225138,0.0012038059652837,-0.0012038076289868,0.0012037700663787,0.71361054099514,125803,2834,0.0065329403220402,0.006532940322103,0.0046623654027152,37.827170072819,6.261736058255e-05,6.261736058255e-05,6.261736058255e-05,2443341.5734751,0.017887211926004
36419200,0.99929473233148,0.017305444322593,0.0062347245955087,0.0062347245956946,0.00483599513139,-0.0015726539020668,0.0015726538907938,1.8677849131883e-08,-1.868831473099e-08,4.6127551934952e-10,-4.8023786741574e-10,-0.0016518564071536,0.0016518691695222,-0.001651868850006,0.0016518566711339,-0.0016518566842322,0.0016518688778546,-0.0016518691842033,0.0016518563567783,-0.0014365851046579,0.0014366214270807,-0.0014366217250658,0.0014365847369138,-3.9367645963086e-10,5.0032402613136e-10,-2.8430722283477e-09,2.9384506794885e-09,-0.0015726538494504,0.0015726539437496,-0.00165186384729,0.0016518617006081,-0.0016518619170257,0.001651863636153,-0.001651863521422,0.0016518620255374,-0.0016518616328015,0.0016518639229232,-0.0014366058409076,0.0014366006037944,-0.0014366002515677,0.0014366062906572,-0.0015426908320449,0.0015426920018285,-0.0015426900109888,0.0015426928312287,-1.832787314311e-08,1.8707387712323e-08,-0.0011205904312843,0.0011205907752791,3.0726238363958e-09,-2.8004469319229e-09,-0.0012133058448613,0.0012132957918875,-0.0012133077793612,0.0012132938734093,-0.0012132934576399,0.0012133081557202,-0.0012132954860862,0.0012133061523109,-0.0012031958910279,0.0012032303758199,-0.0012032319825316,0.0012031942993394,0.7043401896388,125803,2834,0.0065306729627305,0.0065306729634297,0.0046599486568585,37.497028624746,5.9976228997964e-05,5.9976228997964e-05,5.9976228997964e-05,2439861.9609163,0.017880136303369
36619200,0.9993437429644,0.017306238307141,0.0062350145080644,0.0062350145082503,0.0048362092908262,-0.0015720624611632,0.0015720624520151,1.8769091135796e-08,-1.8777472528986e-08,4.4384719118474e-10,-4.6072109116927e-10,-0.0016512726582429,0.0016512854700044,-0.0016512851592227,0.0016512729127291,-0.0016512729217711,0.0016512851905297,-0.0016512854834215,0.0016512726088432,-0.0014359806907074,0.0014360172107289,-0.0014360174938251,0.0014359803419911,-4.6007824980763e-10,5.7221112909704e-10,-2.7883227199207e-09,2.8892458728638e-09,-0.0015720624063995,0.0015720625068903,-0.001651280125584,0.0016512779743006,-0.0016512782268451,0.001651279875269,-0.0016512797523306,0.0016512783448263,-0.0016512779005543,0.001651280207679,-0.001436001444844,0.0014359963678274,-0.0014359959645229,0.0014360019507593,-0.0015420977054059,0.0015420987129312,-0.0015420967532275,0.0015420996751375,-1.8454222167456e-08,1.884186709907e-08,-0.0011199906476556,0.0011199909998951,2.9791791382914e-09,-2.697518816229e-09,-0.0012127020991959,0.001212691900165,-0.0012127039663055,0.0012126900479787,-0.00121268962332,0.0012127043523125,-0.0012126915879157,0.0012127024131469,-0.0012026014926889,0.0012026363040788,-0.0012026378327124,0.0012025999729214,0.66675279833763,125803,2834,0.0065282247144915,0.0065282247147191,0.0046574611264924,37.158704089652,5.7269632717214e-05,5.7269632717214e-05,5.7269632717214e-05,2437757.012409,0.017872620261346
36819200,0.99938854861142,0.017306945161396,0.0062352729878351,0.006235272988021,0.0048363991855402,-0.0015714047474682,0.0015714047359345,1.889582812601e-08,-1.8906598163169e-08,4.5824484222874e-10,-4.7766722488828e-10,-0.001650644067008,0.0016506569729015,-0.0016506566542168,0.0016506443295186,-0.0016506443415998,0.0016506566822869,-0.0016506569878498,0.0016506440159013,-0.0014352885468221,0.0014353253026423,-0.0014353255984205,0.0014352881851741,-4.2712728149592e-10,5.3483724582491e-10,-2.7215022345467e-09,2.8183388175808e-09,-0.001571404693553,0.0015714047899506,-0.0016506515487463,0.0016506494632294,-0.0016506496962339,0.0016506513173599,-0.0016506511993833,0.0016506498095588,-0.0016506493923173,0.0016506516270951,-0.0014353093663704,0.0014353043948483,-0.0014353040183508,0.0014353098441397,-0.0015414366579835,0.0015414376823251,-0.0015414357724205,0.0015414385770618,-1.8545265050153e-08,1.8935811483957e-08,-0.0011193976744592,0.0011193980296747,2.9421577726327e-09,-2.657049743457e-09,-0.0012120467224008,0.0012120364394775,-0.0012120485644077,0.0012120346123928,-0.0012120341855883,0.0012120489525734,-0.0012120361234343,0.001212047039881,-0.0012020123095485,0.0012020473327708,-0.0012020488329044,0.0012020108187119,0.64957832649016,125803,2834,0.0065255029193168,0.0065255029195227,0.0046549996654187,36.820043506842,5.4560348054733e-05,5.4560348054733e-05,5.4560348054733e-05,2441517.0888375,0.017864573640756
37019200,0.99943072589938,0.017307652296258,0.0062355304073165,0.0062355304075023,0.0048365914814387,-0.0015717612564805,0.0015717612581166,1.9009915602363e-08,-1.9007639565482e-08,3.5678086382481e-10,-3.6191724920588e-10,-0.0016510326014712,0.0016510455201127,-0.0016510452604144,0.0016510328049817,-0.001651032804403,0.0016510453020174,-0.0016510455225764,0.0016510325636969,-0.0014356014172039,0.0014356384690589,-0.0014356386797727,0.0014356011406158,-3.3338030557815e-10,4.2799509817003e-10,-2.7506907244939e-09,2.8356089657984e-09,-0.0015717612151879,0.001571761299517,-0.0016510400703338,0.0016510380239888,-0.001651038202463,0.0016510398937313,-0.0016510397871403,0.0016510383034946,-0.0016510379648177,0.001651040136369,-0.001435622446502,0.0014356173512258,-0.0014356170533526,0.0014356228459763,-0.0015417960449173,0.0015417972697091,-0.0015417953562524,0.0015417979662784,-1.8659155235014e-08,1.9048161552563e-08,-0.001119791633688,0.001119791987347,2.9594150607249e-09,-2.6760551881708e-09,-0.0012123708652614,0.0012123605174733,-0.0012123727192786,0.0012123586783556,-0.0012123582530908,0.0012123731061162,-0.0012123602030802,0.001212371181163,-0.0012024320011507,0.0012024672318666,-0.0012024687453412,0.0012024304963442,0.6896181454986,125803,2834,0.0065269795510629,0.0065269795512831,0.0046566315743809,37.015827245319,5.6126617962554e-05,5.6126617962554e-05,5.6126617962554e-05,2450318.2568561,0.017869240216028
37219200,0.99947066923036,0.017308365407466,0.0062357889926883,0.0062357889928741,0.004836787421904,-0.0015724472633658,0.0015724472809075,1.9123959716393e-08,-1.9105940554043e-08,2.3678711443384e-10,-2.2467487686615e-10,-0.0016517277774104,0.0016517406978168,-0.0016517405076988,0.0016517279112199,-0.0016517278958201,0.0016517405649348,-0.0016517406843521,0.0016517277561913,-0.0014362682440546,0.0014363056034091,-0.0014363057135339,0.001436268068531,-2.4200629969719e-10,3.2337306011352e-10,-2.8116018966981e-09,2.8843196061556e-09,-0.0015724472361299,0.0015724473082306,-0.0016517352387827,0.0016517332095391,-0.0016517333353541,0.0016517351153898,-0.001651735020762,0.0016517334232917,-0.0016517331617541,0.0016517352931762,-0.0014362895197629,0.0014362842382598,-0.0014362840183446,0.0014362898425959,-0.0015424859412059,0.0015424873821165,-0.0015424854437498,0.0015424878864103,-1.8775679218543e-08,1.9160802995209e-08,-0.0011204261549684,0.0011204265046723,3.0029228862818e-09,-2.7240361155233e-09,-0.0012130098416164,0.0012129994445973,-0.0012130117263101,0.0012129975740973,-0.0012129971535162,0.0012130121090039,-0.0012129991335664,0.0012130101540567,-0.0012030930043739,0.001203128426523,-0.0012031299738513,0.0012030914650322,0.73362542107729,125803,2834,0.0065298191247035,0.0065298191248806,0.0046592639330931,37.342250930437,5.8738007443498e-05,5.8738007443498e-05,5.8738007443498e-05,2452561.5750254,0.01787770024691
37419200,0.99950845359436,0.017308996016704,0.0062360186993671,0.006236018699553,0.0048369586177844,-0.0015732067160435,0.0015732067443648,1.9243128770919e-08,-1.9214427201262e-08,1.544313611691e-10,-1.306172124397e-10,-0.0016524717726781,0.001652484720739,-0.001652484578449,0.0016524718584867,-0.0016524718326354,0.0016524846471016,-0.0016524846973738,0.0016524717621518,-0.0014370339716163,0.0014370716242796,-0.0014370716646383,0.0014370338652592,-1.4399342486442e-10,2.1166698957676e-10,-2.8717543980752e-09,2.9320749112344e-09,-0.0015732067005126,0.0015732067599912,-0.0016524792377591,0.001652477229373,-0.0016524772983635,0.0016524791715917,-0.0016524790885426,0.0016524773734548,-0.0016524771942406,0.0016524792791054,-0.0014370554871513,0.0014370500190323,-0.001437049881087,0.0014370557284243,-0.0015432485128346,0.0015432501831235,-0.0015432482215194,0.0015432504794573,-1.8885106615095e-08,1.9265234367667e-08,-0.0011210520882709,0.0011210524328804,3.0584950374069e-09,-2.7853608728046e-09,-0.0012137099327328,0.0012136994979841,-0.0012137118562126,0.0012136975890685,-0.001213697173145,0.0012137122342511,-0.0012136991923027,0.0012137102399369,-0.0012037418258232,0.001203777412125,-0.001203779003384,0.0012037402420378,0.68665558014007,125803,2834,0.0065329617719995,0.006532961772194,0.0046618631138687,37.672285399325,6.1378283194601e-05,6.1378283194601e-05,6.1378283194601e-05,2447944.7576976,0.017886744006324
37619200,0.99954414706617,0.017309571909576,0.0062362289478603,0.0062362289480462,0.0048371140136694,-0.0015738814385477,0.0015738814761071,1.9360968773753e-08,-1.9323154424602e-08,8.5313120683901e-11,-5.1471939685221e-11,-0.0016531585160815,0.0016531714994291,-0.0016531713970662,0.0016531585618048,-0.0016531585268819,0.0016531714754722,-0.0016531714674652,0.0016531585146669,-0.0014376873257454,0.0014377252594067,-0.0014377252415201,0.0014376872775364,-6.4185255125691e-11,1.2016026054544e-10,-2.9323197461061e-09,2.9819523897874e-09,-0.0015738814330386,0.0015738814817354,-0.0016531659942832,0.0016531639952006,-0.0016531640181844,0.0016531659745673,-0.0016531659012924,0.0016531640823586,-0.0016531639708648,0.0016531660246167,-0.001437709068931,0.0014377034257282,-0.0014377033558012,0.0014377092429581,-0.0015439215865478,0.0015439234517179,-0.0015439214639027,0.0015439235779667,-1.8994668478418e-08,1.9370612664138e-08,-0.0011216924507349,0.0011216927910975,3.1147504162702e-09,-2.8465064980609e-09,-0.00121434941422,0.0012143389425591,-0.0012143513765454,0.0012143369947606,-0.0012143365827885,0.0012143517507992,-0.0012143386413029,0.0012143497170022,-0.0012044060407188,0.0012044417932278,-0.0012044434275476,0.0012044044132996,0.664152848869,125803,2834,0.0065357546906967,0.0065357546909402,0.0046645192936279,38.002468842949,6.4019750743596e-05,6.4019750743596e-05,6.4019750743596e-05,2450514.6900349,0.01789513352738
37819200,0.9995769118843,0.017310081110804,0.006236415305443,0.0062364153056289,0.0048372504997322,-0.001573494953236,0.0015734949895201,1.9462477141565e-08,-1.9425896136855e-08,9.7606947527694e-11,-6.5188140017658e-11,-0.0016528023394985,0.0016528153988015,-0.0016528152889938,0.0016528023926229,-0.0016528023592613,0.0016528153657507,-0.0016528153677259,0.0016528023370961,-0.0014372678594119,0.0014373059822325,-0.0014373059743531,0.0014372678013679,-9.5135747727034e-11,1.55297107903e-10,-2.9506603153035e-09,3.003977645931e-09,-0.0015734949452024,0.0015734949976731,-0.00165280987112,0.0016528078408556,-0.0016528078820795,0.0016528098333359,-0.0016528097567282,0.0016528079496806,-0.0016528078126888,0.0016528099057197,-0.0014372897041617,0.0014372840458687,-0.0014372839506236,0.0014372899038362,-0.0015435293616787,0.0015435311781615,-0.0015435291732457,0.001543531371032,-1.9113516761881e-08,1.9488748271941e-08,-0.0011213574666685,0.0011213578063042,3.124202039809e-09,-2.8568115433509e-09,-0.001213965639073,0.0012139550947197,-0.0012139676083865,0.0012139531400268,-0.0012139527290139,0.0012139679815693,-0.0012139547938883,0.0012139659415656,-0.0012040716760048,0.0012041076540653,-0.0012041092957321,0.0012040700412355,0.64016140321055,125803,2834,0.0065341554915981,0.0065341554918427,0.0046631282297878,37.80457903757,6.2436632300559e-05,6.2436632300559e-05,6.2436632300559e-05,2454493.0658034,0.017890461865935
38019200,0.99960693936298,0.017310566724847,0.0062365924799199,0.0062365924801058,0.0048373817648208,-0.0015729759640401,0.001572975992127,1.9588678072566e-08,-1.9560215671191e-08,1.6168431294934e-10,-1.3812632174745e-10,-0.0016523222856054,0.0016523354676934,-0.0016523353207711,0.0016523223758123,-0.0016523223493334,0.0016523353901484,-0.001652335445401,0.0016523222738202,-0.0014367059823456,0.0014367443096984,-0.0014367443550483,0.0014367058710257,-1.2254620129767e-10,1.8635844690368e-10,-2.9489489018785e-09,3.0056841014543e-09,-0.001572975950202,0.0015729760060803,-0.0016523298871374,0.0016523278394802,-0.0016523278970123,0.0016523298330774,-0.0016523297522243,0.0016523279690369,-0.0016523278090197,0.0016523299242087,-0.0014367279166894,0.0014367222844176,-0.0014367221661206,0.0014367281398004,-0.0015430091622637,0.00154301092774,-0.001543008919298,0.0015430111749612,-1.920469880996e-08,1.9578268762034e-08,-0.0011209458615241,0.0011209461995259,3.1434656013829e-09,-2.8779795857019e-09,-0.0012134612498235,0.0012134506557871,-0.0012134632314663,0.0012134486886748,-0.0012134482782587,0.001213463604002,-0.0012134503573777,0.0012134615496241,-0.0012036630363097,0.0012036991735387,-0.0012037008303872,0.0012036613869155,0.66569812595989,125803,2834,0.0065320083272917,0.0065320083275273,0.0046614180784844,37.560458682638,6.0483669461102e-05,6.0483669461102e-05,6.0483669461102e-05,2460907.9787015,0.017884349520067
38219200,0.9996344820348,0.017311015561335,0.0062367561181242,0.0062367561183101,0.0048375033249005,-0.0015724993145605,0.0015724993370715,1.968777188073e-08,-1.9664831849003e-08,2.0412379486407e-10,-1.8663857890776e-10,-0.0016518665172801,0.0016518797927692,-0.0016518796209803,0.0016518666323474,-0.0016518666116091,0.0016518796843233,-0.0016518797754398,0.0016518665002531,-0.0014362049226779,0.0014362434127539,-0.0014362434939722,0.0014362047753635,-1.812655321683e-10,2.5340014564634e-10,-2.9586397420486e-09,3.0229848910043e-09,-0.001572499294094,0.0015724993576511,-0.0016518741864806,0.0016518720964177,-0.001651872187973,0.0016518740985679,-0.0016518740106984,0.0016518722673734,-0.0016518720582837,0.0016518742318406,-0.0014362269277472,0.0014362213169701,-0.001436221149592,0.001436227199823,-0.0015425341324126,0.0015425357898845,-0.00154253376498,0.0015425361625295,-1.9323556497516e-08,1.9696887269909e-08,-0.0011205346722313,0.0011205350099513,3.1478403103231e-09,-2.8826698126356e-09,-0.0012129986413994,0.0012129879716074,-0.0012130006266143,0.001212986001062,-0.0012129855912438,0.0012130009984019,-0.0012129876731505,0.001212998941371,-0.0012032536241183,0.0012032899912407,-0.0012032916517027,0.0012032519714162,0.67076170475948,125803,2834,0.0065300358364191,0.0065300358366499,0.0046597113520803,37.314928873222,5.8519430985778e-05,5.8519430985778e-05,5.8519430985778e-05,2461767.661491,0.0178785964934
38419200,0.99965993800165,0.017311456700694,0.0062369162873356,0.0062369162875215,0.0048376241258366,-0.0015722804751532,0.0015722804929607,1.9797800034328e-08,-1.977947708867e-08,2.4044901127129e-10,-2.280696613931e-10,-0.0016516622944499,0.0016516756659423,-0.0016516754729491,0.0016516624308421,-0.0016516624146975,0.0016516755321268,-0.0016516756538251,0.0016516622726402,-0.0014359669404792,0.0014360056208421,-0.0014360057320368,0.0014359667631684,-2.1095636689839e-10,2.8808705230926e-10,-2.9720024355976e-09,3.0410770452904e-09,-0.0015722804500749,0.0015722805181993,-0.0016516700253903,0.0016516679077829,-0.0016516680164329,0.0016516699209337,-0.0016516698284242,0.0016516681005545,-0.0016516678657609,0.0016516700749878,-0.0014359890429022,0.001435983427972,-0.0014359832347611,0.0014359893414538,-0.0015423193191586,0.0015423209280198,-0.0015423188889736,0.0015423213644772,-1.9432643625427e-08,1.9804453732592e-08,-0.0011203585930546,0.0011203589292538,3.1651461450425e-09,-2.9017386166078e-09,-0.0012127846397914,0.0012127739083039,-0.0012127866375802,0.0012127719266384,-0.0012127715176089,0.0012127870078684,-0.0012127736119021,0.0012127849383496,-0.0012030840320449,0.0012031205973761,-0.0012031222713535,0.0012030823659135,0.71253731113212,125803,2834,0.00652913033992,0.0065291303402487,0.0046589803297336,37.196918192582,5.7575345540653e-05,5.7575345540653e-05,5.7575345540653e-05,2462063.3156778,0.017876008796439
38619200,0.99968361751667,0.017311869232854,0.0062370660315755,0.0062370660317613,0.0048377371695174,-0.0015723528716106,0.0015723528897349,1.9899805736947e-08,-1.9881191092083e-08,2.3821636277128e-10,-2.2550856663279e-10,-0.0016517231705932,0.0016517366096387,-0.0016517364178606,0.0016517233055938,-0.0016517232897371,0.0016517364762001,-0.0016517365959001,0.0016517231497813,-0.0014360461777441,0.0014360850570795,-0.0014360851668547,0.0014360460022203,-2.4149410028571e-10,3.2229033971321e-10,-2.9986878196563e-09,3.0709895458075e-09,-0.0015723528449428,0.0015723529165167,-0.0016517309529473,0.0016517287995165,-0.001651728926131,0.0016517308304744,-0.0016517307353699,0.0016517290129266,-0.0016517287532658,0.0016517310073303,-0.0014360683960136,0.001436062747872,-0.0014360625302063,0.0014360687195668,-0.0015423974649969,0.0015423990311353,-0.0015423969692512,0.0015423995334029,-1.9551938281549e-08,1.9922875274012e-08,-0.0011203837552322,0.0011203840905124,3.179128786353e-09,-2.9167820224787e-09,-0.0012128427549319,0.0012128319538229,-0.0012128447627373,0.001212829960954,-0.0012128295540589,0.0012128451314366,-0.001212831657239,0.0012128430532604,-0.0012031176236878,0.0012031544133428,-0.0012031560977807,0.0012031159468784,0.71625964891179,125803,2834,0.0065294294526354,0.0065294294528681,0.0046590865421576,37.193744633623,5.7549957068981e-05,5.7549957068981e-05,5.7549957068981e-05,2456071.3808654,0.0178767259681
38819200,0.99970564828673,0.017312254268771,0.0062372057801551,0.006237205780341,0.0048378427082746,-0.0015724315250737,0.001572431534471,2.0037957819731e-08,-2.0028046495692e-08,3.0182988477479e-10,-2.9848911930347e-10,-0.0016517893113782,0.0016518028784954,-0.0016518026499003,0.00165178948278,-0.0016517894719342,0.0016518027025105,-0.0016518028761326,0.00165178927799,-0.0014361336082099,0.001436172722562,-0.0014361728862109,0.0014361333779172,-1.9615178446233e-10,2.6940621331339e-10,-2.9949796549183e-09,3.0602365946337e-09,-0.0015724314974201,0.0015724315620968,-0.0016517971440554,0.0016517950179486,-0.001651795118243,0.0016517970470722,-0.0016517969551493,0.0016517952015246,-0.0016517949813633,0.0016517971881963,-0.0014361559515004,0.0014361502875361,-0.0014361501092725,0.0014361562344383,-0.0015424800409207,0.0015424817015401,-0.0015424796506211,0.001542482095715,-1.9631875132147e-08,1.9999213912978e-08,-0.0011204058310376,0.0011204061627768,3.2189182485107e-09,-2.96057803591e-09,-0.0012129035964056,0.0012128927639926,-0.0012129056282316,0.0012128907462401,-0.001212890339544,0.0012129059969876,-0.0012128924737432,0.0012129038875715,-0.0012031465283063,0.0012031834291965,-0.0012031851456565,0.0012031448201975,0.71844598516335,125803,2834,0.0065297543990293,0.0065297543989685,0.0046591799611625,37.19361437353,5.7548914988237e-05,5.7548914988237e-05,5.7548914988237e-05,2450536.1638312,0.017877482771177
38880000,0.99971219667075,0.017312368831627,0.0062372473585309,0.0062372473587167,0.0048378741143795,-0.0015724557881172,0.0015724558040044,2.0045587107074e-08,-2.0029195553824e-08,2.5520298466517e-10,-2.4490190606194e-10,-0.0016518093289642,0.0016518228753612,-0.0016518226737264,0.0016518094737217,-0.0016518094596486,0.0016518227301409,-0.001651822864102,0.0016518093054296,-0.0014361611222071,0.0014362002761722,-0.0014362004001275,0.0014361609321075,-2.4087801728309e-10,3.2150681764008e-10,-3.0148428894076e-09,3.0869703261241e-09,-0.0015724557604104,0.0015724558318147,-0.001651817170331,0.0016518150060782,-0.0016518151324615,0.0016518170481196,-0.0016518169527475,0.0016518152193649,-0.0016518149604272,0.0016518172241954,-0.0014361834932687,0.0014361778140645,-0.0014361775969566,0.0014361838159429,-0.0015425053210507,0.0015425069001616,-0.0015425048275827,0.0015425073996581,-1.9693627718511e-08,2.0063006578803e-08,-0.0011204102152621,0.0011204105489627,3.200053550443e-09,-2.9395234846718e-09,-0.0012129211986919,0.0012129103161806,-0.0012129232205987,0.0012129083091185,-0.0012129079033695,0.0012129235881473,-0.0012129100214432,0.0012129214950431,-0.0012031529970838,0.0012031900449891,-0.0012031917458689,0.001203151304168,0.71909628817605,125803,2834,0.0065298546455393,0.0065298546457502,0.0046591987331764,37.193609215082,5.7548873720654e-05,5.7548873720654e-05,5.7548873720654e-05,2448839.3339061,0.01787770602635
