time,ASR_ext,ASR_strain,ASR_strain_xx,ASR_strain_yy,ASR_strain_zz,disp_x_101,disp_x_102,disp_x_103,disp_x_104,disp_x_105,disp_x_106,disp_x_p1_neg,disp_x_p1_pos,disp_x_p2_neg,disp_x_p2_pos,disp_x_p3_neg,disp_x_p3_pos,disp_x_p4_neg,disp_x_p4_pos,disp_x_p5_neg,disp_x_p5_pos,disp_x_p6_neg,disp_x_p6_pos,disp_y_101,disp_y_102,disp_y_103,disp_y_104,disp_y_105,disp_y_106,disp_y_p1_neg,disp_y_p1_pos,disp_y_p2_neg,disp_y_p2_pos,disp_y_p3_neg,disp_y_p3_pos,disp_y_p4_neg,disp_y_p4_pos,disp_y_p5_neg,disp_y_p5_pos,disp_y_p6_neg,disp_y_p6_pos,disp_y_p7_neg,disp_y_p7_pos,disp_y_p8_neg,disp_y_p8_pos,disp_z_101,disp_z_102,disp_z_103,disp_z_104,disp_z_105,disp_z_106,disp_z_p1_neg,disp_z_p1_pos,disp_z_p2_neg,disp_z_p2_pos,disp_z_p3_neg,disp_z_p3_pos,disp_z_p4_neg,disp_z_p4_pos,disp_z_p5_neg,disp_z_p5_pos,disp_z_p6_neg,disp_z_p6_pos,humidity,ndof,nelem,strain_xx,strain_yy,strain_zz,temp,thermal_strain_xx,thermal_strain_yy,thermal_strain_zz,vonmises,vstrain
2419200,0,0,0,0,0,0,0,0,0,0,0,0,0,0,0,0,0,0,0,0,0,0,0,0,0,0,0,0,0,0,0,0,0,0,0,0,0,0,0,0,0,0,0,0,0,0,0,0,0,0,0,0,0,0,0,0,0,0,0,0,0,0,0,0,0,0,0,0,0,0,0,0,0,0,0
2619200,0.01952589965787,0.00040056259113746,0.00013352086371249,0.00013352086371249,0.00013352086371249,-3.4181217464913e-05,3.4181702292195e-05,2.166208044933e-10,2.6451108888933e-10,-6.7696414310252e-10,1.1908214687749e-09,-3.3708576495773e-05,3.3708427652544e-05,-3.3708465430204e-05,3.3708348359693e-05,-3.3707929332741e-05,3.3708999688332e-05,-3.3707920048321e-05,3.3709022491015e-05,-3.4953638203138e-05,3.4954690935104e-05,-3.4953565952363e-05,3.4954713024812e-05,5.9288817509786e-10,-1.2204124963554e-09,-2.3595186127271e-08,2.2996211970896e-08,-3.5405627927045e-05,3.5405025391824e-05,-3.4729733201778e-05,3.4714458954253e-05,-3.4714821532511e-05,3.4730086793335e-05,-3.4730310333903e-05,3.4713853439995e-05,-3.4715398514908e-05,3.47294814317e-05,-3.5866897344065e-05,3.5819980368832e-05,-3.582181962412e-05,3.5866338903908e-05,-3.5835535938254e-05,3.5852142518024e-05,-3.5837300108673e-05,3.5850327145929e-05,-5.9448740948762e-09,-5.9907797126352e-09,-3.4187472122111e-05,3.4175447632777e-05,1.6711959899582e-08,-2.9450942046221e-08,-3.3706710335171e-05,3.3710211033483e-05,-3.3722018194379e-05,3.3694901167056e-05,-3.3706727811935e-05,3.3710197778494e-05,-3.3722035292003e-05,3.3694887835666e-05,-3.4967830728355e-05,3.4940473001842e-05,-3.4967779771247e-05,3.4940511402764e-05,0.81992965372651,128566,2924,0.00014241256277554,0.0001475112576852,0.00014241256277557,31.518930932153,1.2151447457222e-05,1.2151447457222e-05,1.2151447457222e-05,467263.20504985,0.00043243007102584
2819200,0.041121410796956,0.00083745459967271,0.00027851355607295,0.00028042748755419,0.00027851355604557,-7.0434171088911e-05,7.0430689171272e-05,-1.6038645683323e-09,-1.8542230304589e-09,4.4054399972752e-09,-8.0826550806266e-09,-7.041549763211e-05,7.0416234603294e-05,-7.0415552841306e-05,7.041612153137e-05,-7.0419478893709e-05,7.0412057931565e-05,-7.0419550901868e-05,7.0411964023113e-05,-7.164549507762e-05,7.1638144789581e-05,-7.1645705078925e-05,7.1637867883357e-05,-3.9755967766298e-09,8.5966056496903e-09,-2.979651619192e-09,7.4059311367256e-09,-7.350462186768e-05,7.3509070302048e-05,-7.2828680593441e-05,7.2825579574348e-05,-7.2825306925966e-05,7.282901618948e-05,-7.2824685187017e-05,7.2829776152312e-05,-7.2821310326556e-05,7.2833213943831e-05,-7.3874693918054e-05,7.3873068906638e-05,-7.3864575963134e-05,7.3883371681329e-05,-7.3876030014599e-05,7.3871625787774e-05,-7.3863801851282e-05,7.3884214137953e-05,1.8867581791233e-09,2.1245202325464e-09,-7.0430450512368e-05,7.0434409734981e-05,7.0052928412778e-09,-3.1701548000166e-09,-7.0412166392869e-05,7.0419453698219e-05,-7.0415583722301e-05,7.0416049078174e-05,-7.0412074504059e-05,7.0419518925934e-05,-7.0415493587478e-05,7.0416118431822e-05,-7.1641398055425e-05,7.1642216275554e-05,-7.1641668682461e-05,7.1642017870549e-05,0.82138489006534,128566,2924,0.00029342536401993,0.00030623150039445,0.00029342536399309,32.736093474882,2.1888747799057e-05,2.1888747799057e-05,2.1888747799057e-05,513011.29497574,0.00089348151806936
3019200,0.062599147399427,0.0012704184109865,0.00042106437486336,0.00042828966130012,0.00042106437482307,-0.00010331717725057,0.00010331419107571,-1.2138263043969e-09,-1.7538616904132e-09,5.8719272029476e-09,-9.0817514108056e-09,-0.0001037750278553,0.00010377715369444,-0.00010377523758155,0.00010377700184989,-0.00010377979170794,0.00010377217439072,-0.0001037799683921,0.00010377199170248,-0.0001051199627226,0.00010511255887939,-0.00010512047934367,0.00010511202082069,-5.6857073268418e-09,9.291721781638e-09,7.5694714268181e-09,-4.2277621215229e-09,-0.00010902434167659,0.00010902772121841,-0.00010823693195138,0.00010823922444167,-0.00010824062083384,0.00010823520941211,-0.00010823216003575,0.00010824421534736,-0.00010823584820187,0.00010824020104869,-0.00010930876158608,0.00010932863062917,-0.00010932009885685,0.00010931682765719,-0.00010932602866977,0.00010931084400415,-0.00010931142542127,0.00010932585221831,3.7157838330209e-09,4.2475017433705e-09,-0.00010331170687389,0.00010331966143396,-1.7316966409776e-09,9.8881794470863e-09,-0.00010377409539301,0.00010377798071011,-0.00010377030162413,0.00010378181929327,-0.00010377390857638,0.00010377814680471,-0.00010377011096066,0.00010378198374429,-0.00010511010075095,0.00010512242730595,-0.00010511065726403,0.00010512193961114,0.82013323415933,128566,2924,0.00043038938898652,0.00045417167384054,0.00043038938894794,32.491948026929,1.9935584215434e-05,1.9935584215434e-05,1.9935584215434e-05,674107.87150077,0.0013158161219758
3219200,0.083851060181708,0.0016890351927942,0.00055778962959416,0.00057345593366072,0.00055778962953936,-0.00013470581708859,0.00013470333648921,-8.1988772729557e-10,-1.6530659016352e-09,5.9897635349619e-09,-8.6891247387772e-09,-0.00013588612277715,0.00013588875864308,-0.00013588644287997,0.00013588852130997,-0.00013589080038814,0.00013588388082838,-0.00013589106826331,0.00013588359430729,-0.00013692985562033,0.00013692331561878,-0.00013693064019338,0.00013692247260057,-5.81214085641e-09,8.8606675315568e-09,1.3142311976412e-08,-1.0360940646441e-08,-0.000143830115354,0.00014383293528141,-0.00014318849806158,0.00014319417329767,-0.00014319597655975,0.00014318624710474,-0.00014318380631952,0.00014319905460269,-0.00014319128378475,0.00014319112944464,-0.00014370407970875,0.00014373478196091,-0.00014372678041813,0.00014371136047754,-0.00014372877022271,0.00014370944491285,-0.00014371444508946,0.00014372414073132,4.3551400500324e-09,5.1773283889172e-09,-0.00013469981838233,0.00013470933516997,-6.650702909459e-09,1.6538040051054e-08,-0.00013588665812923,0.00013588811858345,-0.00013587902357954,0.00013589580890901,-0.00013588637996151,0.00013588838652887,-0.0001358787395578,0.00013589607404505,-0.00013691755881606,0.00013693560967928,-0.00013691838376677,0.00013693482041105,0.80675912456102,128566,2924,0.00056111179002371,0.00059911795285232,0.00056111178997131,32.204239270336,1.7633914162687e-05,1.7633914162687e-05,1.7633914162687e-05,802512.94305572,0.0017228250426087
3419200,0.10484963386083,0.0020893188037317,0.00068727707352679,0.0007147646567325,0.00068727707347237,-0.00016435176025492,0.00016434973803455,-4.4770580644594e-10,-1.5723722357508e-09,5.8791085749389e-09,-8.115953801175e-09,-0.00016657319395748,0.00016657616373639,-0.00016657361204477,0.000166575830133,-0.00016657765829881,0.00016657151823757,-0.00016657801587846,0.00016657112698548,-0.00016670976738797,0.0001667041899413,-0.00016671080818319,0.00016670303199233,-5.6238136910065e-09,8.3739255039122e-09,1.6210159100803e-08,-1.37201776886e-08,-0.00017771604365251,0.00017771857030836,-0.00017762111335348,0.00017762883506862,-0.00017763069608992,0.0001776187701068,-0.00017761663026505,0.0001776334873163,-0.00017762621210785,0.00017762342322857,-0.0001767052132159,0.00017674170941408,-0.00017673415526163,0.00017671191267031,-0.00017673364833604,0.00017671256422752,-0.00017671998010747,0.00017672658288061,4.4234572657264e-09,5.5377536762308e-09,-0.00016434578452163,0.00016435571374217,-9.5698696398309e-09,1.9987608313302e-08,-0.00016657481908538,0.00016657443820432,-0.00016656506532407,0.00016658424745475,-0.00016657444585733,0.00016657480589227,-0.00016656468572619,0.00016658461163971,-0.00016669651610104,0.00016671741305521,-0.00016669761780673,0.00016671632880544,0.78589835489977,128566,2924,0.00068456096161969,0.00074021386435798,0.00068456096156775,31.914768072709,1.5318144581671e-05,1.5318144581671e-05,1.5318144581671e-05,929467.01221073,0.0021115634844634
3619200,0.12611104213917,0.0024827861177918,0.00081345715608312,0.00085587180568039,0.00081345715602826,-0.00019387541269059,0.0001938738270015,-8.4533450255055e-11,-1.5012466851601e-09,5.6790129514846e-09,-7.4728213445698e-09,-0.00019727893565874,0.00019728216106292,-0.00019727945284649,0.00019728172968868,-0.00019728312735417,0.00019727779750208,-0.00019728358096616,0.00019727730976537,-0.00019615072291988,0.00019614614251334,-0.00019615203169756,0.0001961446870248,-5.3141500999505e-09,7.8284870067059e-09,1.6539262503575e-08,-1.4269417357617e-08,-0.0002122820931143,0.00021228439755355,-0.00021324643596745,0.00021325451301521,-0.00021325631837812,0.00021324416132532,-0.00021324222903648,0.00021325887614678,-0.00021325210837834,0.00021324852749564,-0.00020983616268301,0.0002098730027312,-0.00020986594441083,0.00020984234683119,-0.00020986461023991,0.00020984384464469,-0.00020985177689481,0.00020985701437782,3.8233190083124e-09,5.229081212977e-09,-0.0001938701164445,0.00019387912322151,-1.0397375781344e-08,1.9930390474418e-08,-0.00019728133650344,0.00019727966639411,-0.00019727132450108,0.00019728973073296,-0.00019728086709843,0.00019728013003954,-0.00019727084647646,0.00019729019297841,-0.00019613814172702,0.00019615868005981,-0.00019613952943556,0.00019615730461673,0.77011574154055,128566,2924,0.00080748594419782,0.00088412121811111,0.00080748594414517,31.993779283075,1.5950234264599e-05,1.5950234264599e-05,1.5950234264599e-05,1098310.2979485,0.0025022202804863
3819200,0.14797833123443,0.0028834494462221,0.00094110643597532,0.0010012365743278,0.00094110643591905,-0.00022418275562242,0.00022418147319835,2.1289972481828e-10,-1.49641618706e-09,5.5898000653012e-09,-7.0756557398461e-09,-0.00022881245132441,0.00022881592271162,-0.0002288130736238,0.00022881538962847,-0.00022881649255524,0.00022881171689471,-0.00022881704000556,0.00022881113967008,-0.00022646445883104,0.00022646061144763,-0.0002264660286997,0.00022645887856724,-5.1411651742859e-09,7.4641212366095e-09,1.5225986172074e-08,-1.313821657559e-08,-0.00024838498137978,0.00024838710215454,-0.0002506473633749,0.0002506546344744,-0.00025065645114767,0.00025064509166087,-0.00025064333627181,0.00025065881092289,-0.00025065240891486,0.0002506492832077,-0.00024430571080495,0.00024433977426819,-0.00024433307626845,0.00024431153323063,-0.00024433220723675,0.00024431257463917,-0.00024431988007282,0.00024432522840468,3.1289678110419e-09,4.8257862271899e-09,-0.00022417816410872,0.0002241860646855,-9.5931595638986e-09,1.8028316667267e-08,-0.00022881513106135,0.00022881315650589,-0.00022880602550731,0.00022882231223273,-0.00022881456991423,0.00022881371068677,-0.00022880544379223,0.00022882287655933,-0.0002264530869419,0.000226471929186,-0.00022645477719693,0.00022647025175692,0.771401598469,128566,2924,0.00093365812290065,0.0010344045296042,0.00093365812284672,32.324804407808,1.8598435262465e-05,1.8598435262465e-05,1.8598435262465e-05,1266904.7960517,0.0029059373077552
4019200,0.17044227490737,0.0032925398310496,0.0010706645963162,0.0011512106384759,0.0010706645962575,-0.00025491111248735,0.00025491003854487,4.6246012579755e-10,-1.5382137621871e-09,5.5467518516064e-09,-6.8206424024683e-09,-0.00026081946266418,0.00026082313886089,-0.00026082017901687,0.00026082251179733,-0.00026082340540583,0.00026081903494711,-0.00026082405573487,0.00026081836009682,-0.00025727974042953,0.00025727649546756,-0.00025728159960299,0.00025727446090377,-5.071569021783e-09,7.2579511550155e-09,1.3695724188204e-08,-1.1739643918451e-08,-0.00028565100957327,0.00028565299764886,-0.00028941704136103,0.00028942331071807,-0.00028942518235414,0.00028941474610415,-0.00028941310224391,0.00028942739533887,-0.00028942123226419,0.00028941884164071,-0.00027974834997844,0.00027977932878479,-0.00027977287640227,0.00027975397189764,-0.00027977276221633,0.00027975424457711,-0.00027976071077689,0.00027976661694227,2.4078892080144e-09,4.3970150356154e-09,-0.00025490720513175,0.00025491394587179,-8.7801911611208e-09,1.6042801738614e-08,-0.00026082241002546,0.00026082010905451,-0.00026081423714363,0.00026082833112628,-0.00026082174807869,0.00026082076351196,-0.00026081356049376,0.00026082898912765,-0.00025726956864464,0.00025728660542179,-0.00025727153512017,0.00025728465218126,0.77299484018997,128566,2924,0.0010615669265715,0.001189505610636,0.0010615669265128,32.662286638609,2.1298293108869e-05,2.1298293108869e-05,2.1298293108869e-05,1425825.6227727,0.0033181357597013
4219200,0.19347675199549,0.0037105725300899,0.0012022810081562,0.0013060105138267,0.0012022810081071,-0.00028607768437386,0.00028607673441737,6.6998120994202e-10,-1.6223863558925e-09,5.5483101545169e-09,-6.6966163803928e-09,-0.00029333088353477,0.00029333473816935,-0.00029333169425449,0.00029333401299412,-0.00029333478282617,0.0002933306753901,-0.00029333553435579,0.00029332990530135,-0.00028860310645427,0.00028860031439865,-0.00028860525117955,0.00028859798879121,-5.0583961528521e-09,7.1530415799751e-09,1.2368755975731e-08,-1.0501424321137e-08,-0.00032414169364825,0.00032414359217275,-0.00032958946066737,0.00032959483524414,-0.00032959677280174,0.00032958713269458,-0.00032958555900321,0.00032959888055246,-0.00032959286200138,0.00032959118707079,-0.00031623059506918,0.00031625893534576,-0.00031625263660803,0.00031623611490773,-0.0003162532674653,0.0003162356254888,-0.00031624133112807,0.0003162478791001,1.7171304797253e-09,3.9982356094389e-09,-0.00028607438841228,0.00028608003035562,-8.07896833796e-09,1.4220709718857e-08,-0.0002933340987682,0.0002933314404923,-0.00029332676402757,0.00029333882384151,-0.00029333333831866,0.00029333219305873,-0.00029332599058054,0.00029333957769597,-0.00028859398299975,0.00028860937274723,-0.00028859623296187,0.00028860713654683,0.77488672028836,128566,2924,0.001191283463034,0.0013496781150424,0.0011912834629862,33.000023557793,2.4000188462346e-05,2.4000188462346e-05,2.4000188462346e-05,1578962.50899,0.0037392233816104
4419200,0.21745034220254,0.0041443929032958,0.0013380129558073,0.0014683669917289,0.0013380129557596,-0.00031863874595379,0.00031863787753836,8.6160669071475e-10,-1.7332764168758e-09,5.5135781363706e-09,-6.5790372654717e-09,-0.00032743080960464,0.00032743480654509,-0.00032743172902833,0.00032743396402879,-0.00032743466838335,0.00032743078179983,-0.00032743550978155,0.00032742992431304,-0.00032137101398602,0.0003213686132889,-0.00032137341437498,0.00032136602387768,-4.9905098504673e-09,6.9847231115917e-09,1.1204856993001e-08,-9.4335628476011e-09,-0.00036506113695448,0.00036506293835128,-0.00037235045779167,0.00037235509113958,-0.0003723570622623,0.00037234812650297,-0.00037234664438919,0.00037235904492241,-0.00037235321564334,0.00037235211344301,-0.00035490757888753,0.000354933523203,-0.00035492742045781,0.00035491294648647,-0.00035492865303634,0.00035491184509296,-0.00035491690824674,0.00035492390068194,1.0425489911836e-09,3.6049195563838e-09,-0.00031863602888303,0.00031864059458697,-7.3355363426353e-09,1.2371005577533e-08,-0.00032743424316981,0.00032743128896655,-0.00032742778147535,0.00032743779793532,-0.0003274334007225,0.00032743212264734,-0.00032742690141453,0.00032743865706912,-0.00032136289450959,0.00032137666228106,-0.00032136545727134,0.00032137411509786,0.77612067062791,128566,2924,0.0013267865716055,0.0015199288888758,0.00132678657156,33.593797747391,2.8750381979129e-05,2.8750381979129e-05,2.8750381979129e-05,1730957.4702207,0.004182229974833
4619200,0.24250055164446,0.0045964103373888,0.0014783593364459,0.0016396916645444,0.0014783593363984,-0.00035242890568879,0.00035242810779679,1.0362806336082e-09,-1.8381513888476e-09,5.4493955447545e-09,-6.4424629860751e-09,-0.00036296776664867,0.00036297184669945,-0.0003629687631507,0.00036297092527039,-0.0003629715453381,0.00036296790202794,-0.00036297249944231,0.00036296693980151,-0.00035538081490339,0.00035537887018288,-0.00035538353456554,0.00035537596086674,-4.9593601468635e-09,6.8829211218079e-09,1.0157624298035e-08,-8.4527789129653e-09,-0.00040842665157105,0.00040842838548129,-0.00041775251498777,0.0004177564512574,-0.00041775845521706,0.00041775017546353,-0.00041774873227973,0.00041776037318007,-0.00041775466881807,0.00041775410102142,-0.00039573843689764,0.00039576233837932,-0.00039575636716605,0.00039574371657924,-0.00039575810989011,0.00039574208888821,-0.00039574654456418,0.00039575396253956,5.7297275023112e-10,3.4395873586961e-09,-0.00035242654417236,0.00035243046929126,-6.8358394231215e-09,1.1213167030551e-08,-0.00036297134015727,0.00036296819143186,-0.00036296542224922,0.00036297415508452,-0.00036297038104943,0.00036296914160845,-0.00036296445647489,0.00036297510021254,-0.0003553733919538,0.00035538622170999,-0.0003553762065334,0.00035538342223925,0.77693645627547,128566,2924,0.0014673861086788,0.0017003247741383,0.0014673861086335,34.291494109842,3.4331952878739e-05,3.4331952878739e-05,3.4331952878739e-05,1882539.8776998,0.004645864939551
4819200,0.26859485992527,0.0050658437453681,0.0016228871308456,0.0018200694837245,0.0016228871307981,-0.00038715669143017,0.00038715592909981,1.2037916840501e-09,-1.9706091530913e-09,5.4166709368981e-09,-6.3733194231723e-09,-0.00039963508573909,0.00039963927753608,-0.00039963619229536,0.00039963824399922,-0.0003996388418621,0.00039963535694442,-0.00039963988648657,0.0003996343077579,-0.0003903441460449,0.00039034253074382,-0.00039034712771223,0.00039033936306317,-4.9248153627418e-09,6.7936468439287e-09,9.5254697685989e-09,-7.8716233217079e-09,-0.00045402784571555,0.00045402952782659,-0.00046554443011871,0.00046554796024338,-0.00046554998248814,0.00046554208739401,-0.00046554069597137,0.00046555183133701,-0.00046554622570175,0.00046554598113295,-0.00043853048280164,0.00043855307024272,-0.00043854720228414,0.00043853568119396,-0.00043854928906177,0.00043853370358465,-0.00043853780911443,0.00043854548847594,2.0736381221464e-10,3.3578260201359e-09,-0.00038715457336591,0.00038715804714174,-6.4021399061234e-09,1.0313251038268e-08,-0.00039963876237469,0.00039963552108886,-0.00039963329401434,0.00039964103378302,-0.0003996377196267,0.00039963655462408,-0.00039963222230986,0.00039964208465968,-0.00039033717794894,0.00039034942909758,-0.00039034030315334,0.00039034631729439,0.77792178516854,128566,2924,0.0016118676559549,0.0018899850955886,0.0016118676559087,34.99189455511,3.9935156440877e-05,3.9935156440877e-05,3.9935156440877e-05,2034210.5368542,0.0051268302819822
5019200,0.29568265584734,0.0055500704593916,0.0017706677410719,0.0020087349772963,0.0017706677410234,-0.00042260524594344,0.00042260451507573,1.3624352514464e-09,-2.0982096689238e-09,5.383214669237e-09,-6.3075135348206e-09,-0.00043725015201597,0.00043725442998184,-0.00043725134547112,0.00043725330899588,-0.00043725386881294,0.00043725055102564,-0.00043725501898198,0.00043724939989465,-0.00042601680051601,0.00042601555487255,-0.00042602008682368,0.00042601208057332,-4.9009725557261e-09,6.7298526400626e-09,8.9877062287588e-09,-7.3706444197547e-09,-0.00050167739221841,0.00050167903689009,-0.00051555207584881,0.00051555525004428,-0.00051555728693488,0.00051554973284702,-0.00051554836292459,0.00051555909847471,-0.00051555356609855,0.00051555358910291,-0.0004831403602878,0.00048316189160237,-0.00048315610125459,0.00048314550444254,-0.00048315843521714,0.00048314327070346,-0.00048314706834652,0.00048315494081573,-8.3396301410532e-11,3.3646586865986e-09,-0.00042260328713153,0.00042260647386497,-6.0744592152348e-09,9.6870949114877e-09,-0.00043725390916478,0.00043725059555631,-0.00043724875133912,0.00043725579639724,-0.0004372527590274,0.00043725173651907,-0.00043724758883861,0.0004372569381557,-0.00042601018419836,0.00042602210000637,-0.00042601357479822,0.00042601872148497,0.77677325226212,128566,2924,0.0017593278906329,0.0020881254417073,0.001759327890586,35.692402118347,4.5539216946776e-05,4.5539216946776e-05,4.5539216946776e-05,2184423.5627055,0.0056225451927494
5219200,0.32306649280751,0.0060381625983526,0.0019183800316148,0.0022014025351714,0.0019183800315663,-0.0004572810890386,0.00045728034751102,1.4969929789068e-09,-2.2434665195873e-09,5.4048796525025e-09,-6.3412781927305e-09,-0.00047421858551491,0.00047422295521845,-0.00047421986448918,0.00047422175254959,-0.00047422231271271,0.00047421906943758,-0.00047422356739877,0.00047421781701116,-0.00046094642802721,0.00046094545528587,-0.0004609500187356,0.00046094168161942,-4.9445242791773e-09,6.7660204922625e-09,9.0701198006984e-09,-7.4589234079658e-09,-0.00054960487330845,0.00054960651163096,-0.00056596306876997,0.00056596625313489,-0.00056596831993442,0.00056596069164632,-0.00056595931977389,0.00056597013879426,-0.00056596458448603,0.00056596456374144,-0.00052790181173979,0.00052792355926717,-0.00052791774301833,0.00052790697049326,-0.00052792004675659,0.00052790476823965,-0.00052790862998961,0.000527916491591,-1.9400087510129e-10,3.5583033532558e-09,-0.00045727908361364,0.00045728235291215,-6.1950618931557e-09,9.8985165416046e-09,-0.00047422246118687,0.00047421900653286,-0.0004742171831768,0.0004742243261805,-0.00047422119986036,0.00047422025840927,-0.00047421592904784,0.00047422555980283,-0.00046093971766168,0.000460952097068,-0.00046094337727379,0.00046094844751277,0.77855551811599,128566,2924,0.0019035546496121,0.0022873807537482,0.0019035546495629,36.022399912856,4.8179199302847e-05,4.8179199302847e-05,4.8179199302847e-05,2329205.0014826,0.0061131207689281
5419200,0.35054022478331,0.0065196065808741,0.0020627873281252,0.0023940319246717,0.0020627873280773,-0.00049101494926624,0.00049101420934557,1.6472063674045e-09,-2.3922797589549e-09,5.4156452011922e-09,-6.3511917704952e-09,-0.00051051635471866,0.00051052083691376,-0.00051051773846423,0.00051051953052302,-0.00051052009450606,0.00051051694172589,-0.00051052144410972,0.00051051559469195,-0.00049481128610082,0.00049481058550702,-0.00049481515332139,0.00049480653326636,-4.95221996355e-09,6.7719572819123e-09,9.2121507918521e-09,-7.6013182101229e-09,-0.00059746278261396,0.00059746442013826,-0.00061650970787982,0.00061651297816395,-0.00061651504901748,0.00061650732339224,-0.00061650595741617,0.00061651686478755,-0.00061651130467705,0.00061651120409875,-0.00057237545588268,0.00057239746478166,-0.00057239163831823,0.00057238061224704,-0.00057239388241864,0.00057237847418482,-0.00057238243197541,0.00057239023144163,-3.2256599225499e-10,3.7148100125678e-09,-0.00049101293130527,0.00049101622728286,-6.284231161934e-09,1.0020795939999e-08,-0.00051052035748391,0.0005105167636387,-0.00051051501080791,0.0005105221507673,-0.00051051900574658,0.00051051810593988,-0.0005105136568263,0.00051052348433723,-0.00049480451488798,0.00049481728714534,-0.00049480846801628,0.00049481334231691,0.7695800283058,128566,2924,0.0020438456539317,0.0024863057453371,0.0020438456538828,36.275394825767,5.020315860614e-05,5.020315860614e-05,5.020315860614e-05,2460862.1923267,0.0065956805631318
5619200,0.37802208589171,0.0069767173199096,0.0021984902003406,0.0025797369192753,0.0021984902002936,-0.00052276627503091,0.00052276554896244,1.7998892663905e-09,-2.5312812166836e-09,5.4080648625081e-09,-6.3296050979973e-09,-0.00054556324332527,0.0005455678272434,-0.00054556472438159,0.0005455664235263,-0.00054556697515545,0.000545563942641,-0.00054556842192012,0.00054556249854522,-0.00052621207595323,0.00052621168461997,-0.00052621622413874,0.00052620734132959,-4.9405586367368e-09,6.7542769265645e-09,9.2557023407351e-09,-7.6496355401205e-09,-0.00064397966489338,0.00064398129740144,-0.00066623818970055,0.00066624149615765,-0.00066624356221787,0.00066623580998572,-0.00066623444966131,0.00066624537160211,-0.00066623982626317,0.00066623968147785,-0.00061493990269796,0.00061496198500397,-0.00061495617001393,0.00061494504165826,-0.00061495836788303,0.00061494295183194,-0.00061494694425127,0.00061495468126781,-4.7372582327885e-10,3.8559900280481e-09,-0.00052276426999914,0.00052276755397159,-6.3334791533829e-09,1.0062676842851e-08,-0.00054556736748916,0.00054556363429443,-0.00054556199228606,0.00054556904909855,-0.0005455659184541,0.00054556507394631,-0.00054556054081775,0.00054557048024815,-0.00052620530401268,0.00052621838224792,-0.00052620954249414,0.00052621415108031,0.73637048205425,128566,2924,0.0021758763368938,0.0026796167077425,0.002175876336847,36.526316039628,5.2210528317025e-05,5.2210528317025e-05,5.2210528317025e-05,2585113.0232896,0.0070561816147509
5819200,0.40542843241743,0.0074123559886631,0.0023266642302433,0.0027590275282226,0.0023266642301972,-0.00055288542807075,0.00055288471951272,1.954546947142e-09,-2.6685392678471e-09,5.3891017990088e-09,-6.2924525455999e-09,-0.00057978134268583,0.00057978602327643,-0.00057978292081073,0.00057978452193195,-0.00057978505755938,0.00057978215745628,-0.00057978660110589,0.00057978061563646,-0.00055584530683099,0.00055584523718788,-0.00055584973507845,0.00055584060205942,-4.915963179464e-09,6.7228967154731e-09,9.2379954197282e-09,-7.6381285758562e-09,-0.00068943008242181,0.00068943170883881,-0.00071516520759955,0.00071516851689419,-0.00071517057111509,0.00071516284079508,-0.00071516148560362,0.0007151723732967,-0.00071516685303543,0.00071516669342662,-0.00065628937230784,0.00065631140072102,-0.00065630560971075,0.00065629448563669,-0.00065630778007875,0.00065629242375186,-0.00065629641097531,0.00065630409697938,-6.3302719225895e-10,3.9887272560923e-09,-0.00055288344618458,0.00055288670137611,-6.3326124683889e-09,1.0035506342901e-08,-0.00057978557352834,0.00057978172426275,-0.00057978020835911,0.00057978712877913,-0.00057978402722321,0.00057978326120302,-0.00057977865961187,0.00057978865739778,-0.00055583856777194,0.00055585189634668,-0.0005558430915549,0.00055584737882665,0.7131758346785,128566,2924,0.0023011067645388,0.0028684561818588,0.0023011067644917,36.777154467431,5.421723573945e-05,5.421723573945e-05,5.421723573945e-05,2700730.0584729,0.0074986877938594
6019200,0.43227734943214,0.0078279855876391,0.0024480286270306,0.0029319283336233,0.0024480286269852,-0.00058110434857228,0.00058110360569011,2.0831623345449e-09,-2.8313003377173e-09,5.3993449226738e-09,-6.3377684564064e-09,-0.00061257461538922,0.00061257937680544,-0.00061257628882131,0.00061257777964713,-0.00061257834957388,0.00061257549461517,-0.00061257999040071,0.0006125738527114,-0.00058378050774245,0.00058378067542151,-0.000583785221224,0.00058377574531484,-4.9457828858454e-09,6.748502602319e-09,9.43524758331e-09,-7.8402446597898e-09,-0.00073321956883526,0.00073322119050617,-0.00076218248225551,0.0007621858979583,-0.00076218797326133,0.00076218008980936,-0.00076217874047119,0.00076218977485618,-0.00076218423855172,0.00076218395978026,-0.00069640438721224,0.00069642682640199,-0.00069642101642901,0.00069640950908995,-0.00069642308905271,0.00069640754659907,-0.00069641167084975,0.00069641927060082,-6.6272557292028e-10,4.251456575953e-09,-0.00058110223339959,0.0005811057208402,-6.4154574984713e-09,1.0357168249912e-08,-0.00061257888758498,0.00061257503720283,-0.00061257338699115,0.00061258057667286,-0.00061257724225308,0.00061257667316145,-0.00061257174257975,0.00061258220142915,-0.000583773560609,0.00058378753834051,-0.00058377836550578,0.00058378273887336,0.70261522818445,128566,2924,0.0024184250856154,0.003050356380316,0.0024184250855687,36.775475274727,5.4203802197819e-05,5.4203802197819e-05,5.4203802197819e-05,2770630.8040912,0.0079184472480184
6219200,0.45850083899275,0.0082349655248013,0.0025665807652684,0.0031018039943091,0.0025665807652239,-0.00060867508406011,0.00060867431688432,2.2170684669056e-09,-2.9894177927081e-09,5.3858685360649e-09,-6.3490261816671e-09,-0.00064461068109744,0.00064461551650509,-0.00064461245167655,0.00064461382088911,-0.00064461441715524,0.0006446116347887,-0.000644616153308,0.00064460989452893,-0.0006113444867881,0.00061134491564899,-0.00061134948173953,0.00061133969765314,-4.9489884479765e-09,6.7426312315383e-09,9.4784054080446e-09,-7.8926302855625e-09,-0.0007762385001239,0.00077624011262934,-0.00080810454047035,0.00080810797898627,-0.00080811006237373,0.0008081021389387,-0.00080810079909001,0.00080811185550799,-0.00080810632833343,0.00080810600828949,-0.00073612572635098,0.00073614824950852,-0.00073614244638973,0.00073613083492134,-0.00073614448634536,0.00073612890586237,-0.00073613307120446,0.00073614062829729,-7.2514019352918e-10,4.4807824886293e-09,-0.00060867287362667,0.0006086765272955,-6.3769780539625e-09,1.0488482978428e-08,-0.00064461497138007,0.00064461115890142,-0.00064460944049648,0.00064461672837374,-0.00064461322935402,0.0006446128916995,-0.0006446076985859,0.00064461845108671,-0.00061133742629965,0.00061135188908437,-0.00061134251785459,0.00061134680242204,0.70745491378324,128566,2924,0.0025330381572906,0.0032290199712326,0.0025330381572446,36.758786988009,5.4070295904069e-05,5.4070295904069e-05,5.4070295904069e-05,2788714.7873341,0.0083296645925487
6419200,0.48405973572748,0.0086284943024239,0.0026810489229115,0.0032663964566435,0.0026810489228689,-0.00063533195834889,0.00063533118288862,2.3588648061211e-09,-3.1395144561026e-09,5.3592372393928e-09,-6.3304487677826e-09,-0.00067560034648976,0.00067560525675964,-0.0006756022135216,0.00067560346277335,-0.00067560406945991,0.00067560138983359,-0.0006756059015907,0.00067559955122855,-0.00063790551078224,0.00063790623133993,-0.00063791078803468,0.00063790072544298,-4.9313329526045e-09,6.7144910497898e-09,9.4224749572991e-09,-7.8472131626421e-09,-0.0008179367372019,0.00081793833921063,-0.00085261940340206,0.00085262281353524,-0.00085262489385154,0.00085261700709778,-0.00085261567628934,0.00085262667501375,-0.00085262117393367,0.00085262086155891,-0.00077461517080964,0.00077463756909025,-0.0007746317913276,0.00077462025339994,-0.00077463383390707,0.00077461832129051,-0.00077462246351344,0.0007746299990221,-8.2666116366356e-10,4.6710866400389e-09,-0.00063532969982675,0.00063533344138935,-6.2822523268273e-09,1.0482153828029e-08,-0.00067560466197887,0.00067560087364678,-0.00067559916479064,0.00067560640936968,-0.00067560282290537,0.00067560270368151,-0.00067559732561699,0.00067560822960368,-0.0006378984240316,0.00063791322842981,-0.00063790380205564,0.00063790785532347,0.70210892344259,128566,2924,0.0026438424811471,0.0034021644004393,0.0026438424811029,36.741629327926,5.3933034623409e-05,5.3933034623409e-05,5.3933034623409e-05,2803814.9658444,0.0087278002278809
6619200,0.50932909841831,0.0090411020900181,0.0028018867112146,0.0034373286676303,0.0028018867111731,-0.00066363869987342,0.00066363797555899,2.5306046923189e-09,-3.2604019855479e-09,5.2834049374606e-09,-6.200283882554e-09,-0.00070738849975973,0.00070739349131598,-0.00070739046262354,0.00070739159635499,-0.00070739215623417,0.00070738969074372,-0.00070739408412891,0.00070738775463469,-0.00066663087888754,0.00066663200263953,-0.00066663643778625,0.00066662621028279,-4.8361424382564e-09,6.6017529100096e-09,8.9976033700697e-09,-7.4391676348293e-09,-0.00086086124254083,0.00086086282772011,-0.00089842052064475,0.00089842371028753,-0.00089842574641363,0.00089841818243568,-0.0008984168604331,0.00089842750132859,-0.0008984220917366,0.00089842196812801,-0.00081434487550432,0.00081436636745119,-0.0008143606889511,0.00081434988612713,-0.00081436286530358,0.00081434781341753,-0.00081435169394772,0.00081435928552749,-1.062250910485e-09,4.7272762939877e-09,-0.00066363655742467,0.0006636401179875,-5.9652432952356e-09,9.9713342269397e-09,-0.00070739285496225,0.00070738906630468,-0.00070738763272926,0.00070739432728218,-0.00070739091994442,0.00070739099311733,-0.00070738569557195,0.00070739624579274,-0.0006666240761152,0.00066663871356857,-0.00066662974209566,0.00066663305201933,0.74070665727173,128566,2924,0.00276149343016,0.003580368541937,0.0027614934301182,37.008579001177,5.6068632009415e-05,5.6068632009415e-05,5.6068632009415e-05,2773396.9725149,0.0091450162587017
6819200,0.53540436306625,0.0095016834873201,0.0029379453699251,0.0036257927475134,0.0029379453698816,-0.00069654154679099,0.00069654099817954,2.7474394890323e-09,-3.3027409282012e-09,5.1232066497576e-09,-5.8555910138904e-09,-0.00074267525962283,0.00074268032226408,-0.00074267728137448,0.0007426783582429,-0.00074267872605189,0.00074267670832684,-0.0007426807634938,0.00074267466382842,-0.00070039359680023,0.00070039538230599,-0.00070039947650845,0.00070038926986056,-4.6045793033512e-09,6.3361286137966e-09,7.7944336102271e-09,-6.2678171757818e-09,-0.00090831714311056,0.00090831869642438,-0.00094915519632296,0.000949157717192,-0.00094915964258785,0.00094915301032523,-0.00094915167238452,0.00094916136339741,-0.00094915616909452,0.00094915660631698,-0.00085828565246335,0.00085830468132212,-0.00085829924512737,0.00085829051260633,-0.00085830178863713,0.00085828804720811,-0.00085829116538337,0.00085829895289466,-1.601649921562e-09,4.5158387012973e-09,-0.00069653987049852,0.00069654267445142,-5.2823104285717e-09,8.4935690401743e-09,-0.00074267972900328,0.00074267577801386,-0.00074267519960555,0.00074268034707837,-0.00074267766337838,0.0007426778375489,-0.00074267317593396,0.00074268235242758,-0.00070038773063233,0.00070040115777396,-0.00070039365013944,0.00070039524074931,0.79221450038335,128566,2924,0.0028982303270798,0.0037773507623281,0.0028982303270372,38.072471618169,6.4579772945349e-05,6.4579772945349e-05,6.4579772945349e-05,2780965.2797706,0.0096198982902077
7019200,0.56218838148189,0.0099405279469206,0.0030665455459756,0.0038074368550136,0.0030665455459314,-0.00072846761225559,0.00072846716837315,2.9566822195734e-09,-3.407459933329e-09,5.0324098761636e-09,-5.655358508856e-09,-0.00077783071438206,0.00077783590181397,-0.00077783285100428,0.00077783381823023,-0.00077783409833561,0.00077783236994213,-0.00077783622677089,0.00077783023479711,-0.00073245297889158,0.0007324552304012,-0.00073245912743538,0.00073244885620908,-4.4694207055301e-09,6.1640807962982e-09,7.1257344673798e-09,-5.6341534132748e-09,-0.00095551751703394,0.00095551903517967,-0.00099952122519253,0.00099952338636363,-0.00099952525302638,0.00099951911212123,-0.00099951780951505,0.00099952692012379,-0.00099952186871249,0.00099952261534148,-0.00090140160876296,0.00090141917715717,-0.00090141389501231,0.00090140634867285,-0.0009014167003663,0.00090140361379316,-0.00090140633178653,0.00090141425652348,-1.9765578510236e-09,4.4140138556051e-09,-0.00072846622741898,0.00072846855318889,-4.8572990661418e-09,7.5688875748368e-09,-0.00077783529941107,0.00077783124039488,-0.00077783122529135,0.00077783535450115,-0.00077783315562109,0.00077783337861182,-0.0007778290966626,0.00077783746453342,-0.00073244765376558,0.00073246046776971,-0.0007324538832391,0.00073245424165941,0.73335806530534,128566,2924,0.0030308931226907,0.0039732288307527,0.0030308931226474,39.156570526771,7.3252564214167e-05,7.3252564214167e-05,7.3252564214167e-05,2763679.5352837,0.010085663310294
7219200,0.58952590072504,0.010371061215118,0.0031923585435031,0.0039863441281595,0.0031923585434553,-0.00076004256235579,0.00076004218626046,3.1376635928178e-09,-3.520281830617e-09,4.9828041035767e-09,-5.5352478432132e-09,-0.00081314247578721,0.00081314777372364,-0.00081314471079157,0.00081314559122936,-0.00081314580578775,0.00081314429618863,-0.00081314803289668,0.00081314206529509,-0.00076392806178307,0.00076393072399915,-0.00076393450111156,0.00076392406759281,-4.4041600005822e-09,6.0594868540713e-09,6.6973784798024e-09,-5.2436408554595e-09,-0.0010024648412742,0.0010024663215083,-0.001049780215925,0.0010497821279564,-0.0010497839808105,0.0010497781259806,-0.0010497768580657,0.0010497856020538,-0.0010497806487226,0.0010497815748723,-0.00094422716328302,0.0009442438291829,-0.00094423865002605,0.00094423181763825,-0.00094424161353104,0.00094422892073019,-0.00094423140330649,0.00094423940093507,-2.2895000547034e-09,4.394293919679e-09,-0.00076004137718139,0.00076004337141115,-4.6218024023444e-09,6.9881551519093e-09,-0.00081314719354029,0.00081314298047472,-0.00081314339046919,0.00081314682374154,-0.00081314495260458,0.00081314521556192,-0.00081314116311711,0.00081314903192552,-0.0007639231008498,0.00076393560026763,-0.00076392961975866,0.00076392908700228,0.70718847839563,128566,2924,0.0031620819356183,0.0041680137152065,0.0031620819355691,40.241468700892,8.1931749607138e-05,8.1931749607138e-05,8.1931749607138e-05,2776804.8766187,0.010547562762852
7419200,0.61642259440444,0.01077870334436,0.0033112049168027,0.0041562935108044,0.0033112049167527,-0.00078904976649169,0.00078904933126277,3.2523202864893e-09,-3.6931259990735e-09,5.0804279514006e-09,-5.695160406553e-09,-0.00084638755530362,0.00084639295963662,-0.00084638987190028,0.00084639070028423,-0.00084639095616071,0.00084638941429253,-0.00084639329666402,0.0008463870717399,-0.00079272870305092,0.00079273155249633,-0.00079273547780258,0.00079272457017124,-4.5454686848459e-09,6.1803587588999e-09,7.189682887123e-09,-5.7569018704819e-09,-0.0010465328005099,0.0010465342598667,-0.001097105844593,0.0010971079633993,-0.0010971099162773,0.0010971036403842,-0.0010971023860822,0.0010971115419246,-0.0010971065157479,0.0010971071614136,-0.00098445717464359,0.00098447494553583,-0.00098446968665963,0.00098446188145039,-0.00098447244787757,0.00098445919230303,-0.00098446203170071,0.00098446988566275,-2.3321181728337e-09,4.6516048554565e-09,-0.0007890484428364,0.00078905065489227,-5.0605757377379e-09,7.6582760327099e-09,-0.0008463924627667,0.00084638798053024,-0.00084638827596897,0.00084639220703505,-0.00084639010446087,0.00084639033138354,-0.00084638596525121,0.00084639449839307,-0.00079272342469724,0.00079273675005967,-0.00079273018899439,0.00079272999313326,0.68501443611851,128566,2924,0.003282590155167,0.0043508110917829,0.0032825901551135,40.770148211713,8.6161185693708e-05,8.6161185693708e-05,8.6161185693708e-05,2814338.9051098,0.010975961788784
7619200,0.64213956402212,0.011158531920938,0.0034217304397487,0.0043150710414877,0.0034217304397019,-0.00081520966789698,0.00081520910503001,3.3371720576733e-09,-3.9042362710695e-09,5.1721599306416e-09,-5.9203048136342e-09,-0.00087722642828639,0.00087723191246621,-0.0008772288503395,0.00087722955567768,-0.00087722993894708,0.00087722826106472,-0.00087723237602748,0.00087722582403327,-0.00081875056748885,0.00081875346644981,-0.00081875762463809,0.00081874620708116,-4.7066699665221e-09,6.337044404261e-09,7.8872435146835e-09,-6.4601076700274e-09,-0.0010873301783521,0.0010873316322286,-0.0011408955537783,0.0011408980170284,-0.0011409000672796,0.00114089322643,-0.0011408919919257,0.0011409017044924,-0.0011408965662465,0.0011408968537456,-0.0010218032925632,0.0010218225387045,-0.0010218171508919,0.0010218080698591,-0.0010218196717281,0.0010218056357223,-0.0010218089501395,0.0010218166484377,-2.2176092174632e-09,5.0575847824225e-09,-0.0008152080176042,0.00081521075529859,-5.4658881833974e-09,8.6142739295481e-09,-0.0008772313929468,0.00087722688168563,-0.00087722675591329,0.00087723155770987,-0.00087722893904103,0.00087722932565461,-0.00087722434463651,0.00087723394906341,-0.00081874468250983,0.00081875927252638,-0.00081875174322929,0.00081875222106615,0.67223240827367,128566,2924,0.0033912608741827,0.0045200061222094,0.0033912608741326,40.851602963726,8.681282370981e-05,8.681282370981e-05,8.681282370981e-05,2861392.456546,0.011366844750768
7819200,0.66664295488843,0.011515703224959,0.0035255350251589,0.0044646331746861,0.0035255350251138,-0.00083975411879314,0.00083975347773847,3.4453779160917e-09,-4.0899128793528e-09,5.1662442547567e-09,-5.9957784901416e-09,-0.00090646005627807,0.00090646558626631,-0.00090646258054069,0.00090646313227232,-0.00090646359184144,0.00090646191134242,-0.00090646612499397,0.00090645937804999,-0.00084315273227607,0.00084315581352212,-0.00084316007252781,0.00084314827304052,-4.7442468537505e-09,6.3710068849953e-09,8.0863163248811e-09,-6.6632347293411e-09,-0.0011261003966141,0.0011261018466101,-0.0011823935683619,0.0011823961390801,-0.0011823982117455,0.0011823912078888,-0.0011823899870387,0.0011823998482475,-0.001182394684455,0.0011823948634199,-0.0010573381200929,0.0010573577767278,-0.0010573523526921,0.0010573429004335,-0.0010573547969279,0.0010573405501269,-0.0010573440054027,0.0010573516410122,-2.1949514803823e-09,5.3736839263556e-09,-0.00083975225861659,0.00083975533789185,-5.4800533099566e-09,8.9838970268764e-09,-0.00090646498732856,0.00090646059126677,-0.00090646022650611,0.00090646539087807,-0.00090646243709893,0.00090646313103506,-0.00090645771554391,0.00090646788175026,-0.00084314656048319,0.00084316190691523,-0.00084315391465938,0.00084315456294416,0.66655083359408,128566,2924,0.0034932136246814,0.0046807643157461,0.0034932136246334,40.921530687827,8.7372245502614e-05,8.7372245502614e-05,8.7372245502614e-05,2876470.6430343,0.011735752127488
8019200,0.68992648329055,0.011851621280252,0.003623081720018,0.00460545784026,0.0036230817199741,-0.00086285783162461,0.00086285718299533,3.5884954729082e-09,-4.2407068258313e-09,5.1496029447127e-09,-5.9862093066795e-09,-0.00093370771072458,0.00093371332336371,-0.00093371033394291,0.00093371077089264,-0.00093371123896329,0.00093370965631742,-0.00093371386923621,0.00093370702577869,-0.00086587507748315,0.00086587844571779,-0.00086588270327721,0.00086587061893748,-4.7335036163608e-09,6.3545096351514e-09,8.0738060806487e-09,-6.6566151355063e-09,-0.0011627270340333,0.0011627284782491,-0.0012217758145469,0.0012217783848435,-0.0012217804558094,0.0012217734574659,-0.0012217722431983,0.0012217820828545,-0.0012217769337893,0.0012217771062741,-0.0010906473314305,0.0010906669533284,-0.0010906615444427,0.0010906520978429,-0.0010906639788528,0.0010906497569744,-0.0010906532119952,0.0010906608216978,-2.2989570693036e-09,5.5629914647929e-09,-0.00086285592528183,0.00086285908931562,-5.4260348609772e-09,9.0153531103926e-09,-0.00093371268575398,0.0009337082847038,-0.0009337079337984,0.00093371307561587,-0.00093371003850436,0.00093371092150348,-0.00093370532419904,0.00093371566496957,-0.00086586886577859,0.00086588457888416,-0.00086587650880136,0.00086587694563929,0.66097249023161,128566,2924,0.0035891746222199,0.0048326097548236,0.0035891746221734,40.991000005829,8.7928000046629e-05,8.7928000046629e-05,8.7928000046629e-05,2879886.9010042,0.012083645925811
8219200,0.71213458949953,0.012169154447043,0.0037152736386316,0.0047386071698227,0.0037152736385886,-0.00088498219677864,0.00088498157112675,3.7466053908175e-09,-4.3762616576332e-09,5.1187382575268e-09,-5.930481401217e-09,-0.00095979608351671,0.00095980178995785,-0.0009597988048483,0.00095979913701138,-0.00095979958520481,0.00095979814942303,-0.0009598023115001,0.00095979542202862,-0.00088756817353612,0.00088757187710123,-0.00088757608183593,0.00088756376376342,-4.6942134874708e-09,6.3061948347236e-09,7.8794388003768e-09,-6.4709217821343e-09,-0.0011976582608225,0.0011976596964235,-0.0012595521273029,0.0012595545962866,-0.0012595566518288,0.0012595497942582,-0.0012595485858098,0.0012595582620149,-0.0012595531539592,0.0012595534163122,-0.0011221468921617,0.0011221660993302,-0.001122160737335,0.0011221516306656,-0.001122163240057,0.0011221492165808,-0.0011221525532126,0.0011221601964436,-2.4841548871227e-09,5.6712574023717e-09,-0.00088498034144825,0.00088498342643513,-5.2787750913092e-09,8.7820866745414e-09,-0.00095980112925831,0.00095979667945381,-0.00095979650485268,0.00095980134317178,-0.00095979838585407,0.0009597994129351,-0.00095979379598617,0.00095980403180709,-0.00088756208494457,0.0008875778855039,-0.0008875700179805,0.00088756996157268,0.65549139459171,128566,2924,0.0036810610702348,0.0049774039021432,0.0036810610701893,41.181251802334,8.9450014418669e-05,8.9450014418669e-05,8.9450014418669e-05,2880122.9448202,0.01241627086679
8419200,0.73331940222152,0.012471436114675,0.0038031136272645,0.0048652088601887,0.0038031136272219,-0.00090615862291624,0.00090615801832075,3.9038922182945e-09,-4.5128247185547e-09,5.092477203466e-09,-5.881679336116e-09,-0.00098475772741176,0.000984763527328,-0.00098476054474044,0.00098476077538223,-0.00098476120349874,0.00098475991143677,-0.00098476402779027,0.00098475708531137,-0.00090830531756696,0.00090830935521171,-0.00090831351421739,0.00090830095258188,-4.6613007206391e-09,6.2628008323218e-09,7.6887939168589e-09,-6.2902664049733e-09,-0.0012309345707836,0.0012309359964463,-0.0012957552439453,0.0012957576070543,-0.0012957596518029,0.0012957529299175,-0.0012957517266166,0.0012957612466214,-0.0012957561771201,0.0012957565266695,-0.0011519574872401,0.0011519762949125,-0.0011519709769607,0.0011519621995653,-0.001151973547801,0.0011519597126796,-0.0011519629352121,0.0011519706145285,-2.6735247672565e-09,5.7750864742902e-09,-0.00090615682168827,0.00090615981952715,-5.142149557449e-09,8.5515362828566e-09,-0.00098476284969513,0.00098475833860452,-0.00098475834589989,0.00098476288185466,-0.00098476000836809,0.00098476117052976,-0.00098475553983625,0.00098476566792704,-0.00090829935557961,0.00090831523649166,-0.0009083075746313,0.00090830702661619,0.65380934993614,128566,2924,0.0037690037129153,0.0051153172720413,0.0037690037128706,41.430484500143,9.1443876001146e-05,9.1443876001146e-05,9.1443876001146e-05,2873937.5453763,0.012734048232314
8619200,0.75346613450236,0.012758652184973,0.0038866629204218,0.0049853263441726,0.0038866629203789,-0.00092627038106873,0.00092626978823601,4.0564967914435e-09,-4.6538482607099e-09,5.0735259338646e-09,-5.8500836626362e-09,-0.0010082823348492,0.0010082882280576,-0.0010082852495284,0.0010082853770317,-0.0010082857948559,0.0010082846281873,-0.0010082887163045,0.001008281704203,-0.00092799292001216,0.00092799727197645,-0.00092800140173681,0.00092798858205617,-4.640901202301e-09,6.2321074213962e-09,7.5616604179354e-09,-6.173020388288e-09,-0.0012624247746777,0.0012624261905025,-0.0013301678368349,0.0013301701277984,-0.0013301721684862,0.0013301655323732,-0.0013301643362301,0.0013301737492964,-0.0013301687087159,0.0013301691128348,-0.0011800908131609,0.001180109352075,-0.0011801040664604,0.0011800955043531,-0.0011801066836227,0.0011800929681395,-0.0011800961188702,0.0011801038198892,-2.8443642926821e-09,5.8975836504109e-09,-0.00092626861056967,0.00092627155871408,-5.0472306742733e-09,8.4028780019498e-09,-0.0010082875359514,0.0010082829597147,-0.0010082831130972,0.0010082874221778,-0.0010082845973134,0.0010082858892163,-0.0010082802089173,0.0010082903064362,-0.00092798703452514,0.00092800307561592,-0.00092799554210285,0.00092799457719288,0.65260875353645,128566,2924,0.0038525187531591,0.0052458091173787,0.0038525187531156,41.681255229029,9.3450041832228e-05,9.3450041832228e-05,9.3450041832228e-05,2869060.2357456,0.013035435711105
8819200,0.77256642750661,0.01302059609923,0.0039626146340551,0.0050953668311627,0.003962614634012,-0.00094480965339815,0.00094480906713584,4.2065424645814e-09,-4.7973660754232e-09,5.0600877743305e-09,-5.8295016966071e-09,-0.0010302604254693,0.0010302664123023,-0.0010302634377964,0.00103026346255,-0.0010302638749954,0.0010302628231974,-0.0010302668935782,0.0010302598013108,-0.00094592256651544,0.00094592722335476,-0.0009459313345697,0.00094591824547202,-4.6283611292151e-09,6.2100803706604e-09,7.4770280867479e-09,-6.0976347342092e-09,-0.0012916901738106,0.0012916915804651,-0.0013623234686345,0.0013623257100301,-0.0013623277504646,0.0013623211680153,-0.0013623199792248,0.0013623293193801,-0.0013623243006985,0.0013623247375094,-0.0012060873027135,0.0012061056624369,-0.0012061004007173,0.0012060919765648,-0.0012061030476847,0.0012060894087793,-0.0012060925151897,0.0012061002267821,-3.00423733388e-09,6.0309874571789e-09,-0.00094480789980477,0.00094481082070781,-4.9822300961434e-09,8.3082786651593e-09,-0.0010302657087989,0.0010302610613406,-0.0010302613391653,0.0010302654706868,-0.0010302626727623,0.0010302640883293,-0.0010302583368779,0.0010302684530609,-0.00094591672892318,0.0009459329781797,-0.00094592552402003,0.00094592419240161,0.62941992706262,128566,2924,0.0039294989446938,0.0053670635710185,0.0039294989446494,41.932087292974,9.5456698343789e-05,9.5456698343789e-05,9.5456698343789e-05,2890685.6757199,0.013314310955061
9019200,0.790221350019,0.013262814942136,0.0040329555710023,0.005196903800174,0.0040329555709595,-0.00096111621248383,0.00096111561334022,4.3468530922542e-09,-4.9504355938167e-09,5.0737199926568e-09,-5.8565708407809e-09,-0.0010496558531883,0.0010496619390642,-0.0010496589644069,0.0010496588917884,-0.0010496593173698,0.001049658336482,-0.0010496624330878,0.0010496552169706,-0.00096165489620269,0.00096165981277933,-0.00096166395030295,0.00096165054904222,-4.6517731628171e-09,6.2273513140449e-09,7.7692641251376e-09,-6.3960781263213e-09,-0.0013178425924784,0.0013178439930321,-0.0013913307377859,0.0013913331545228,-0.0013913352115428,0.0013913284145619,-0.0013913272351114,0.0013913367774102,-0.0013913317481495,0.0013913319980274,-0.0012291189846102,0.0012291379296229,-0.0012291326542259,0.0012291236594157,-0.0012291351397169,0.0012291212573302,-0.0012291245661231,0.0012291321174238,-3.0870791208758e-09,6.241499482784e-09,-0.00096111438827315,0.00096111743752942,-5.20805124508e-09,8.6689743739627e-09,-0.0010496612689136,0.0010496564565891,-0.0010496567051854,0.0010496610599931,-0.001049658135383,0.001049659580857,-0.0010496536046834,0.0010496641405805,-0.00096164888341829,0.00096166574258017,-0.00096165796733261,0.00096165666856562,0.62977530102186,128566,2924,0.0039972055374031,0.0054754063681281,0.0039972055373586,41.750263590093,9.4002108720747e-05,9.4002108720747e-05,9.4002108720747e-05,2893621.1133107,0.013561375087013
9219200,0.80642471981439,0.01348263872947,0.0040967981828799,0.0052890423637526,0.0040967981828377,-0.00097566693446474,0.00097566632323698,4.4868235158218e-09,-5.1023043303056e-09,5.0844075318253e-09,-5.8797656938706e-09,-0.0010670527809292,0.001067058964817,-0.00106705599152,0.0010670558195937,-0.0010670562582565,0.0010670553499911,-0.0010670594698746,0.0010670521344693,-0.00097564434007501,0.0009756495157372,-0.00097565367700744,0.00097563997044066,-4.6716297725054e-09,6.2426889741958e-09,8.0430378890076e-09,-6.6744772882416e-09,-0.001341377609687,0.0013413790056772,-0.0014175516607874,0.0014175542442312,-0.0014175563143639,0.00141754931829,-0.0014175481474715,0.0014175578780907,-0.0014175528385895,0.0014175529146269,-0.0012497912062476,0.0012498106957166,-0.001249805407702,0.0012497958824353,-0.0012498077431665,0.001249793633889,-0.0012497971311375,0.0012498045334138,-3.1781401983496e-09,6.4451495080782e-09,-0.00097566504737141,0.00097566821030851,-5.422840252835e-09,9.0026517075294e-09,-0.0010670583294112,0.0010670533504596,-0.0010670535850505,0.0010670581344652,-0.0010670550988944,0.0010670565714825,-0.0010670503849446,0.0010670613145983,-0.00097563816401229,0.0009756556091552,-0.00097564754032389,0.00097564624333908,0.62300580232891,128566,2924,0.0040576190582723,0.0055728945229829,0.0040576190582272,41.452600750856,9.162080600685e-05,9.162080600685e-05,9.162080600685e-05,2896723.4824306,0.013782706503967
9419200,0.82128580172624,0.013681956399264,0.0041546855954174,0.0053725852084707,0.0041546855953762,-0.00098877330142999,0.00098877268302115,4.6305510095253e-09,-5.2531009159191e-09,5.0826133187531e-09,-5.8853211363615e-09,-0.001082816687951,0.0010828229632274,-0.0010828199960683,0.0010828197212225,-0.0010828201659122,0.0010828193482923,-0.0010828234764808,0.0010828160336259,-0.00098824027672464,0.00098824573503458,-0.00098824990487911,0.00098823589911134,-4.6753539074415e-09,6.2417263471328e-09,8.1966911531235e-09,-6.8328002928766e-09,-0.0013626906170742,0.0013626920084772,-0.0014413665763895,0.00144136925572,-0.0014413713294041,0.0014413642264417,-0.0014413630607535,0.0014413728920276,-0.0014413678540596,0.0014413678225025,-0.0012684930676714,0.0012685128621018,-0.0012685075747018,0.0012684977371197,-0.0012685098091978,0.0012684955913506,-0.001268499197269,0.0012685064913179,-3.2860069469272e-09,6.629179514313e-09,-0.0009887713722892,0.00098877461213969,-5.5380970052321e-09,9.1976832044915e-09,-0.0010828223450503,0.0010828172406643,-0.0010828174968477,0.0010828221285471,-0.0010828190161667,0.0010828205599815,-0.0010828142002901,0.0010828254051035,-0.00098823401100962,0.00098825191819691,-0.0009882436707496,0.0009882422693165,0.61620824011264,128566,2924,0.0041120331608068,0.0056611689933226,0.0041120331607607,41.151844172543,8.921475338034e-05,8.921475338034e-05,8.921475338034e-05,2902587.345207,0.013982575575392
9619200,0.83491098838671,0.01386253743592,0.0042071247593881,0.0054482879171845,0.0042071247593478,-0.0010005851191587,0.0010005844972373,4.7754824354367e-09,-5.4013798933566e-09,5.0726853631482e-09,-5.8788486817376e-09,-0.0010970672716204,0.001097073636263,-0.0010970706784051,0.001097070296781,-0.0010970707448546,0.0010970700266038,-0.0010970741529551,0.0010970666146581,-0.00099957820604416,0.00099958395257905,-0.00099958812107325,0.00099957383122221,-4.6694629148191e-09,6.2309193767489e-09,8.2746664367968e-09,-6.9156320500703e-09,-0.0013819766164596,0.0013819780030713,-0.001462987800069,0.0014629905328513,-0.0014629926045999,0.0014629854496362,-0.0014629842896779,0.0014629941637718,-0.0014629891347537,0.0014629890401614,-0.0012853732994567,0.0012853932405756,-0.0012853879614978,0.0012853779565227,-0.0012853901344775,0.0012853758738946,-0.0012853795383549,0.0012853867581941,-3.4052546286321e-09,6.8030239801668e-09,-0.0010005831604291,0.0010005864559444,-5.5892595145173e-09,9.3059963626365e-09,-0.001097073021666,0.0010970678214414,-0.0010970681209134,0.0010970727619066,-0.0010970695953352,0.0010970712380614,-0.0010970647262555,0.0010970761364438,-0.00099957188709257,0.00099959018942665,-0.00099958183501422,0.00099958025292872,0.60938040508493,128566,2924,0.0041610704121118,0.0057410405762481,0.0041610704120651,40.850963704692,8.680770963754e-05,8.680770963754e-05,8.680770963754e-05,2909295.4970407,0.01416305457906
9819200,0.84716640530997,0.014025844693262,0.0042546354576598,0.0055165737779815,0.0042546354576208,-0.0010104492620817,0.0010104486322489,4.9326726087818e-09,-5.566341510283e-09,5.0778604802156e-09,-5.8921290605017e-09,-0.0011090781124429,0.0011090845732112,-0.0011090816181175,0.0011090811366777,-0.0011090815832629,0.0011090809667135,-0.0011090851071775,0.0011090774394164,-0.0010090737300133,0.0010090798013557,-0.0010090839848174,0.0010090693432581,-4.6721972768744e-09,6.2291981333906e-09,8.515611024458e-09,-7.1610484528265e-09,-0.0013985084798453,0.0013985098625176,-0.0014816363090708,0.0014816391886983,-0.0014816412622647,0.001481633951798,-0.001481632789142,0.0014816428297215,-0.0014816378006852,0.001481637533469,-0.0012997758447386,0.0012997962884003,-0.0012997910063318,0.0012997804938459,-0.0012997929972198,0.0012997785981401,-0.0012997824266143,0.0012997894555822,-3.4817382205741e-09,6.990472600219e-09,-0.0010104472432971,0.0010104506510105,-5.7779508367446e-09,9.6116916220216e-09,-0.001109083986214,0.0011090786356956,-0.0011090789127346,0.0011090837489544,-0.0011090804623809,0.0011090821496205,-0.0011090754381836,0.001109087203178,-0.0010090673187396,0.0010090861320068,-0.0010090775023576,0.0010090759600317,0.61213711033377,128566,2924,0.0042020217375796,0.0058094996351996,0.0042020217375321,40.185169015594,8.148135212475e-05,8.148135212475e-05,8.148135212475e-05,2909149.5608904,0.014315583027469
10019200,0.85818110263437,0.014173664942491,0.0042977245752844,0.0055782157919601,0.0042977245752469,-0.0010191194716537,0.0010191188395203,5.0649176064754e-09,-5.7008338238544e-09,5.0687493274411e-09,-5.8852421643623e-09,-0.0011196498688804,0.0011196564215555,-0.0011196534739488,0.0011196528862961,-0.0011196533439889,0.0011196528110793,-0.0011196569489535,0.0011196492027468,-0.001017491093034,0.0010174974023321,-0.0010175015829037,0.0010174867085484,-4.6730412597972e-09,6.2268350184645e-09,8.6319119940138e-09,-7.280548311129e-09,-0.0014131396005286,0.001413140979677,-0.001498135013668,0.0014981379774172,-0.0014981400518173,0.0014981326514543,-0.0014981315035836,0.0014981416077436,-0.0014981365817276,0.001498136242413,-0.0013125688911992,0.0013125895328602,-0.0013125842515142,0.0013125735313666,-0.0013125861949463,0.0013125716868616,-0.0013125755974878,0.0013125825702159,-3.6082654959917e-09,7.183162938621e-09,-0.0010191174184091,0.0010191208927404,-5.8553423186644e-09,9.7587378766398e-09,-0.0011196558414621,0.0011196503855503,-0.0011196507023167,0.0011196555645097,-0.0011196522214153,0.0011196539957865,-0.0011196471134269,0.0011196591329583,-0.0010174845614391,0.0010175038526288,-0.0010174950837857,0.0010174933426874,0.61574676852518,128566,2924,0.0042380159688163,0.0058700825465391,0.0042380159687657,39.481077093815,7.5848616750519e-05,7.5848616750519e-05,7.5848616750519e-05,2905197.8208386,0.014450084135997
10219200,0.86809432198775,0.014307830310789,0.0043369083236919,0.0056340136634404,0.0043369083236566,-0.0010268041934495,0.0010268035617544,5.2123206330631e-09,-5.847747265823e-09,5.0559217101707e-09,-5.8717490625084e-09,-0.0011290320023013,0.0011290386443465,-0.001129035705231,0.0011290350117489,-0.0011290354685503,0.0011290350431315,-0.0011290391719724,0.0011290313363931,-0.0010250078641906,0.0010250144725585,-0.001025018644993,0.0010250034897828,-4.6616843070973e-09,6.2109762031757e-09,8.6360960170183e-09,-7.2891065760328e-09,-0.0014261726421408,0.0014261740169291,-0.0015128038323193,0.0015128068044939,-0.0015128088735646,0.0015128014741067,-0.0015128003306153,0.0015128104259543,-0.0015128054125715,0.0015128050557594,-0.0013239993872867,0.0013240200287794,-0.0013240147599585,0.0013240040130013,-0.0013240166806785,0.0013240021917316,-0.0013240061111665,0.0013240130472907,-3.7354785295186e-09,7.347489875612e-09,-0.0010268021216767,0.0010268056335023,-5.8424419008809e-09,9.7843293991967e-09,-0.0011290380520407,0.001129032531527,-0.0011290329083875,0.0011290377150305,-0.0011290343342691,0.0011290362394226,-0.001129029222649,0.0011290413803467,-0.0010250013201376,0.0010250209362678,-0.0010250121261549,0.0010250101426597,0.62007022707315,128566,2924,0.0042699186443549,0.005924044105524,0.0042699186443036,38.775883581851,7.0207068654807e-05,7.0207068654807e-05,7.0207068654807e-05,2899246.7978471,0.014569580362765
10419200,0.8770438933927,0.01443011822094,0.0043726890463385,0.0056847401282973,0.0043726890463047,-0.0010337105334781,0.0010337099062194,5.3623250448162e-09,-5.9933466981918e-09,5.0360388799856e-09,-5.847076670586e-09,-0.0011374446458749,0.0011374513748198,-0.0011374484457556,0.0011374476447945,-0.0011374480961611,0.0011374477895463,-0.0011374518992017,0.0011374439830263,-0.0010317774558717,0.0010317843764653,-0.0010317885299225,0.0010317731007588,-4.6415176242344e-09,6.1854798191904e-09,8.5117973662567e-09,-7.1699018046568e-09,-0.0014378842044081,0.0014378855741063,-0.0015259821926451,0.0015259850933262,-0.0015259871532731,0.0015259798451668,-0.0015259787044917,0.0015259887005772,-0.0015259837080797,0.0015259834106147,-0.0013342943853946,0.0013343147714332,-0.0013343095244915,0.0013342989925443,-0.0013343114901315,0.0013342971254783,-0.0013343009691074,0.0013343079317744,-3.8858653264541e-09,7.4872861958017e-09,-0.001033708469337,0.0010337119703418,-5.7278188955939e-09,9.6572890962036e-09,-0.0011374507531013,0.00113744520428,-0.0011374456884509,0.0011374503087949,-0.0011374469372977,0.001137449010295,-0.0011374419071645,0.0011374540696945,-0.0010317709730372,0.0010317907790918,-0.0010317820595575,0.0010317797050232,0.6250614251137,128566,2924,0.0042985897004159,0.0059725311097775,0.0042985897003772,38.100791596344,6.4806332770752e-05,6.4806332770752e-05,6.4806332770752e-05,2890482.0508447,0.014676975348605
10619200,0.88539828837313,0.014542123736943,0.0044054158770996,0.0057312919827777,0.0044054158770653,-0.001041121482507,0.0010411208738135,5.5155290395797e-09,-6.1281342409755e-09,4.9838873834575e-09,-5.7751089785026e-09,-0.0011462924763418,0.0011462992793988,-0.0011462963715797,0.0011462954511007,-0.0011462958859588,0.001146295733914,-0.0011462997841265,0.0011462918318276,-0.0010390223546265,0.0010390296140616,-0.0010390337072428,0.0010390180578502,-4.5846159720114e-09,6.1195077201221e-09,7.9468864607795e-09,-6.6134393980837e-09,-0.0014497784069935,0.0014497797682373,-0.0015392543001153,0.0015392568638898,-0.00153925889712,0.0015392519901882,-0.0015392508525514,0.001539260429013,-0.0015392554909026,0.0015392555154353,-0.0013448407962274,0.0013448600298274,-0.0013448548435605,0.0013448453655231,-0.001344857091544,0.0013448432085111,-0.0013448466878911,0.0013448538948515,-4.1167365034209e-09,7.5541132312265e-09,-0.001041119510526,0.0010411228457747,-5.2554250990178e-09,9.0086609974488e-09,-0.0011462985646767,0.0011462931263479,-0.001146293872866,0.0011462978581337,-0.001146294650582,0.001146297030905,-0.0011462899917193,0.0011463017189446,-0.0010390161612047,0.0010390357263595,-0.0010390275415894,0.0010390243582852,0.61395112245355,128566,2924,0.0043293528682786,0.006021772516944,0.0043293528682375,38.029641441925,6.42371315354e-05,6.42371315354e-05,6.42371315354e-05,2887084.3612634,0.014789393433782
10819200,0.89319967978141,0.014644894872478,0.0044354070845501,0.0057740807034116,0.0044354070845159,-0.0010479654060104,0.0010479648104906,5.6700317663371e-09,-6.2696217563424e-09,4.9538786273422e-09,-5.7310512176722e-09,-0.0011544861599199,0.0011544930496609,-0.0011544901519823,0.0011544891218453,-0.0011544895443875,0.001154489528651,-0.0011544935411163,0.001154485527236,-0.0010456670161465,0.0010456746036168,-0.0010456786582809,0.0010456627555341,-4.5509097750655e-09,6.0780244224084e-09,7.5775503879783e-09,-6.2514562605377e-09,-0.0014607873735771,0.0014607887274798,-0.0015515727538007,0.0015515750938944,-0.0015515771141042,0.0015515704657284,-0.0015515693300984,0.0015515786339436,-0.0015515737322944,0.0015515739656195,-0.0013545757220292,0.0013545942063526,-0.001354589061969,0.0013545802686315,-0.0013545914941254,0.0013545779210174,-0.0013545811645066,0.0013545885311617,-4.3250474588535e-09,7.6354424383718e-09,-0.0010479635050362,0.0010479667114449,-4.9614377102483e-09,8.5779016880154e-09,-0.0011544922824589,0.0011544868611028,-0.0011544878307179,0.0011544913528598,-0.0011544882714207,0.0011544908628054,-0.0011544838533601,0.0011544953100002,-0.0010456610279047,0.0010456805096319,-0.0010456726908817,0.0010456688587204,0.60386753630718,128566,2924,0.004357761381493,0.0060673466174636,0.0043577613814519,37.97375660192,6.3790052815363e-05,6.3790052815363e-05,6.3790052815363e-05,2889359.0193934,0.014893322042659
11019200,0.90048141991674,0.014738997852666,0.0044628319374057,0.0058133339778881,0.0044628319373717,-0.0010542412722054,0.0010542406836381,5.8198483066016e-09,-6.4125649383683e-09,4.9426377527396e-09,-5.7123697310847e-09,-0.0011620274754309,0.0011620344598188,-0.001162031564157,0.0011620304334467,-0.0011620308499048,0.0011620309483472,-0.0011620349438653,0.0011620268490596,-0.0010517242002299,0.001051732090538,-0.0010517361278247,0.0010517199554844,-4.5388926807678e-09,6.060019437213e-09,7.3832281008613e-09,-6.0628965734361e-09,-0.0014709378245718,0.0014709391727278,-0.0015629608113964,0.0015629630298593,-0.0015629650489139,0.001562958530372,-0.0015629573972622,0.0015629665595721,-0.0015629616764034,0.0015629620204201,-0.0013635255200832,0.0013635436124797,-0.0013635384903009,0.0013635300574927,-0.0013635410253795,0.0013635276025187,-0.0013635307244668,0.001363538182654,-4.5135298304567e-09,7.7397686486673e-09,-0.0010542394174571,0.0010542425383668,-4.8164141240899e-09,8.3422957416227e-09,-0.0011620336724823,0.0011620281958237,-0.0011620293469234,0.0011620325614313,-0.0011620295639163,0.0011620322951706,-0.0011620252719567,0.0011620366162507,-0.0010517183241517,0.0010517378836446,-0.0010517302742095,0.0010517259455526,0.59320719553028,128566,2924,0.0043838112148158,0.0061093644531984,0.0043838112147749,37.918475246929,6.3347801975429e-05,6.3347801975429e-05,6.3347801975429e-05,2895144.1758145,0.014988863030655
11219200,0.90726607921728,0.014826615001682,0.0044883869271534,0.0058498411474086,0.0044883869271195,-0.0010600069572612,0.0010600063676941,5.9655355310966e-09,-6.5592598987511e-09,4.9510266067563e-09,-5.7217963437552e-09,-0.0011689486229264,0.0011689557098304,-0.001168952808869,0.001168951585616,-0.001168952003454,0.0011689521922787,-0.0011689561946009,0.0011689479953763,-0.001057294362981,0.0010573025324611,-0.0010573065763474,0.001057290110873,-4.5495880113269e-09,6.0671682951144e-09,7.4058258683386e-09,-6.0890773841597e-09,-0.0014802904415109,0.0014802917861242,-0.0015734675706968,0.001573469796281,-0.001573471825646,0.0015734652809336,-0.0015734641506021,0.0015734733317333,-0.0015734684469026,0.0015734687772128,-0.0013717832926645,0.0013718014348133,-0.0013717963123399,0.0013717878345449,-0.0013717988430253,0.0013717853824321,-0.0013717885242009,0.0013717959803617,-4.6686533318528e-09,7.8777780599293e-09,-0.0010600051107542,0.001060008214181,-4.8502155464209e-09,8.3573461789856e-09,-0.0011689549366503,0.0011689493288814,-0.0011689505947311,0.0011689537108595,-0.0011689507304285,0.0011689535258686,-0.0011689464219983,0.0011689578634665,-0.0010572884830183,0.0010573083289859,-0.0010573007202964,0.0010572961038162,0.59263236075361,128566,2924,0.0044077427448357,0.0061480779736658,0.0044077427447943,37.837714308515,6.270171446812e-05,6.270171446812e-05,6.270171446812e-05,2900098.6832688,0.015076756992516
11419200,0.91354389718123,0.014908265627198,0.0045122396402095,0.0058837863468124,0.0045122396401758,-0.0010651056820956,0.0010651050845287,6.1037674201576e-09,-6.7053969495469e-09,4.973315134903e-09,-5.7525278749868e-09,-0.0011750962423849,0.0011751034341458,-0.001175100523741,0.0011750992151629,-0.0011750996409249,0.0011750998989657,-0.0011751039267739,0.0011750956072212,-0.0010622347511966,0.0010622431732409,-0.0010622472427996,0.0010622304737774,-4.5781334281663e-09,6.0947269126294e-09,7.6299030005831e-09,-6.3144834533944e-09,-0.0014886864978212,0.0014886878411172,-0.0015829248951579,0.0015829272495056,-0.0015829292971823,0.0015829225838655,-0.0015829214568225,0.0015829308033782,-0.0015829258998054,0.0015829260993558,-0.0013791943416418,0.0013792129412463,-0.0013792077988234,0.0013791988979758,-0.0013792102218441,0.0013791965549341,-0.0013791998477468,0.0013792072095262,-4.7922484940797e-09,8.0552594167301e-09,-0.001065103804468,0.0010651069621363,-5.0412031341753e-09,8.6057177883161e-09,-0.0011751027049435,0.0011750969047253,-0.0011750982170711,0.0011751014326318,-0.0011750983986004,0.0011751012017156,-0.0011750939439537,0.0011751056856159,-0.001062228750333,0.0010622490906942,-0.0010622412829465,0.0010622365705058,0.5962623791143,128566,2924,0.0044289060814598,0.006182830191883,0.0044289060814183,37.630848727683,6.1046789821467e-05,6.1046789821467e-05,6.1046789821467e-05,2901421.8475847,0.015155015428302
11619200,0.9193529581492,0.01498420005644,0.0045344507694836,0.0059152985175061,0.0045344507694502,-0.0010698007966,0.0010698001913208,6.2497557353203e-09,-6.8589625887729e-09,4.9914202945344e-09,-5.7787731997396e-09,-0.00118075403159,0.0011807613300189,-0.0011807584131504,0.00118075701212,-0.0011807574450588,0.0011807577804592,-0.0011807618306899,0.0011807533891409,-0.0010668001717573,0.0010668088648872,-0.001066812957564,0.0010667958730776,-4.5995097834863e-09,6.1151185312088e-09,7.8476985101386e-09,-6.5334553056605e-09,-0.0014964174262693,0.001496418768463,-0.0015916310588749,0.0015916335425452,-0.0015916356032743,0.0015916287306547,-0.0015916276067695,0.0015916371104737,-0.0015916321921455,0.0015916322603141,-0.0013860252651559,0.0013860443063492,-0.0013860391470304,0.0013860298302422,-0.0013860414568723,0.0013860276030508,-0.0013860310422068,0.0013860382991952,-4.9025063951588e-09,8.2308448795925e-09,-0.0010697988820334,0.0010698021058676,-5.2270971255356e-09,8.8614062218837e-09,-0.0011807606362475,0.0011807546592117,-0.0011807560017223,0.0011807593337659,-0.001180756234237,0.0011807590516843,-0.0011807516331171,0.0011807636821768,-0.0010667940612149,0.001066814892778,-0.0010668068739389,0.0010668020928701,0.59873358853784,128566,2924,0.004448394140335,0.0062148280015568,0.0044483941402937,37.420789587577,5.936631670062e-05,5.936631670062e-05,5.936631670062e-05,2899923.246887,0.015227080795918
11819200,0.92472962375009,0.01505496786826,0.0045551791770215,0.0059446095142506,0.0045551791769883,-0.00107413672074,0.0010741361095892,6.3933326880382e-09,-7.0083063743326e-09,5.0021347201315e-09,-5.7956394630162e-09,-0.0011859716821559,0.0011859790816226,-0.0011859761618774,0.0011859746666096,-0.0011859751050322,0.0011859755230627,-0.0011859795883818,0.0011859710342725,-0.0010710336399591,0.0010710426048286,-0.0010710467130674,0.001071029327177,-4.6137557641637e-09,6.1283483831636e-09,8.0294249545793e-09,-6.7163406280512e-09,-0.0015035474010211,0.0015035487420992,-0.0015996587541404,0.0015996613480186,-0.001599663417169,0.0015996564137964,-0.001599655293046,0.0015996649251073,-0.0015996599968965,0.0015996599529166,-0.0013923334250665,0.001392352832065,-0.0013923476607377,0.0013923379941905,-0.0013923498718063,0.0013923358686103,-0.0013923394300778,0.0013923465923381,-5.0179010467182e-09,8.4078825150865e-09,-0.0010741347720126,0.0010741380582972,-5.3757150765945e-09,9.0758246775029e-09,-0.0011859784158196,0.0011859722823709,-0.0011859736607712,0.0011859770774568,-0.0011859739162824,0.0011859767722796,-0.0011859691946112,0.0011859815233603,-0.001071027431482,0.0010710487312798,-0.0010710405308588,0.0010710356448854,0.6021809197409,128566,2924,0.0044663913005553,0.0062443373483355,0.004466391300515,37.210604197105,5.768483357684e-05,5.768483357684e-05,5.768483357684e-05,2896493.5654226,0.015293596218668
12019200,0.9297148820007,0.015122678503347,0.0045750886411174,0.0059725012211449,0.0045750886410843,-0.0010782824418238,0.0010782818302257,6.5393902258564e-09,-7.154727210212e-09,4.9986767815467e-09,-5.7926136246888e-09,-0.0011908990828107,0.0011909065773174,-0.0011909036606371,0.0011909020653641,-0.0011909025037611,0.0011909030209557,-0.0011909070849523,0.0011908984350849,-0.0010751366969342,0.0010751459499458,-0.0010751500572219,0.0010751323867688,-4.6116089929814e-09,6.1240038634151e-09,8.0966202005753e-09,-6.7857090710693e-09,-0.0015102608191827,0.0015102621581136,-0.0016071856046176,0.0016071882435832,-0.0016071903119383,0.0016071832633824,-0.001607182145602,0.0016071918184522,-0.0016071868936293,0.001607186800516,-0.0013983189667652,0.0013983385033075,-0.0013983333342527,0.0013983235295551,-0.0013983354977873,0.0013983214533011,-0.0013983250623142,0.0013983321709213,-5.1498323958722e-09,8.5688089190911e-09,-0.0010782804780203,0.0010782837940101,-5.4278675323727e-09,9.1591046525131e-09,-0.0011909059210639,0.0011908996741441,-0.0011909011210821,0.0011909045141833,-0.0011909013238737,0.0011909042615769,-0.001190896557209,0.0011909090576737,-0.0010751304526827,0.0010751521128288,-0.001075143839006,0.0010751387398186,0.61929849981546,128566,2924,0.004483598805098,0.0062721220769876,0.0044835988050585,37.028205130905,5.6225641047242e-05,5.6225641047242e-05,5.6225641047242e-05,2888212.35317,0.01535675957875
12219200,0.93435514214968,0.015187823877559,0.0045943137330685,0.0059991964114547,0.0045943137330354,-0.0010823587578012,0.0010823581505841,6.6888735930087e-09,-7.2998407969e-09,4.983861957214e-09,-5.7730937215967e-09,-0.0011956905864144,0.0011956981721887,-0.0011956952625222,0.0011956935619918,-0.0011956939961674,0.0011956946270666,-0.0011956986755291,0.0011956899432293,-0.0010792297631464,0.0010792393199776,-0.0010792434118354,0.0010792254689525,-4.5958451824373e-09,6.1048310653074e-09,8.0384090808851e-09,-6.730740514968e-09,-0.0015167319117212,0.0015167332474275,-0.0016143831613993,0.001614385771483,-0.001614387832059,0.0016143808289545,-0.0016143797137561,0.0016143893345394,-0.0016143844248861,0.0016143843545661,-0.0014041433308495,0.0014041627410311,-0.0014041575877439,0.001404147879776,-0.0014041597654224,0.0014041457891683,-0.0014041493635884,0.0014041564723561,-5.3001510403511e-09,8.7091924730048e-09,-0.0010823568011451,0.0010823601072211,-5.3782444657351e-09,9.0985910683325e-09,-0.0011956975053401,0.0011956911884115,-0.0011956927420517,0.0011956959917916,-0.0011956928113249,0.0011956958726821,-0.0011956880811373,0.0011957006322915,-0.0010792235516446,0.0010792454503264,-0.0010792372229964,0.0010792317923869,0.63789980691158,128566,2924,0.0045005184064684,0.0062989028705203,0.004500518406429,36.914452629009,5.5315621032069e-05,5.5315621032069e-05,5.5315621032069e-05,2874157.3734582,0.015418321612505
12419200,0.93867478166578,0.015246474552795,0.0046115650157927,0.006023344521242,0.0046115650157597,-0.0010860539804349,0.0010860533781538,6.8369226538677e-09,-7.4429840926876e-09,4.9692501850955e-09,-5.7531926579135e-09,-0.0012001072682811,0.0012001149446293,-0.0012001120413415,0.0012001102372176,-0.0012001106666437,0.0012001114108636,-0.0012001154431516,0.0012001066299488,-0.0010829023049988,0.0010829121632378,-0.0010829162388488,0.0010828980270897,-4.5804251432148e-09,6.0859716425086e-09,7.9564349164925e-09,-6.6520395446992e-09,-0.0015227048550762,0.0015227061875213,-0.0016210276169881,0.0016210301821653,-0.0016210322355473,0.001621025293414,-0.0016210241803836,0.0016210337337042,-0.0016210288393996,0.0016210288076093,-0.0014094795579429,0.0014094987957107,-0.0014094936588472,0.0014094840940124,-0.0014094958658197,0.0014094819732134,-0.0014094854973512,0.0014094926222538,-5.4578427352428e-09,8.8455568877547e-09,-0.0010860520370054,0.0010860553215642,-5.3088168183491e-09,9.006025605801e-09,-0.0012001142651393,0.0012001078828313,-0.0012001095555755,0.0012001126325218,-0.0012001094731452,0.0012001126651158,-0.0012001047966863,0.0012001173709838,-0.0010828961376905,0.0010829182493897,-0.001082910096964,0.0010829043035564,0.61826606047223,128566,2924,0.0045158569681483,0.0063236199950446,0.0045158569681088,36.802442171351,5.4419537370812e-05,5.4419537370812e-05,5.4419537370812e-05,2863145.9721333,0.015474581614227
12619200,0.94269614759917,0.015298125375798,0.0046266728617037,0.0060447796524231,0.0046266728616708,-0.001089334645636,0.0010893340478774,6.9854807721148e-09,-7.5870778280172e-09,4.957082251334e-09,-5.7362401586242e-09,-0.0012040777391054,0.0012040855079402,-0.0012040826095869,0.0012040807027752,-0.0012040811278945,0.0012040819836816,-0.0012040860019422,0.0012040771052714,-0.0010860840339547,0.0010860941926616,-0.001086098254185,0.0010860797700536,-4.5674130766069e-09,6.0697840432051e-09,7.8754266872971e-09,-6.574132428767e-09,-0.0015280950891573,0.0015280964185284,-0.001627069445721,0.0016270719651282,-0.001627074012883,0.0016270671295876,-0.0016270660185656,0.0016270755067933,-0.0016270706260487,0.0016270706341375,-0.0014142366163294,0.0014142556850683,-0.0014142505629398,0.0014142411415932,-0.0014142528020035,0.0014142389875335,-0.0014142424618912,0.0014142496077033,-5.6161001078552e-09,8.9798460847761e-09,-0.0010893327165896,0.0010893359769046,-5.2426236059769e-09,8.9138856966837e-09,-0.0012040848165133,0.0012040783654686,-0.0012040801595029,0.0012040830626249,-0.0012040799270567,0.0012040832452516,-0.0012040753030634,0.001204087898636,-0.0010860779117351,0.0010861002336858,-0.0010860921575324,0.0010860860012336,0.58731201750333,128566,2924,0.0045294742044903,0.0063459251718942,0.0045294742044505,36.690500573247,5.3524004585974e-05,5.3524004585974e-05,5.3524004585974e-05,2861951.0214651,0.015524899265941
12819200,0.94640624325619,0.015346168110818,0.0046407464296898,0.0060646752514709,0.0046407464296569,-0.0010920296929824,0.0010920290925729,7.1370244319773e-09,-7.7412246817412e-09,4.96429282585e-09,-5.7461661903319e-09,-0.0012073535345616,0.0012073614088245,-0.001207358507607,0.001207356501413,-0.0012073569298137,0.0012073578782199,-0.0012073619048887,0.0012073528989159,-0.0010886776194487,0.001088688066837,-0.0010886921369446,0.001088673347601,-4.5744297086654e-09,6.0754926655165e-09,7.9164667961382e-09,-6.6165449241532e-09,-0.0015326687298849,0.0015326700579468,-0.0016322605935004,0.0016322631358476,-0.0016322651890206,0.0016322582716078,-0.0016322571628543,0.0016322666810879,-0.0016322617970401,0.0016322617812049,-0.0014182416501654,0.0014182608013463,-0.0014182556755734,0.001418246177785,-0.0014182578987828,0.0014182440405042,-0.0014182475433719,0.0014182546750919,-5.7477838742326e-09,9.1275763649104e-09,-0.001092027754546,0.0010920310309893,-5.2844099511975e-09,8.9724749247467e-09,-0.0012073607196911,0.0012073541588373,-0.0012073560302114,0.0012073588884703,-0.0012073557375658,0.0012073591312093,-0.0012073510796706,0.0012073638185279,-0.001088671479041,0.0010886941262445,-0.0010886860009178,0.0010886796179659,0.5913455306985,128566,2924,0.0045406603047544,0.0063648514893065,0.0045406603047131,36.407282068226,5.1258256545806e-05,5.1258256545806e-05,5.1258256545806e-05,2864252.645041,0.015566847975687
13019200,0.94978633771886,0.015390088076375,0.0046536236587459,0.0060828407589161,0.0046536236587132,-0.0010939687517455,0.0010939681432311,7.2701125358613e-09,-7.8823127076943e-09,4.9832839265581e-09,-5.7736988296993e-09,-0.0012098124854932,0.0012098204580702,-0.0012098175499214,0.0012098154605252,-0.001209815895406,0.0012098169131381,-0.0012098209635924,0.0012098118412978,-0.0010905330388957,0.001090543734562,-0.0010905478290506,0.0010905287445291,-4.6002480157573e-09,6.102078076821e-09,8.0993778439783e-09,-6.7988882545719e-09,-0.0015363066393641,0.0015363079679952,-0.0016364587475687,0.0016364613924549,-0.0016364634605026,0.0016364564070525,-0.0016364552987405,0.0016364649561783,-0.0016364600525282,0.0016364599332626,-0.0014213663704612,0.0014213859013997,-0.0014213807538468,0.0014213709119826,-0.0014213828907814,0.0014213688634932,-0.0014213724877314,0.0014213795473477,-5.8746623575185e-09,9.3115003523666e-09,-0.0010939667803956,0.0010939701145582,-5.4234031365217e-09,9.1726228479413e-09,-0.0012098198003129,0.001209813079095,-0.0012098149969864,0.0012098179225866,-0.0012098147138688,0.0012098181556245,-0.0012098099442163,0.0012098229547545,-0.0010905267877984,0.001090549905392,-0.0010905416109311,0.0010905350962739,0.59302696119275,128566,2924,0.0045487099613141,0.0063799043266573,0.004548709961267,35.874925435376,4.6999403483008e-05,4.6999403483008e-05,4.6999403483008e-05,2864009.3296955,0.015598492944051
13219200,0.95286928348251,0.01543031772204,0.0046654303789028,0.0060994569642664,0.0046654303788706,-0.001095642323227,0.0010956417093505,7.4224361069918e-09,-8.0398572963834e-09,4.9951851061194e-09,-5.7913041289283e-09,-0.0012119516376833,0.0012119597196488,-0.0012119568078245,0.0012119546181502,-0.0012119550593782,0.0012119561632801,-0.001211960229268,0.0012119509907408,-0.0010921391330977,0.0010921501119706,-0.0010921542228103,0.0010921348252582,-4.6137559269234e-09,6.1157251082665e-09,8.1974666375506e-09,-6.8969711807353e-09,-0.0015395228409249,0.0015395241695175,-0.001640180028243,0.0016401827306709,-0.0016401848067808,0.0016401776775808,-0.0016401765724302,0.0016401863016833,-0.0016401813879816,0.0016401812148263,-0.001424121704253,0.0014241414307399,-0.0014241362713496,0.001424126251799,-0.0014241383694739,0.0014241242447056,-0.0014241279342124,0.0014241349612416,-5.9937891225239e-09,9.4674471768864e-09,-0.0010956403303513,0.0010956437022053,-5.5085207941768e-09,9.2976792959167e-09,-0.0012119590690939,0.0012119522250906,-0.001211954197925,0.0012119571363368,-0.0012119538923665,0.0012119573916209,-0.0012119490512975,0.0012119622621997,-0.0010921328338567,0.0010921563321152,-0.0010921479318892,0.0010921412486392,0.59512402991978,128566,2924,0.0045556578659646,0.0063932118342277,0.0045556578659214,35.336224671618,4.2689797372947e-05,4.2689797372947e-05,4.2689797372947e-05,2862102.8664728,0.015626127555419
13419200,0.95568533813709,0.015466466875719,0.0046760258742401,0.0061144151272711,0.0046760258742082,-0.0010970534859603,0.00109705286965,7.5620330554339e-09,-8.1818019000686e-09,4.9983031155392e-09,-5.7969399660515e-09,-0.0012137982694972,0.001213806444727,-0.0012138035327579,0.0012138012508706,-0.0012138016928773,0.001213802886784,-0.0012138069584465,0.0012137976192129,-0.0010934785102936,0.001093489763457,-0.0010934938803985,0.0010934741980924,-4.6186888658138e-09,6.1200309161977e-09,8.2418768248499e-09,-6.9420590619197e-09,-0.0015423430757153,0.0015423444036781,-0.001643461997803,0.0016434647246969,-0.0016434668039422,0.0016434596428925,-0.001643458537567,0.0016434683001639,-0.0016434633834274,0.0016434631819592,-0.0014265139459912,0.0014265337670207,-0.0014265286037837,0.0014265184946779,-0.0014265306753366,0.0014265165152545,-0.0014265202351909,0.001426527236949,-6.135891673622e-09,9.6287082179006e-09,-0.0010970514820638,0.0010970548735242,-5.539401769196e-09,9.3490941390971e-09,-0.0012138058029147,0.0012137988486258,-0.0012138009030819,0.0012138037885722,-0.0012138005238926,0.0012138041173155,-0.0012137956567766,0.0012138090139793,-0.0010934721787451,0.0010934960165873,-0.0010934875701469,0.001093480640109,0.58608286872457,128566,2924,0.0045615168588863,0.0064048803450351,0.0045615168588401,34.797273250133,3.8378186001064e-05,3.8378186001064e-05,3.8378186001064e-05,2860479.5122103,0.015649886102972
13619200,0.95827509357142,0.015499277957439,0.004685634692449,0.0061280085725728,0.0046856346924172,-0.0010984315157023,0.0010984309037082,7.6989297100593e-09,-8.3144119577033e-09,4.9841103918708e-09,-5.778208705161e-09,-0.0012155678859463,0.0012155761423622,-0.0012155732367939,0.0012155708606858,-0.001215571295981,0.0012155725977062,-0.0012155766543028,0.0012155672374755,-0.0010947808952207,0.001094792435127,-0.001094796536696,0.0010947765979636,-4.605823939652e-09,6.1050043463667e-09,8.1472337511896e-09,-6.8494428056357e-09,-0.0015450025243668,0.0015450038502518,-0.0016465511241733,0.001646553793726,-0.0016465558665336,0.0016465487771172,-0.0016465476704396,0.0016465573621604,-0.0016465524576854,0.0016465523045348,-0.0014287786113594,0.0014287982451315,-0.0014287930955032,0.0014287831507478,-0.0014287952006153,0.00142878113567,-0.0014287847964263,0.0014287918226646,-6.3080523630252e-09,9.7719844088056e-09,-0.0010984295284942,0.0010984328908981,-5.4464372557863e-09,9.2252064339689e-09,-0.0012155754920433,0.0012155684734832,-0.0012155706614158,0.0012155733442419,-0.0012155701057645,0.0012155738494673,-0.0012155653128397,0.0012155786719239,-0.0010947746066654,0.0010947986450806,-0.0010947902992047,0.0010947829674195,0.57889842402159,128566,2924,0.0045672376636469,0.006415883901791,0.0045672376636092,34.356446466598,3.4851571732783e-05,3.4851571732783e-05,3.4851571732783e-05,2860821.4567564,0.01567268854551
13819200,0.96067100742178,0.01552961706472,0.0046945241411397,0.006140568782472,0.0046945241411078,-0.0010998097295574,0.0010998091251039,7.8511084219644e-09,-8.4591084979514e-09,4.9638594744544e-09,-5.7499365085631e-09,-0.0012172961659393,0.0012173045121915,-0.0012173016149652,0.0012172991318101,-0.0012172995596185,0.0012173009838506,-0.0012173050169213,0.0012172955245145,-0.0010960905915201,0.0010961024460851,-0.0010961065239655,0.0010960863175151,-4.583024995497e-09,6.0789477491426e-09,7.9693509180351e-09,-6.6745759326986e-09,-0.0015475502075997,0.0015475515304719,-0.0016494984874677,0.0016495010536543,-0.0016495031151525,0.0016494961553552,-0.001649495049325,0.0016495046058614,-0.0016494997223643,0.0016494996662588,-0.0014309662967612,0.0014309855657596,-0.0014309804394352,0.0014309708211012,-0.0014309826248959,0.0014309687228311,-0.0014309722694906,0.0014309793605443,-6.4793410812173e-09,9.8888097832245e-09,-0.0010998077736167,0.0010998110810263,-5.3025731713824e-09,9.0228843691533e-09,-0.0012173038347138,0.0012172967804345,-0.001217299118777,0.0012173015365094,-0.001217298351896,0.0012173022529842,-0.0012172936742665,0.0012173069601581,-0.0010960844038667,0.0010961085549178,-0.0010961003779757,0.0010960925956242,0.57842146975092,128566,2924,0.0045729586296085,0.0064264253490116,0.0045729586295708,34.004079449395,3.2032635595158e-05,3.2032635595158e-05,3.2032635595158e-05,2861899.2162729,0.015695021855707
14019200,0.96288989122421,0.015557712449892,0.00470276033919,0.0061521917715435,0.0047027603391581,-0.0011010420978115,0.0011010414999453,8.0129921862251e-09,-8.6144364762017e-09,4.9483185531031e-09,-5.7274513988207e-09,-0.0012188504170287,0.0012188588680768,-0.0012188559766556,0.0012188533764084,-0.0012188538036657,0.0012188553464895,-0.0012188593604468,0.001218849787722,-0.001097262034772,0.0010972742014378,-0.0010972782601489,0.0010972577799522,-4.5617153467863e-09,6.0542532741889e-09,7.8067922406206e-09,-6.5151783274214e-09,-0.001549857199869,0.0015498585196647,-0.0016521746015361,0.0016521770798907,-0.0016521791312934,0.001652172283368,-0.0016521711840608,0.0016521806109666,-0.0016521757473873,0.001652175784711,-0.0014329441910695,0.0014329631073914,-0.0014329580023746,0.001432948700542,-0.0014329602802111,0.0014329465088377,-0.0014329499508242,0.0014329571184846,-6.6378992142888e-09,9.9980073199112e-09,-0.0011010401701282,0.0011010434275998,-5.186226756509e-09,8.8534564262417e-09,-0.0012188581570187,0.0012188510648136,-0.0012188535420809,0.0012188557198672,-0.0012188525901653,0.0012188566214226,-0.0012188480020165,0.0012188612390315,-0.0010972559351461,0.0010972802221108,-0.0010972721891744,0.0010972639830746,0.57820995963715,128566,2924,0.0045780743156025,0.0064359706855322,0.0045780743155428,33.653973670829,2.9231789366633e-05,2.9231789366633e-05,2.9231789366633e-05,2862353.5239914,0.015715113924023
14219200,0.96494670037445,0.015582791505735,0.0047100858674358,0.0061626197708949,0.0047100858674045,-0.0011020902887192,0.0011020896964656,8.1581860806237e-09,-8.7541383802317e-09,4.9349469825531e-09,-5.7081236960922e-09,-0.0012202108649409,0.0012202194034529,-0.0012202165167303,0.0012202138186425,-0.0012202142381345,0.0012202158948546,-0.001220219892543,0.0012202102385746,-0.001098234637253,0.0010982471068159,-0.0010982511491139,0.0010982303983598,-4.5481956013934e-09,6.0382722279871e-09,7.6898401775435e-09,-6.4005221199133e-09,-0.0015519012464326,0.0015519025639024,-0.001654565592246,0.0016545679990609,-0.0016545700444899,0.0016545632829497,-0.0016545621815825,0.0016545715229232,-0.0016545666727963,0.0016545667717311,-0.0014346705929637,0.001434689277778,-0.0014346841881362,0.0014346750933404,-0.001434686513033,0.0014346728526351,-0.0014346762199852,0.00143468342489,-6.8094031061225e-09,1.0126547119527e-08,-0.0011020883856267,0.0011020915995411,-5.0881850214403e-09,8.7092538125142e-09,-0.0012202186809013,0.001220211523723,-0.0012202141438053,0.0012202161009792,-0.0012202130117996,0.0012202171827203,-0.001220208506343,0.0012202217175511,-0.001098228607499,0.0010982530574642,-0.001098245147406,0.0010982365322617,0.55856304976202,128566,2924,0.0045824257109086,0.0064444276407871,0.0045824257108734,33.303957183449,2.6431657467594e-05,2.6431657467594e-05,2.6431657467594e-05,2863995.1880602,0.015732548354283
14419200,0.96682333739894,0.015605923483151,0.004716855334887,0.006172212813408,0.0047168553348556,-0.0011024202040426,0.0011024196094104,8.3003803318579e-09,-8.8986563886531e-09,4.946291310852e-09,-5.7219456657817e-09,-0.0012207833220363,0.0012207919614682,-0.0012207890691596,0.0012207862821194,-0.0012207867030152,0.0012207884454332,-0.0012207924539345,0.0012207826927212,-0.001098479747244,0.00109849248911,-0.001098496542164,0.0010984754976197,-4.5616012515071e-09,6.0518078461303e-09,7.8237514942917e-09,-6.5344287837449e-09,-0.0015530867609117,0.0015530880783757,-0.0016560779444687,0.0016560804299654,-0.0016560824831408,0.0016560756251285,-0.0016560745242938,0.0016560839633941,-0.0016560791033026,0.0016560791222731,-0.0014355799772102,0.0014355989362156,-0.0014355938357258,0.0014355844844693,-0.0014355960894472,0.0014355823162188,-0.0014355857724641,0.0014355929127385,-6.9458209605165e-09,1.028822269234e-08,-0.0011024182870302,0.0011024215263964,-5.2036194486448e-09,8.8525154320831e-09,-0.0012207912692203,0.0012207839509713,-0.001220786645393,0.0012207886149331,-0.0012207855000539,0.0012207897099052,-0.001220780909447,0.001220794329948,-0.0010984736532893,0.0010984985039242,-0.0010984904828197,0.001098481689219,0.56383117342731,128566,2924,0.0045837966185747,0.0064493321067342,0.0045837966185198,32.648759541939,2.119007633551e-05,2.119007633551e-05,2.119007633551e-05,2866677.8071829,0.015740318499317
14619200,0.96852252746133,0.01562698156061,0.0047230252850665,0.0061809309905087,0.004723025285035,-0.0011022972367872,0.0011022966416278,8.4400389318026e-09,-9.038825764191e-09,4.9497040247908e-09,-5.7259925056241e-09,-0.001220874084133,0.0012208828180078,-0.0012208799242985,0.0012208770469185,-0.0012208774668113,0.00122087930081,-0.0012208833124603,0.0012208734535948,-0.001098284609244,0.0010982976257666,-0.0010983016820269,0.0010982803568288,-4.567916816218e-09,6.0579192410196e-09,8.0165292454755e-09,-6.7274694924838e-09,-0.0015537136480317,0.0015537149651117,-0.0016569947748594,0.001656997381704,-0.0016569994372369,0.0016569924487939,-0.0016569913494642,0.0016570009202089,-0.0016569960545547,0.001656995949144,-0.0014359647132043,0.0014359840581697,-0.0014359789501303,0.0014359692199712,-0.0014359810842435,0.0014359671739352,-0.0014359707592924,0.0014359777799991,-7.0791798569588e-09,1.0459852899579e-08,-0.0011022953000619,0.0011022985783359,-5.3624625071572e-09,9.0542084588994e-09,-0.0012208821711467,0.0012208746683698,-0.0012208774263309,0.0012208794532855,-0.0012208762994077,0.0012208805298219,-0.0012208715900669,0.0012208852686185,-0.0010982784265539,0.0010983037295506,-0.0010982955510337,0.0010982866198795,0.56645232670485,128566,2924,0.0045832888966034,0.0064519243259789,0.0045832888965679,31.82466175169,1.4597294013519e-05,1.4597294013519e-05,1.4597294013519e-05,2865514.3888645,0.015741923243168
14819200,0.97006376480712,0.015646207444936,0.0047286661030728,0.0061888752388214,0.0047286661030417,-0.0011020460490197,0.0011020454528696,8.579388566653e-09,-9.1791255729821e-09,4.9542424650655e-09,-5.7316358116956e-09,-0.0012208120320871,0.0012208208582178,-0.0012208179628034,0.0012208149979564,-0.0012208154150514,0.0012208173413563,-0.001220821357558,0.0012208113977178,-0.0010979728466648,0.001097986142047,-0.001097990203698,0.0010979685909161,-4.572934653103e-09,6.0623539805414e-09,8.1457680840236e-09,-6.8573261784511e-09,-0.0015541261944107,0.0015541275110354,-0.0016576651090517,0.0016576677942901,-0.0016576698518382,0.0016576627779494,-0.0016576616770895,0.0016576713393116,-0.0016576664693546,0.0016576662780621,-0.0014361621327549,0.0014361817456811,-0.0014361766315968,0.00143616663948,-0.0014361786778104,0.0014361646829353,-0.0014361683548075,0.0014361752881761,-7.2181565441694e-09,1.0626012318784e-08,-0.0011020440978625,0.0011020474040101,-5.4737138275058e-09,9.1960895528759e-09,-0.0012208202465694,0.0012208125818967,-0.0012208154143652,0.0012208174542058,-0.0012208142696598,0.0012208185483015,-0.0012208094798156,0.0012208233678196,-0.0010979666035363,0.0010979923071015,-0.0010979840174465,0.0010979749081895,0.56961684257946,128566,2924,0.0045822492087749,0.0064536294996699,0.0045822492087406,30.996211602548,7.9696928203827e-06,7.9696928203827e-06,7.9696928203827e-06,2862451.2243311,0.015741545924911
15019200,0.97144300884944,0.015663347072943,0.0047336958128716,0.006195955447231,0.0047336958128404,-0.0011011547870157,0.0011011541926713,8.7567434755878e-09,-9.3547489503023e-09,4.9480179699567e-09,-5.7235384539467e-09,-0.0012200831127907,0.0012200920577248,-0.0012200891662121,0.001220086076716,-0.0012200864968141,0.0012200885409119,-0.0012200925512392,0.001220082486783,-0.0010970191317631,0.0010970327645292,-0.0010970368200263,0.0010970148839216,-4.5604882645081e-09,6.046730055371e-09,8.2641498017198e-09,-6.9786389544879e-09,-0.0015537865973384,0.0015537879115887,-0.0016575529867067,0.0016575557653264,-0.0016575578137301,0.0016575506630909,-0.0016575495694482,0.0016575592957235,-0.001657554434677,0.001657554159173,-0.0014356338447642,0.0014356536627279,-0.0014356485573715,0.0014356383332355,-0.0014356505281159,0.001435636457875,-0.0014356402119658,0.0014356470493022,-7.3154411443332e-09,1.0760371912374e-08,-0.0011011528180381,0.0011011561616779,-5.6175113048268e-09,9.3812919346135e-09,-0.0012200914596642,0.0012200836500074,-0.0012200865247397,0.0012200886259139,-0.001220085409676,0.0012200896895531,-0.001220080506494,0.0012200946231291,-0.0010970128648659,0.0010970389539735,-0.0010970305210872,0.0010970213127874,0.56737758823398,128566,2924,0.0045785542836176,0.0064522215106906,0.0045785542836795,29.893606809896,-8.5114552082988e-07,-8.5114552082988e-07,-8.5114552082988e-07,2856064.8207721,0.015732612066879
15219200,0.97265900564968,0.015677781734061,0.0047379142998184,0.0062019531344577,0.0047379142997852,-0.0010995393599027,0.0010995387693942,8.9435270964231e-09,-9.5377689758533e-09,4.9346993881648e-09,-5.7059673004981e-09,-0.001218600031949,0.0012186091065265,-0.0012186062219349,0.0012186029894975,-0.0012186034192763,0.0012186055861045,-0.0012186095830011,0.0012185994240473,-0.0010953232916496,0.0010953372594581,-0.0010953413029085,0.0010953190595945,-4.5376781389888e-09,6.0215582270589e-09,8.3837242123331e-09,-7.1003117719963e-09,-0.0015525997981665,0.0015526011099828,-0.0016565687740355,0.0016565716598435,-0.001656573694399,0.001656566461952,-0.0016565653862359,0.0016565751609206,-0.0016565703164712,0.0016565699555507,-0.0014342788362269,0.0014342988291617,-0.0014342937371956,0.0014342833023309,-0.0014342956448301,0.0014342814968384,-0.0014342853302127,0.001434292081838,-7.4028984135314e-09,1.0887768052286e-08,-0.0010995373726299,0.0010995407566875,-5.773629501876e-09,9.5819158131301e-09,-0.0012186085122001,0.0012186005656531,-0.001218603473919,0.0012186056450711,-0.0012186024036663,0.0012186066639545,-0.0012185973692537,0.0012186117285078,-0.0010953169889512,0.0010953434863668,-0.0010953348967628,0.0010953255940441,0.54391179513275,128566,2924,0.0045718549707007,0.0064473071009489,0.0045718549707453,28.488346438139,-1.2093228494887e-05,-1.2093228494887e-05,-1.2093228494887e-05,2848084.7074708,0.015714013211869
15419200,0.97373332912781,0.015692381160788,0.0047422455618253,0.0062078900371722,0.0047422455617905,-0.0010978861452131,0.0010978855580599,9.0439876141953e-09,-9.6349025143348e-09,4.9234201149925e-09,-5.69104975416e-09,-0.0012169846701643,0.0012169937962032,-0.0012169909164308,0.0012169876221354,-0.0012169880374715,0.0012169902948783,-0.0012169942801924,0.0012169840541314,-0.0010936214310152,0.0010936356375805,-0.0010936396691964,0.001093617210064,-4.5358215121193e-09,6.0191650434632e-09,8.4378240273856e-09,-7.1549913605724e-09,-0.0015512406271097,0.0015512419381005,-0.0016553837147536,0.0016553866235029,-0.001655388656878,0.0016553814013898,-0.0016553803165453,0.0016553901345017,-0.0016553852923461,0.0016553848819691,-0.0014328117528837,0.0014328318893678,-0.0014328267969582,0.0014328162164007,-0.001432828628902,0.0014328144868834,-0.0014328183575098,0.0014328250331289,-7.5986420142171e-09,1.1079103687457e-08,-0.0010978841615807,0.0010978875416576,-5.754431221135e-09,9.5584567068522e-09,-0.0012169932406246,0.0012169851646201,-0.001216988203837,0.0012169902422083,-0.0012169869939743,0.0012169914013009,-0.001216981983115,0.001216996441693,-0.0010936150834182,0.0010936419095132,-0.0010936333360604,0.0010936236720015,0.61487579115697,128566,2924,0.0045649978054486,0.0064416808998441,0.0045649978053774,27.075404999171,-2.3396760006632e-05,-2.3396760006632e-05,-2.3396760006632e-05,2839539.251711,0.015694368975008
15619200,0.97470171534544,0.015705824935199,0.0047462433667515,0.0062133382017308,0.0047462433667168,-0.0010967328843281,0.0010967322951249,9.0904565606689e-09,-9.6833676032802e-09,4.9321001835521e-09,-5.7020541009848e-09,-0.0012159665958294,0.0012159757320933,-0.0012159728461096,0.0012159695510109,-0.0012159699408585,0.0012159722524334,-0.0012159762450426,0.0012159659474886,-0.0010924833469626,0.0010924977264611,-0.0010925017611286,0.0010924791117284,-4.5602074025e-09,6.045966203765e-09,8.2954105533136e-09,-7.0103948994832e-09,-0.001550467776901,0.00155046908955,-0.0016547232783314,0.0016547260455414,-0.0016547280946646,0.0016547209491714,-0.0016547198339126,0.0016547296015137,-0.0016547247433544,0.0016547244188773,-0.0014319333854066,0.001431953350226,-0.0014319482478419,0.0014319378760528,-0.001431950109763,0.001431936103643,-0.0014319398849796,0.0014319466183017,-7.8839058227139e-09,1.128368581637e-08,-0.0010967309404175,0.0010967342390036,-5.4509587317171e-09,9.1673942154868e-09,-0.0012159751915547,0.001215967073736,-0.00121597035385,0.0012159719516959,-0.0012159687554754,0.0012159734997864,-0.0012159640011095,0.0012159782833361,-0.0010924770426514,0.001092503949774,-0.0010924956860018,0.0010924853210101,0.62694795728556,128566,2924,0.0045602171899659,0.0064384783977532,0.0045602171899005,25.966048032031,-3.2271615743754e-05,-3.2271615743754e-05,-3.2271615743754e-05,2820301.7427955,0.015681407217753
15819200,0.9756124990106,0.015719406690376,0.0047503087997312,0.0062187890909483,0.0047503087996968,-0.0010968514630041,0.0010968508622539,9.318468202726e-09,-9.922783825466e-09,4.9769754605642e-09,-5.7594865081112e-09,-0.0012162345202298,0.0012162438550691,-0.0012162409460798,0.0012162374973428,-0.0012162379220418,0.0012162403174811,-0.0012162443560349,0.0012162338845941,-0.0010926592938901,0.0010926740138802,-0.0010926780947126,0.0010926550146733,-4.5962187657893e-09,6.0842339103598e-09,7.6692531153464e-09,-6.3823378915467e-09,-0.0015510328232438,0.0015510341383365,-0.0016553747029694,0.001655377060339,-0.0016553791386739,0.0016553723599242,-0.0016553712583576,0.0016553806184383,-0.0016553757390738,0.001655375877431,-0.0014324095028763,0.0014324281899006,-0.0014324230709714,0.0014324140311276,-0.0014324254590011,0.0014324117260882,-0.0014324150861617,0.0014324223814607,-7.9925549637171e-09,1.1292485408058e-08,-0.001096849563923,0.0010968527612998,-5.068258595826e-09,8.6734711355594e-09,-0.0012162431270025,0.0012162351851864,-0.0012162386061806,0.0012162397467523,-0.0012162366719185,0.0012162416299394,-0.0012162321872369,0.0012162461443463,-0.0010926532614654,0.0010926799661447,-0.0010926720921812,0.0010926611504486,0.66919698602118,128566,2924,0.0045607127933824,0.0064408134553206,0.0045607127933101,25.54881975108,-3.5609441991357e-05,-3.5609441991357e-05,-3.5609441991357e-05,2804730.9110415,0.015684787900264
16019200,0.97647065082202,0.015732172163347,0.0047541273882456,0.0062239173868898,0.0047541273882114,-0.0010969449835323,0.0010969443780486,9.5022697595969e-09,-1.0111239053732e-08,4.9962897301147e-09,-5.7840340706118e-09,-0.0012165376806474,0.0012165471644875,-0.0012165442445584,0.0012165406666145,-0.001216541111867,0.0012165435964571,-0.0012165476538861,0.0012165370552209,-0.0010928307993507,0.0010928458167079,-0.001092849917624,0.0010928265020899,-4.6151279343037e-09,6.104626861428e-09,7.2758779909217e-09,-5.9876700885536e-09,-0.0015516362008855,0.0015516375172239,-0.0016560326140888,0.0016560347164059,-0.001656036811241,0.0016560302634998,-0.0016560291721977,0.0016560382725348,-0.0016560333832659,0.001656033809642,-0.0014329246885712,0.0014329425689937,-0.001432937443732,0.0014329292393202,-0.0014329401586719,0.0014329266015855,-0.0014329296981873,0.0014329373429772,-8.1368951032415e-09,1.1360751682772e-08,-0.0010969431208068,0.0010969462407431,-4.7692049812968e-09,8.2895249972043e-09,-0.001216546313183,0.0012165384677953,-0.0012165420352443,0.0012165427863494,-0.001216539802238,0.0012165449683353,-0.0012165355295871,0.0012165492707008,-0.0010928249391454,0.0010928515976011,-0.0010928440263707,0.0010928325259552,0.6674279139667,128566,2924,0.0045611057866857,0.0064433053357453,0.0045611057866219,25.148971560469,-3.8808227516248e-05,-3.8808227516248e-05,-3.8808227516248e-05,2785644.8794187,0.015688120699928
16219200,0.97727983717031,0.015744156149589,0.0047577099392154,0.0062287362711918,0.0047577099391816,-0.0010969761714084,0.0010969755658034,9.6053976355817e-09,-1.0214462341472e-08,4.9977200327031e-09,-5.7855968012832e-09,-0.0012167672747107,0.0012167768117095,-0.0012167738900988,0.0012167702607841,-0.0012167706893295,0.0012167732596838,-0.0012167773181262,0.0012167666314264,-0.0010929307553553,0.0010929460259521,-0.0010929501268336,0.0010929264559241,-4.6190463535987e-09,6.1085143660792e-09,7.1283773352008e-09,-5.8402238990511e-09,-0.0015521658298634,0.0015521671461813,-0.0016566058942821,0.0016566078793925,-0.0016566099784666,0.001656603542869,-0.0016566024323428,0.0016566114554543,-0.001656606565362,0.0016566070742646,-0.0014333751200583,0.0014333927650518,-0.0014333876412401,0.001433379677422,-0.0014333904043729,0.001433376988232,-0.0014333799875414,0.001433387686683,-8.3484303449409e-09,1.152772344987e-08,-0.0010969743312693,0.0010969774059039,-4.5943585817931e-09,8.064989258401e-09,-0.0012167759607691,0.001216768060732,-0.0012167717975646,0.0012167722646543,-0.0012167693070896,0.0012167747039516,-0.0012167651837562,0.0012167788570063,-0.0010929249502519,0.0010929517505085,-0.0010929443559298,0.0010929323605631,0.66425603848607,128566,2924,0.0045612398213833,0.0064454922816968,0.004561239821304,24.749802708355,-4.2001578333164e-05,-4.2001578333164e-05,-4.2001578333164e-05,2769684.9400223,0.015690617371506
16419200,0.97804618731794,0.015754319817464,0.004760716630215,0.0062328865570674,0.0047607166301813,-0.0010970183681954,0.0010970177649953,9.7810404759201e-09,-1.0387725900581e-08,4.9893132626528e-09,-5.7745955545991e-09,-0.0012170106582824,0.001217020322272,-0.001217017404767,0.0012170136403295,-0.0012170140814464,0.001217016761549,-0.0012170208113363,0.0012170100324437,-0.0010930096421122,0.0010930252185866,-0.001093029310953,0.0010930053516665,-4.6089141861294e-09,6.097190752949e-09,7.124196608978e-09,-5.8371246714363e-09,-0.0015526927986597,0.001552694113815,-0.0016571797484623,0.0016571817519712,-0.0016571838455255,0.0016571774030462,-0.001657176308687,0.0016571853057789,-0.0016571804241506,0.0016571809423318,-0.0014338119788764,0.0014338295645595,-0.001433824449437,0.0014338165286628,-0.0014338272442806,0.0014338138073744,-0.0014338168051794,0.0014338245282418,-8.4628787917132e-09,1.1649236272116e-08,-0.00109701652574,0.001097019607414,-4.6216602535105e-09,8.0997964516754e-09,-0.0012170194465545,0.0012170114691334,-0.001217015277831,0.0012170156784591,-0.0012170127289954,0.0012170181762628,-0.00121700857004,0.001217022364789,-0.0010930038384752,0.0010930309419153,-0.0010930235197115,0.0010930112764197,0.59981696838314,128566,2924,0.0045614189869705,0.0064476684731744,0.0045614189868946,24.41225922381,-4.4701926209516e-05,-4.4701926209516e-05,-4.4701926209516e-05,2758845.4325416,0.015693194993654
16619200,0.97877601257523,0.015765814245392,0.0047641709205135,0.0062374724043982,0.00476417092048,-0.0010972679920759,0.0010972673923756,9.9187067624419e-09,-1.0521920748285e-08,4.9760726537822e-09,-5.7575429221335e-09,-0.0012173348720964,0.001217344622271,-0.0012173417115861,0.0012173378478288,-0.0012173382874599,0.0012173410696854,-0.0012173451060825,0.0012173342518838,-0.0010932925231566,0.0010933083734271,-0.0010933124524136,0.0010932882461729,-4.596298335535e-09,6.083161718644e-09,7.2531649427898e-09,-5.9673944952532e-09,-0.0015532991891057,0.0015533005029595,-0.0016578509222636,0.0016578530205874,-0.0016578551054891,0.0016578485831052,-0.0016578474930924,0.0016578565635692,-0.0016578516908552,0.0016578521153357,-0.0014343688815331,0.0014343867041611,-0.0014343815957925,0.0014343734180223,-0.0014343842982852,0.0014343707929248,-0.0014343738769591,0.0014343814944222,-8.6090153027181e-09,1.1816155146073e-08,-0.0010972661407906,0.0010972692436163,-4.7107561136931e-09,8.211835087529e-09,-0.001217343777849,0.0012173356518973,-0.0012173395440922,0.0012173399263136,-0.001217336958124,0.0012173424612938,-0.0012173327300701,0.0012173467189061,-0.0010932866565173,0.0010933141598671,-0.0010933066500443,0.0010932941820089,0.70235631006664,128566,2924,0.0045624561347372,0.0064501768183388,0.004562456134645,24.158309453053,-4.6733524375575e-05,-4.6733524375575e-05,-4.6733524375575e-05,2756015.1201805,0.015697849828849
16819200,0.97947145232088,0.015776818329103,0.0047674764940116,0.006241865341113,0.0047674764939785,-0.0010974915787154,0.0010974909827511,1.0059122248869e-08,-1.0658666146169e-08,4.9620902094601e-09,-5.7394797477158e-09,-0.0012177653366787,0.0012177751586748,-0.0012177722555538,0.0012177683060757,-0.001217768727895,0.0012177716308254,-0.0012177756531829,0.0012177647067744,-0.0010936118536212,0.0010936280315826,-0.001093632096868,0.0010936075914655,-4.5796922856031e-09,6.0644842259344e-09,7.4362003925942e-09,-6.1523060307445e-09,-0.0015540191310168,0.0015540204430467,-0.0016585798840245,0.0016585820996591,-0.0016585841727471,0.001658577553049,-0.0016585764523749,0.0016585856447164,-0.0016585807834231,0.0016585810595363,-0.0014350299187972,0.0014350481316971,-0.0014350430334155,0.0014350344379726,-0.0014350455519543,0.0014350319996825,-0.0014350352076579,0.0014350426235927,-8.7409891009246e-09,1.1991906787364e-08,-0.0010974897071386,0.0010974928542895,-4.8777615817907e-09,8.4271578629768e-09,-0.0012177743784918,0.0012177660528764,-0.0012177700041533,0.0012177704679944,-0.0012177674426099,0.0012177729784821,-0.001217763101622,0.001217777349084,-0.0010936059364206,0.0010936338691483,-0.0010936261892192,0.0010936136319381,0.70571570839992,128566,2924,0.0045633887089459,0.0064531508892212,0.0045633887088666,23.906464264627,-4.8748285882985e-05,-4.8748285882985e-05,-4.8748285882985e-05,2740061.606688,0.015702768332829
17019200,0.98013442265934,0.015787101278546,0.0047705590161941,0.0062459832461906,0.0047705590161611,-0.0010976587441683,0.0010976581518455,1.0210015742178e-08,-1.0805998829062e-08,4.9479385785806e-09,-5.7214342107593e-09,-0.0012181372643333,0.0012181471904243,-0.0012181442949361,0.0012181402273359,-0.0012181406569233,0.0012181436617757,-0.0012181476700071,0.0012181366501552,-0.0010938668434144,0.0010938832922864,-0.0010938873438593,0.0010938625958723,-4.5657102999785e-09,6.0488289474866e-09,7.6355664450393e-09,-6.3531936657651e-09,-0.0015546841238845,0.0015546854343798,-0.0016592463317289,0.0016592486993618,-0.0016592507621086,0.0016592440069104,-0.0016592429215696,0.0016592522226577,-0.0016592473705256,0.0016592475153168,-0.001435639311754,0.0014356578725473,-0.0014356527810318,0.001435643814983,-0.0014356551855634,0.0014356414946735,-0.0014356448367106,0.0014356521229355,-8.8633929759728e-09,1.2156154213666e-08,-0.0010976568531522,0.001097660042827,-5.0432117985178e-09,8.6391265766077e-09,-0.0012181464423084,0.0012181379490831,-0.0012181419544218,0.0012181424777527,-0.0012181394226255,0.0012181449585783,-0.0012181349446344,0.0012181494661385,-0.0010938608206896,0.0010938892359256,-0.0010938813892849,0.001093868682609,0.69245975073489,128566,2924,0.0045640870657956,0.0064558975282498,0.0045640870657246,23.654701282805,-5.0762389737558e-05,-5.0762389737558e-05,-5.0762389737558e-05,2726565.8836911,0.015706979903037
17219200,0.98075150911539,0.015796412710978,0.00477334288035,0.0062497269503111,0.0047733428803172,-0.0010970077419891,0.0010970071568677,1.042974264234e-08,-1.1018687028132e-08,4.9189849828007e-09,-5.6846550496315e-09,-0.0012176529671982,0.0012176630710507,-0.0012176601921847,0.0012176559180864,-0.0012176563870279,0.001217659516234,-0.0012176634987969,0.0012176524119072,-0.0010932710964708,0.0010932878551896,-0.001093291885874,0.0010932668865966,-4.5440692596856e-09,6.0235380062839e-09,7.7448870222531e-09,-6.465797164982e-09,-0.0015544457858429,0.0015544470939356,-0.0016590137498686,0.0016590162549224,-0.0016590183021819,0.0016590114409937,-0.001659010403366,0.0016590197144526,-0.0016590148777411,0.001659014981151,-0.0014353549652639,0.0014353735808335,-0.0014353685097236,0.0014353594478893,-0.0014353709536206,0.0014353570861556,-0.0014353605047719,0.001435367809258,-8.8763497129162e-09,1.2295356434192e-08,-0.0010970057911907,0.0010970091077097,-5.5199673946087e-09,9.2545814544508e-09,-0.0012176623552421,0.0012176536219466,-0.0012176575550521,0.0012176584645905,-0.0012176553329567,0.0012176606341296,-0.0012176504462207,0.0012176655521443,-0.0010932648432221,0.0010932940370569,-0.001093285703969,0.0010932731916558,0.67475986302374,128566,2924,0.0045613906026886,0.0064549060376565,0.0045613906027822,22.995426659595,-5.6036586723243e-05,-5.6036586723243e-05,-5.6036586723243e-05,2713721.2972487,0.01570049759608
17419200,0.98131469677066,0.015804543405574,0.0047757642059628,0.0062530149936824,0.0047757642059288,-0.0010956516730289,0.0010956510916675,1.0492210254865e-08,-1.1077392061608e-08,4.9051892397494e-09,-5.6665828671361e-09,-0.0012164171860994,0.0012164272582313,-0.0012164243857472,0.0012164201287882,-0.0012164205296383,0.0012164237796312,-0.0012164277457047,0.0012164165665305,-0.0010919370938227,0.0010919541805744,-0.0010919581922663,0.001091932892346,-4.5186243070703e-09,5.9963966737271e-09,8.2935020303235e-09,-7.0159574387868e-09,-0.001553399530861,0.0015534008365672,-0.0016579788841931,0.0016579816982004,-0.0016579837257035,0.0016579765808091,-0.001657975487833,0.0016579852064715,-0.0016579803849298,0.0016579800373239,-0.0014342706317363,0.0014342905013749,-0.0014342854323157,0.0014342750814415,-0.0014342872994701,0.001434273313709,-0.0014342770952488,0.0014342837923015,-9.1037548749237e-09,1.253153312641e-08,-0.0010956497190652,0.0010956530456088,-5.5880676918972e-09,9.3339479066368e-09,-0.0012164266887212,0.0012164176936174,-0.0012164217704351,0.0012164226529005,-0.0012164194470851,0.0012164249252942,-0.0012164145731565,0.0012164298288637,-0.001091930843609,0.0010919603549882,-0.001091951962141,0.0010919392514459,0.64747797181417,128566,2924,0.0045557682771383,0.0064505716138673,0.0045557682770927,21.992752483304,-6.4057980133569e-05,-6.4057980133569e-05,-6.4057980133569e-05,2701644.6617003,0.01568467554488
17619200,0.98182909457429,0.015811680470041,0.004777882699511,0.0062559150710524,0.0047778826994772,-0.0010942242466565,0.0010942236653068,1.0575717596664e-08,-1.116087581092e-08,4.9044327808035e-09,-5.6657401371162e-09,-0.0012150618615255,0.0012150719190665,-0.0012150690471479,0.001215064803616,-0.0012150651345863,0.0012150685120023,-0.0012150724762592,0.0012150611707974,-0.0010905058033235,0.0010905232634392,-0.0010905272702581,0.0010905015978262,-4.5117508266387e-09,5.9888360702866e-09,8.5655258442415e-09,-7.2886174564457e-09,-0.0015521993659613,0.0015522006707901,-0.0016568005867091,0.0016568035111029,-0.0016568055316297,0.0016567982833053,-0.001656797124723,0.0016568070843483,-0.0016568022654499,0.0016568016651384,-0.0014330381010287,0.0014330587145887,-0.0014330536470911,0.0014330425412851,-0.0014330551146224,0.0014330411752429,-0.0014330451407668,0.0014330514279309,-9.3086892642563e-09,1.274431904998e-08,-0.0010942222885208,0.0010942256234357,-5.6289600151942e-09,9.3848994333535e-09,-0.0012150714732272,0.0012150622454328,-0.0012150664530591,0.0012150673062709,-0.0012150640225979,0.0012150696859502,-0.0012150591877338,0.0012150745502828,-0.0010904996181589,0.0010905293678886,-0.0010905209364666,0.0010905080649834,0.62390232749394,128566,2924,0.0045498486273073,0.0064456016430525,0.0045498486272952,20.981390269915,-7.2148877840682e-05,-7.2148877840682e-05,-7.2148877840682e-05,2693481.4355506,0.015667603327957
17819200,0.98230012942211,0.015817985317311,0.0047797488387352,0.0062584876398745,0.0047797488387013,-0.0010927934926742,0.0010927929094189,1.0774352876222e-08,-1.1361390679964e-08,4.912591564902e-09,-5.6760304657537e-09,-0.0012136664344691,0.0012136766934912,-0.0012136738180645,0.0012136693816636,-0.0012136697790265,0.0012136732150362,-0.0012136771881563,0.0012136658079827,-0.0010890507220918,0.0010890683691447,-0.001089072385141,0.0010890465099304,-4.5253681641678e-09,6.00316095673e-09,8.4309805530961e-09,-7.1535165519209e-09,-0.001550926994068,0.0015509282995742,-0.0016555606321613,0.0016555635266472,-0.0016555655573936,0.0016555583221432,-0.0016555572270683,0.0016555670436472,-0.0016555622164117,0.0016555617790603,-0.0014317375356049,0.0014317576979921,-0.0014317526223467,0.0014317419876399,-0.0014317543908585,0.0014317403179706,-0.0014317441933586,0.0014317507946394,-9.3950720902577e-09,1.2843540283975e-08,-0.0010927915271257,0.0010927948749214,-5.6803347367906e-09,9.4497845139778e-09,-0.0012136761576479,0.0012136669090893,-0.001213671166803,0.0012136719408853,-0.0012136687093191,0.0012136743474409,-0.0012136637731669,0.0012136793131484,-0.0010890444174134,0.0010890745950082,-0.0010890661131538,0.0010890529142764,0.60341627554357,128566,2924,0.0045439140983636,0.0064403340312609,0.0045439140982684,19.991659023701,-8.0066727810389e-05,-8.0066727810389e-05,-8.0066727810389e-05,2688628.7195731,0.015650198210645
18019200,0.98273242973243,0.015823765746949,0.0047814609845604,0.0062608437778614,0.0047814609845269,-0.001091370208662,0.0010913696216174,1.0929667441671e-08,-1.1520455885479e-08,4.9270969795326e-09,-5.6947430094513e-09,-0.0012122451223279,0.0012122554857752,-0.0012122526026423,0.0012122480766038,-0.0012122484701105,0.001212252003418,-0.0012122559915455,0.0012122444847599,-0.0010875904246575,0.0010876083856271,-0.0010876124173727,0.0010875861989353,-4.5424818317099e-09,6.0214651967245e-09,8.252848786311e-09,-6.974332777274e-09,-0.0015495991538911,0.0015496004605483,-0.0016542736001808,0.0016542763598434,-0.0016542784029394,0.0016542712818013,-0.0016542701759478,0.0016542798965001,-0.0016542750581238,0.0016542747427751,-0.0014303867016453,0.0014304065480745,-0.0014304014638743,0.0014303911705956,-0.0014304033482891,0.0014303893813105,-0.0014303931375611,0.0014303998710629,-9.5438716011433e-09,1.2965083422266e-08,-0.0010913682551035,0.0010913715751606,-5.5742866994265e-09,9.3136586315126e-09,-0.001212254919527,0.0012122456270408,-0.0012122500023344,0.0012122505852137,-0.0012122473733098,0.0012122531631915,-0.0012122425257534,0.0012122580404005,-0.0010875842092264,0.0010876145229812,-0.0010876061491634,0.0010875925983464,0.60265702559084,128566,2924,0.0045380097034024,0.006434837848292,0.0045380097033716,19.020243071285,-8.7838055429721e-05,-8.7838055429721e-05,-8.7838055429721e-05,2686066.3311718,0.015632621856367
18219200,0.98312959958124,0.015829180498694,0.0047830690636876,0.0062630423713524,0.0047830690636542,-0.0010899306151748,0.0010899300244725,1.1077024133046e-08,-1.1671418123949e-08,4.9411661279761e-09,-5.7128025065696e-09,-0.0012107997388066,0.0012108102401619,-0.0012108073494305,0.0012108026996197,-0.0012108031284831,0.0012108067154042,-0.0012108107176953,0.0012107991288696,-0.0010861161715972,0.001086134317205,-0.0010861383627422,0.0010861119312784,-4.5581911071553e-09,6.0384485017785e-09,8.0729505691957e-09,-6.7933223679589e-09,-0.001548222873622,0.0015482241814195,-0.0016529353781393,0.0016529380409205,-0.0016529400955522,0.0016529330519967,-0.0016529319749324,0.0016529415568877,-0.0016529367084552,0.0016529365555551,-0.0014289923016798,0.0014290117094771,-0.0014290066171393,0.0014289967864731,-0.0014290087352181,0.0014289947601803,-0.0014289983960276,0.0014290053788723,-9.7082471732092e-09,1.3087112758968e-08,-0.0010899286812317,0.0010899319583976,-5.4131134837458e-09,9.1057725753771e-09,-0.001210809596472,0.0012108003204474,-0.0012108048332254,0.001210805124701,-0.0012108019861502,0.0012108079206199,-0.0012107972295447,0.0012108127069317,-0.0010861099435531,0.0010861404667178,-0.0010861322572625,0.0010861181684632,0.61338750384728,128566,2924,0.0045320375680748,0.0064291412629313,0.0045320375680384,18.049289364474,-9.5605685084211e-05,-9.5605685084211e-05,-9.5605685084211e-05,2682755.7680253,0.015614704639126
18419200,0.98350408101895,0.015834322879057,0.0047845983209578,0.0062651262371753,0.0047845983209244,-0.0010892155896839,0.0010892149928049,1.1215399463916e-08,-1.1815933784806e-08,4.9640299145546e-09,-5.7424811200259e-09,-0.001210101467457,0.0012101120677557,-0.0012101091647132,0.0012101044390318,-0.0012101048676161,0.0012101085323792,-0.0012101125582618,0.001210100844808,-0.0010853859788074,0.001085404399707,-0.0010854084683923,0.0010853817153488,-4.5854343574221e-09,6.0672505626012e-09,7.7303154554044e-09,-6.4492809734815e-09,-0.0015476093648826,0.0015476106746323,-0.001652352064701,0.0016523544790254,-0.0016523565528036,0.0016523497276213,-0.0016523486365347,0.0016523580207579,-0.0016523531543623,0.0016523532428153,-0.0014283565000819,0.0014283752747676,-0.0014283701726876,0.0014283610127376,-0.0014283725261236,0.0014283587427766,-0.0014283621519477,0.0014283693947892,-9.898344779424e-09,1.3199130955959e-08,-0.0010892136923741,0.0010892168901696,-5.1080750064031e-09,8.714577734168e-09,-0.0012101113514268,0.0012101021210211,-0.0012101068125061,0.0012101067018008,-0.0012101036334488,0.0012101098286186,-0.0012100991150969,0.0012101143777842,-0.0010853799053997,0.0010854103938662,-0.0010854024939341,0.001085387821186,0.61738402277377,128566,2924,0.0045290716055958,0.0064266015225761,0.0045290716057129,17.476240853048,-0.00010019007317562,-0.00010019007317562,-0.00010019007317562,2680557.6015722,0.0156061005248
18619200,0.98386475688186,0.015839227563727,0.0047860561482086,0.0062671152673439,0.0047860561481745,-0.0010890974788641,0.0010890968775494,1.135603545118e-08,-1.1960894992528e-08,4.9820475790961e-09,-5.7652589173563e-09,-0.0012100184381351,0.0012100291335009,-0.001210026220182,0.0012100214174351,-0.0012100218417352,0.00121002559301,-0.0012100296362107,0.0012100178005073,-0.0010852622376764,0.0010852809467441,-0.001085285031906,0.0010852579544178,-4.6054885343101e-09,6.0901006443704e-09,7.3902256515027e-09,-6.106724719634e-09,-0.0015476254354897,0.0015476267472134,-0.0016523973996391,0.0016523995664229,-0.0016524016570119,0.0016523950520209,-0.0016523939482019,0.0016524031316149,-0.0016523982538891,0.0016523985726878,-0.0014283447095512,0.0014283628594391,-0.0014283577460914,0.0014283492467116,-0.001428360318136,0.0014283467524825,-0.001428349932111,0.0014283574204105,-1.0088888578607e-08,1.3308282169358e-08,-0.0010890956203854,0.0010890987360019,-4.8017439991345e-09,8.3180151865811e-09,-0.0012100283468739,0.0012100191606794,-0.0012100240316824,0.0012100235168923,-0.0012100205198197,0.001210026977343,-0.0012100162434957,0.0012100312835592,-0.0010852563308969,0.0010852867732473,-0.0010852791858886,0.0010852639339416,0.61178639254915,128566,2924,0.0045285820486595,0.00642666755487,0.004528582048606,17.230992425576,-0.00010215206059539,-0.00010215206059539,-0.00010215206059539,2680461.109261,0.015605173406005
18819200,0.98421242202453,0.01584427087115,0.0047875644407781,0.0062691419896278,0.0047875644407441,-0.0010890009970153,0.0010890003953118,1.1507664266146e-08,-1.211291374439e-08,4.9838738372739e-09,-5.7675257966341e-09,-0.001209947091126,0.0012099578847575,-0.0012099549700723,0.0012099500710721,-0.0012099504921896,0.0012099543466681,-0.0012099583913982,0.0012099464491035,-0.0010851629413161,0.0010851819573164,-0.0010851860438807,0.0010851586560247,-4.6065613677711e-09,6.0914025271282e-09,7.2082584447701e-09,-5.9245414357377e-09,-0.0015476472250094,0.0015476485369246,-0.0016524501107715,0.0016524521535871,-0.0016524542467719,0.0016524477645684,-0.0016524466548634,0.0016524557234387,-0.0016524508467078,0.0016524512823378,-0.0014283433774263,0.0014283611821764,-0.0014283560725519,0.0014283479198439,-0.0014283587511737,0.0014283453152132,-0.0014283483742468,0.0014283559737996,-1.0248164575247e-08,1.3430645157667e-08,-0.001088999157066,0.0010890022352502,-4.661278530317e-09,8.1365390491178e-09,-0.0012099570623479,0.0012099478490578,-0.0012099528505341,0.0012099521019523,-0.0012099491375321,0.0012099557635677,-0.001209944972252,0.0012099599588554,-0.0010851571275521,0.00108518769071,-0.0010851802468852,0.0010851645868686,0.64922936061964,128566,2924,0.0045281820563072,0.0064267575250691,0.0045281820562852,16.994014370491,-0.00010404788503607,-0.00010404788503607,-0.00010404788503607,2680640.3914493,0.015604452318618
19019200,0.9845476489788,0.015849440837097,0.0047891185186723,0.0062712037997859,0.0047891185186386,-0.0010889093796506,0.0010889087792851,1.1659285057367e-08,-1.2263217691728e-08,4.9787747542753e-09,-5.7610800116073e-09,-0.0012099249320053,0.0012099358272078,-0.001209932914763,0.0012099279092088,-0.0012099283324884,0.0012099322892238,-0.0012099363289647,0.0012099242947902,-0.001085098164656,0.0010851174710235,-0.001085121552782,0.0010850938848585,-4.6000508116641e-09,6.0840759770669e-09,7.1346964335685e-09,-5.8517256915616e-09,-0.0015477229726362,0.0015477242838187,-0.0016525344898732,0.0016525364919337,-0.0016525385821641,0.001652532148358,-0.0016525310419201,0.0016525400536109,-0.0016525351829477,0.0016525356649409,-0.0014283969905297,0.0014284146354935,-0.0014284095322157,0.0014284015289865,-0.0014284122597896,0.0014283988747423,-0.0014284018857323,0.001428409530415,-1.0395874785378e-08,1.3566282686579e-08,-0.0010889075464933,0.001088910612426,-4.6088662344178e-09,8.0705590299836e-09,-0.0012099349857214,0.0012099257088137,-0.0012099308167102,0.0012099299188612,-0.0012099269698103,0.0012099337143285,-0.0012099228402987,0.0012099378737269,-0.001085092377821,0.0010851231775929,-0.0010851157850892,0.0010850997859434,0.6871910018238,128566,2924,0.004527803593086,0.0064270692668411,0.0045278035930528,16.757358379684,-0.00010594113296253,-0.00010594113296253,-0.00010594113296253,2675207.976967,0.015604001161617
19219200,0.98488135892499,0.015854745799516,0.0047907166336102,0.0062733125323288,0.0047907166335765,-0.0010897454738066,0.0010897448734815,1.1842635919846e-08,-1.2446601467265e-08,4.978498602752e-09,-5.7608483487432e-09,-0.0012108893140125,0.0012109003422292,-0.001210897430529,0.0012108922925348,-0.0012108927258949,0.0012108967941002,-0.0012109008360076,0.0012108886905564,-0.0010860004684365,0.0010860201040677,-0.0010860241898677,0.0010859961941556,-4.6071395821659e-09,6.0904192895772e-09,6.9085943611845e-09,-5.6263418372366e-09,-0.0015488397618086,0.0015488410734325,-0.0016536385129225,0.0016536403761754,-0.0016536424706726,0.0016536361744316,-0.0016536350713999,0.0016536439317176,-0.0016536390568059,0.0016536397055785,-0.0014294859503082,0.0014295031226795,-0.0014294980243681,0.0014294904968137,-0.0014295009361471,0.0014294876505184,-0.0014294905144834,0.0014294983496927,-1.049574286019e-08,1.3685523503558e-08,-0.001089743631322,0.0010897467159992,-4.6522533337953e-09,8.1341111490678e-09,-0.0012108994741752,0.0012108901184119,-0.0012108952819588,0.0012108943541668,-0.0012108913957674,0.0012108981864557,-0.0012108872216925,0.0012109023929389,-0.0010859946991189,0.0010860257976047,-0.0010860183515764,0.0010860021606151,0.70677987042006,128566,2924,0.0045312749056364,0.0064316885985876,0.0045312749057073,17.022144478866,-0.00010382284416907,-0.00010382284416907,-0.00010382284416907,2669494.4665596,0.015615745725854
19419200,0.98521870036613,0.015859993650973,0.0047922939188084,0.0062754058133906,0.0047922939187744,-0.0010910332477885,0.0010910326468236,1.1932092921557e-08,-1.25366219893e-08,4.9831508707295e-09,-5.7661096940128e-09,-0.0012123422316363,0.001212353307929,-0.0012123503926262,0.0012123452110646,-0.0012123456318189,0.0012123497703897,-0.0012123538137018,0.001212341590211,-0.0010873678417525,0.0010873876894293,-0.0010873917749427,0.0010873635583808,-4.6029793125534e-09,6.0868763215183e-09,7.0756111219371e-09,-5.7927763574233e-09,-0.0015504798151913,0.0015504811263794,-0.0016552596446058,0.0016552616024477,-0.0016552636948866,0.001655257302215,-0.0016552561911779,0.001655265169738,-0.0016552602974167,0.0016552608169649,-0.0014310912761601,0.0014311088163724,-0.0014311037120505,0.0014310958166835,-0.0014311064728553,0.0014310931298181,-0.0014310961015538,0.0014311037807796,-1.0720754135737e-08,1.3866958980091e-08,-0.0010910314265936,0.0010910344680091,-4.4903275704574e-09,7.9248924828946e-09,-0.0012123524501678,0.0012123430243945,-0.0012123483646758,0.0012123471512246,-0.0012123442222334,0.001212351241929,-0.0012123401832577,0.0012123553110779,-0.0010873620802026,0.001087393370773,-0.0010873860899262,0.0010873693767756,0.69264757169835,128566,2924,0.0045366205143919,0.0064384729610605,0.0045366205143735,17.538388568308,-9.9692891453533e-05,-9.9692891453533e-05,-9.9692891453533e-05,2665572.1832212,0.015633497191606
19619200,0.98555955150658,0.015865162764956,0.0047938434522212,0.0062774758605479,0.0047938434521872,-0.0010923204951686,0.0010923198973736,1.21910212998e-08,-1.2792373351923e-08,4.9719974238254e-09,-5.7515444680881e-09,-0.0012137768041452,0.0012137880769559,-0.0012137851682411,0.0012137797794324,-0.0012137802254992,0.0012137845166743,-0.0012137885510483,0.0012137761981112,-0.0010887199529702,0.0010887402270491,-0.001088744307544,0.001088715688129,-4.6003701534379e-09,6.0838657146668e-09,6.9104816035894e-09,-5.6280223714857e-09,-0.0015521111232492,0.0015521124340183,-0.0016568819009867,0.001656883781727,-0.0016568858754502,0.0016568795625187,-0.0016568784795913,0.001656887317384,-0.0016568824497136,0.0016568831051365,-0.0014326881590701,0.0014327052831503,-0.001432700184896,0.0014326927017471,-0.0014327031355388,0.0014326898200752,-0.0014326926793492,0.0014327005549528,-1.0714772574981e-08,1.3944192534781e-08,-0.0010923186337977,0.0010923217587423,-4.7884865016126e-09,8.3132520374174e-09,-0.0012137871906438,0.001213777626666,-0.0012137829085988,0.0012137819498668,-0.0012137789693457,0.0012137858376959,-0.0012137746729379,0.001213790164028,-0.001088714172459,0.0010887459339772,-0.0010887383413184,0.0010887217808747,0.67638952988642,128566,2924,0.0045419632862354,0.0064452217460851,0.004541963286232,18.061045162896,-9.5511638696835e-05,-9.5511638696835e-05,-9.5511638696835e-05,2665116.2872552,0.015651206542403
19819200,0.98590364142736,0.015870226822285,0.0047953569006242,0.0062795130210704,0.0047953569005902,-0.0010935979097486,0.0010935973132375,1.2226315239745e-08,-1.282645049404e-08,4.9667346210122e-09,-5.744919350422e-09,-0.0012151806678419,0.0012151919308298,-0.0012151890237535,0.0012151836393732,-0.0012151840550941,0.0012151884058527,-0.0012151924327877,0.0012151800308503,-0.0010900470421235,0.0010900674791566,-0.0010900715501608,0.0010900427778152,-4.5855292651109e-09,6.0676296231977e-09,7.300412622288e-09,-6.0191977397584e-09,-0.0015537147933944,0.0015537161028701,-0.0016584878116119,0.0016584899280268,-0.00165849200769,0.0016584854769541,-0.0016584843690031,0.0016584934837826,-0.001658488623225,0.0016584889786347,-0.001434254910451,0.0014342728821508,-0.0014342677858439,0.0014342594316296,-0.0014342703765142,0.0014342569207102,-0.0014342600422219,0.0014342675331981,-1.0987346510933e-08,1.4188178144111e-08,-0.0010935960631305,0.0010935991598458,-4.6919013799864e-09,8.1866485194724e-09,-0.0012151911283734,0.0012151814054938,-0.0012151868872094,0.0012151856878698,-0.0012151827046068,0.0012151898189201,-0.0012151785105037,0.0012151940430327,-0.0010900411846065,0.0010900732588379,-0.0010900657690827,0.0010900486898253,0.65786894008383,128566,2924,0.0045472645861337,0.0064518568380478,0.0045472645861143,18.583951983043,-9.1328384135657e-05,-9.1328384135657e-05,-9.1328384135657e-05,2667510.5418493,0.015668715969289
20019200,0.98624144697421,0.01587538316121,0.0047969024017604,0.0062815783577231,0.0047969024017265,-0.0010940708124144,0.0010940702209772,1.2250684350934e-08,-1.2846002802495e-08,4.9449826343054e-09,-5.7177219552838e-09,-0.0012157379346814,0.0012157491486812,-0.0012157462540874,0.0012157408972124,-0.0012157412543857,0.0012157456958846,-0.0012157497021739,0.0012157372517616,-0.001090548106315,0.0010905687705407,-0.0010905728183861,0.0010905438628091,-4.5505001654024e-09,6.0266546248381e-09,7.7558990959594e-09,-6.4800055989829e-09,-0.0015544353361368,0.001554436641939,-0.0016592208657882,0.0016592232535227,-0.001659225303282,0.0016592185537915,-0.0016592173943795,0.0016592268371889,-0.0016592219972253,0.0016592219759933,-0.0014349478633437,0.0014349668658609,-0.0014349618002178,0.0014349523465433,-0.0014349638821117,0.001434950343829,-0.0014349537831484,0.0014349607176223,-1.122578217216e-08,1.4492141202981e-08,-0.0010940689355166,0.0010940720980267,-4.9333837210431e-09,8.5014524220956e-09,-0.0012157485492259,0.0012157384711884,-0.0012157440704335,0.0012157429945044,-0.0012157398918764,0.0012157471181407,-0.0012157355679565,0.0012157514754026,-0.0010905420533166,0.0010905747429458,-0.001090567007647,0.0010905498049094,0.68048383144293,128566,2924,0.0045492277893672,0.0064548374116975,0.0045492277896878,18.671499464938,-9.0628004280492e-05,-9.0628004280492e-05,-9.0628004280492e-05,2668479.9358594,0.01567573209571
20219200,0.98657056178413,0.015880554092413,0.0047984556629267,0.0062836427665942,0.0047984556628918,-0.0010943172327388,0.0010943166477168,1.2548176496976e-08,-1.3136981933436e-08,4.9226049748503e-09,-5.688131288376e-09,-0.0012160832477179,0.0012160947061572,-0.0012160918239063,0.0012160861998508,-0.0012160866101604,0.0012160912087488,-0.0012160951917224,0.0012160826308019,-0.0010908354020262,0.0010908564835662,-0.0010908605096755,0.0010908311820629,-4.538639838786e-09,6.0156598175454e-09,7.9267781396631e-09,-6.6501296585155e-09,-0.0015549377179936,0.0015549390230385,-0.0016597228800916,0.0016597254455111,-0.001659727490632,0.0016597205680485,-0.0016597194775704,0.0016597289606105,-0.0016597241301602,0.0016597240441117,-0.0014354252486636,0.0014354444003928,-0.0014354393316513,0.001435429721967,-0.001435441468437,0.001435427670245,-0.0014354312162068,0.0014354382034508,-1.1177867308955e-08,1.4537888352206e-08,-0.0010943153113262,0.0010943185691323,-5.3154476180769e-09,8.9860380653883e-09,-0.001216094050366,0.0012160838414,-0.0012160893463568,0.0012160885870147,-0.0012160854534502,0.0012160924282654,-0.0012160807822174,0.0012160971296494,-0.0010908292780308,0.0010908625293883,-0.0010908544108951,0.0010908374120483,0.69908659011009,128566,2924,0.0045502521418023,0.0064569142549727,0.0045502521418103,18.638411869189,-9.0892705046488e-05,-9.0892705046488e-05,-9.0892705046488e-05,2665443.5264702,0.015679923595436
20419200,0.98689115888965,0.015885597983179,0.0047999705132883,0.0062856569566373,0.0047999705132537,-0.0010945453231081,0.0010945447393563,1.269678735995e-08,-1.3284308913979e-08,4.9170463139155e-09,-5.6811442591191e-09,-0.0012164281808397,0.001216439734831,-0.0012164368559763,0.0012164311304274,-0.0012164315392528,0.0012164362415465,-0.0012164402192605,0.0012164275654545,-0.0010911138823823,0.0010911352568225,-0.0010911392789733,0.0010911096690996,-4.532653490959e-09,6.0088960100575e-09,8.1061058122082e-09,-6.8301984445965e-09,-0.0015554432470744,0.0015554445513312,-0.0016602182551815,0.0016602209429031,-0.0016602229825674,0.0016602159442278,-0.0016602148561594,0.0016602244538164,-0.0016602196268838,0.0016602194157839,-0.0014359057622796,0.0014359252585678,-0.0014359201883826,0.0014359102247891,-0.0014359222069106,0.0014359082988429,-0.0014359119619339,0.0014359188213202,-1.1304001854363e-08,1.4702116999679e-08,-0.0010945433829452,0.0010945466795041,-5.4755498770039e-09,9.1885666028246e-09,-0.0012164391214048,0.0012164287326024,-0.0012164342967397,0.0012164335986202,-0.0012164304275336,0.00121643741638,-0.0012164256354474,0.001216442238415,-0.0010911076830908,0.0010911413794012,-0.0010911331023718,0.0010911159755449,0.69998400237771,128566,2924,0.0045512009745061,0.0064590034557504,0.004551200974476,18.602180222171,-9.118255822263e-05,-9.118255822263e-05,-9.118255822263e-05,2660707.1557955,0.01568397464323
20619200,0.98720346966446,0.015889990153712,0.0048012760884237,0.0062874379768987,0.0048012760883893,-0.001094735935567,0.0010947353515957,1.2834812004623e-08,-1.3422560755535e-08,4.917459775915e-09,-5.6817654967289e-09,-0.0012167402495274,0.001216751892092,-0.0012167490133254,0.0012167431994852,-0.0012167436047437,0.0012167484022753,-0.0012167523806679,0.0012167396304461,-0.001091341640691,0.0010913632961959,-0.0010913673190904,0.00109133742709,-4.5327706614383e-09,6.0091020011175e-09,8.203688992756e-09,-6.927685716192e-09,-0.0015559115622477,0.0015559128665847,-0.0016606794661353,0.0016606822144566,-0.001660684253139,0.0016606771542465,-0.0016606760633553,0.0016606857292039,-0.0016606809010626,0.0016606806222083,-0.0014363426841365,0.0014363623831397,-0.0014363573110583,0.0014363471449187,-0.0014363592559554,0.0014363452937931,-0.0014363490215692,0.0014363558054811,-1.1450564503364e-08,1.4865559698958e-08,-0.0010947339867197,0.0010947373004428,-5.5539042516257e-09,9.2859718634043e-09,-0.0012167513088379,0.0012167407713383,-0.0012167464221824,0.0012167456995053,-0.0012167425080234,0.0012167495621046,-0.0012167376613203,0.001216754438878,-0.0010913353983706,0.0010913694620092,-0.001091361110142,0.0010913437656557,0.63099124157642,128566,2924,0.0045519942070506,0.0064609386271704,0.0045519942070513,18.565825420353,-9.1473396637179e-05,-9.1473396637179e-05,-9.1473396637179e-05,2657203.497297,0.015687553312914
20819200,0.98749317887608,0.015894384852413,0.00480259188077,0.0062892010909071,0.0048025918807357,-0.0010934704681327,0.0010934698877615,1.3031676133361e-08,-1.3615908328409e-08,4.903280401269e-09,-5.6636294095975e-09,-0.0012154738177787,0.0012154855881782,-0.001215482717993,0.0012154767618487,-0.0012154771677833,0.0012154821037621,-0.0012154860692829,0.0012154732091687,-0.001090054501316,0.001090076537893,-0.0010900805496734,0.0010900503052326,-4.5054567250956e-09,5.9787636889321e-09,8.3336590758475e-09,-7.0603723590591e-09,-0.001554718495765,0.0015547197974703,-0.0016595117487646,0.001659514607082,-0.0016595166282526,0.0016595094526144,-0.0016595083703256,0.0016595180972929,-0.0016595132890589,0.001659512906542,-0.0014351417722419,0.0014351616897712,-0.0014351566369381,0.0014351462080825,-0.0014351584761488,0.0014351444650001,-0.0014351482812278,0.001435154933985,-1.1504646849383e-08,1.5007164613361e-08,-0.0010934684769769,0.0010934718789342,-5.8920455611114e-09,9.7204308473151e-09,-0.0012154850560114,0.0012154742898846,-0.0012154799203244,0.0012154794673099,-0.0012154761950045,0.0012154831408793,-0.0012154710882971,0.0012154882777537,-0.0010900481769454,0.0010900827887147,-0.0010900740958263,0.001090056885485,0.67642717437743,128566,2924,0.0045467446632713,0.0064560002879009,0.0045467446633081,17.743286200744,-9.8053710394045e-05,-9.8053710394045e-05,-9.8053710394045e-05,2654738.4641493,0.015671872980236
21019200,0.98776066407461,0.015898309788172,0.0048037638045579,0.0062907821790903,0.0048037638045235,-0.0010920193387235,0.0010920187619025,1.3081384673964e-08,-1.3662084120941e-08,4.8903467642007e-09,-5.6468392391727e-09,-0.0012140649218644,0.0012140767078045,-0.0012140738440752,0.0012140678601883,-0.0012140682548996,0.0012140732478976,-0.0012140771951168,0.0012140643046373,-0.0010886039976595,0.0010886261722351,-0.0010886301627674,0.0010885998059449,-4.5113678821609e-09,5.9881043512872e-09,8.6529999543205e-09,-7.3764354423136e-09,-0.0015533666176925,0.0015533679219446,-0.0016581599124588,0.0016581629646624,-0.0016581649840154,0.0016581576074081,-0.0016581565180437,0.001658166471322,-0.0016581616522707,0.0016581610566164,-0.0014337795921843,0.0014338001731906,-0.0014337951078209,0.0014337840263439,-0.0014337967213215,0.0014337825148623,-0.0014337865457866,0.0014337929676605,-1.1769653309185e-08,1.5232161161544e-08,-0.0010920173689467,0.0010920207316042,-5.7650461561502e-09,9.5514847728758e-09,-0.0012140762255851,0.0012140653441795,-0.0012140711762749,0.0012140704366806,-0.0012140671915676,0.0012140743688833,-0.0012140621941707,0.0012140793996258,-0.001088597583763,0.0010886325082187,-0.0010886239488108,0.0010886061553095,0.65601664848462,128566,2924,0.0045407262416997,0.0064504030172015,0.0045407262415399,16.832777524045,-0.00010533777980764,-0.00010533777980764,-0.00010533777980764,2645569.6325406,0.015653962979628
21219200,0.98800779834205,0.015901959487852,0.0048048547633161,0.0062922499612526,0.0048048547632835,-0.0010905501992637,0.0010905496167567,1.3407267914264e-08,-1.3993569522987e-08,4.9099943118971e-09,-5.6725119101843e-09,-0.0012126038177834,0.0012126158556289,-0.001212612983073,0.0012126067653638,-0.0012126071862495,0.0012126123522129,-0.0012126163261105,0.0012126032213842,-0.0010871217156624,0.0010871444432949,-0.0010871484643736,0.0010871175139936,-4.5051504639223e-09,5.978587134561e-09,8.260225495487e-09,-6.9868311966911e-09,-0.0015519458974388,0.0015519471990611,-0.0016567473782666,0.0016567502008339,-0.0016567522235903,0.0016567450828543,-0.0016567440136651,0.0016567536774661,-0.0016567488706018,0.0016567485499074,-0.0014323547133583,0.0014323744454642,-0.0014323693925795,0.0014323591495176,-0.0014323713190588,0.0014323573192409,-0.0014323610837321,0.0014323678268422,-1.1700180097691e-08,1.5230134152928e-08,-0.0010905481932283,0.0010905516227795,-6.0155847414272e-09,9.874065020335e-09,-0.0012126152854768,0.001212604328536,-0.0012126100716013,0.001212609584063,-0.0012126062982489,0.0012126133055665,-0.0012126010861587,0.0012126185477715,-0.001087115453118,0.0010871506341041,-0.0010871418208839,0.0010871242822165,0.65967101856218,128566,2924,0.0045346322383929,0.0064445217863985,0.0045346322383683,15.919813280027,-0.00011264149375978,-0.00011264149375978,-0.00011264149375978,2638786.9921749,0.015635610660114
21419200,0.98823960318622,0.015905406401628,0.0048058862212709,0.0062936339591187,0.0048058862212382,-0.0010894876019658,0.0010894870171186,1.3347126938507e-08,-1.393572544628e-08,4.9200559226725e-09,-5.6853588947766e-09,-0.0012115560213093,0.0012115679960638,-0.0012115651149379,0.0012115589717904,-0.0012115593658098,0.0012115645148502,-0.0012115684966034,0.0012115553887052,-0.0010860539583491,0.0010860766501042,-0.0010860806751723,0.0010860497411554,-4.5430017252981e-09,6.0192601056179e-09,8.2866407114615e-09,-7.0107984437435e-09,-0.0015509443520458,0.0015509456562496,-0.001655751174257,0.0016557539566883,-0.0016557560014334,0.0016557488540754,-0.0016557477529586,0.0016557574900629,-0.0016557526547799,0.001655752316812,-0.0014313472146795,0.0014313671211193,-0.0014313620392648,0.0014313516812262,-0.0014313639082527,0.0014313499089009,-0.0014313536906118,0.0014313604052296,-1.2121646650455e-08,1.5512812057953e-08,-0.0010894856645863,0.0010894889545186,-5.4991241962953e-09,9.2066502477466e-09,-0.0012115674622634,0.0012115564926193,-0.0012115626056617,0.0012115613902538,-0.0012115582111388,0.0012115657340209,-0.0012115534178818,0.0012115705559662,-0.0010860476389759,0.0010860828914824,-0.0010860746071383,0.001086055939516,0.66373453897103,128566,2924,0.0045302247580063,0.0064403755426608,0.0045302247580511,15.23110098583,-0.00011815119211336,-0.00011815119211336,-0.00011815119211336,2633283.0045832,0.015622446665446
21619200,0.98845750533815,0.015908676040581,0.0048068657102228,0.0062949446201682,0.0048068657101898,-0.0010884625210757,0.0010884619303249,1.3583751085458e-08,-1.4178193228068e-08,4.9422207447381e-09,-5.7139073876986e-09,-0.0012105500791312,0.00121056224115,-0.0012105593492983,0.0012105530406014,-0.0012105534578578,0.001210558726518,-0.0012105627307777,0.0012105494583705,-0.0010850251716112,0.0010850482612116,-0.0010850523085607,0.0010850209315183,-4.5588987971829e-09,6.0370168154567e-09,7.8920943832281e-09,-6.6145665017103e-09,-0.001549976938718,0.0015499782445874,-0.0016547876471019,0.0016547901770272,-0.0016547922355444,0.0016547853221901,-0.0016547842322844,0.0016547937047921,-0.0016547888605088,0.0016547888133064,-0.001430374837637,0.0014303939275289,-0.0014303888421759,0.0014303793245046,-0.0014303910376879,0.0014303772174272,-0.0014303807360037,0.0014303877972105,-1.2197999439273e-08,1.554350780788e-08,-0.0010884606040068,0.0010884638473882,-5.3192275978364e-09,8.9756091596487e-09,-0.0012105615770248,0.0012105506809901,-0.0012105568756342,0.0012105554239364,-0.0012105523067476,0.0012105599412377,-0.0012105476346925,0.0012105646431721,-0.0010850190656041,0.0010850542895653,-0.0010850461868745,0.0010850271840188,0.66920855293398,128566,2924,0.0045259729634154,0.0064363704567061,0.0045259729634049,14.566732772034,-0.00012346613782373,-0.00012346613782373,-0.00012346613782373,2627592.8303163,0.015609742580662
21819200,0.98866246610065,0.015911705825085,0.0048077723996193,0.0062961610258792,0.0048077723995862,-0.0010874265306468,0.00108742593601,1.38023938391e-08,-1.4400664095759e-08,4.9570797330157e-09,-5.7330193406062e-09,-0.0012095378552545,0.001209550186606,-0.0012095472869304,0.0012095408236437,-0.0012095412602239,0.0012095466449228,-0.0012095506645094,0.0012095372461165,-0.0010839864247335,0.0010840098846816,-0.0010840139484377,0.0010839821708666,-4.5702837759678e-09,6.0496681964363e-09,7.5821752035169e-09,-6.3035162161418e-09,-0.0015489952195026,0.0015489965264401,-0.001653807113826,0.0016538094482158,-0.001653811517205,0.0016538047853238,-0.001653803706576,0.001653812968799,-0.0016538081187083,0.0016538082998049,-0.0014293885291941,0.0014294069725989,-0.0014294018840469,0.0014293930308606,-0.0014294043407791,0.0014293906578917,-0.0014293939689449,0.0014294013065579,-1.2291605809334e-08,1.5594923365967e-08,-0.0010874246331073,0.0010874278335433,-5.1512584914126e-09,8.760506429974e-09,-0.0012095494114504,0.0012095385677625,-0.0012095448530362,0.0012095431676411,-0.0012095401076226,0.0012095478612903,-0.0012095355477407,0.0012095524512482,-0.0010839804945939,0.0010840157383963,-0.0010840078043836,0.0010839884445163,0.65988854801953,128566,2924,0.0045216760152363,0.0064323059761369,0.0045216760152246,13.903046343931,-0.00012877562924855,-0.00012877562924855,-0.00012877562924855,2621391.4154017,0.015596886777794
22019200,0.98886709067365,0.015914681629523,0.0048086620219411,0.0062973575856744,0.004808662021908,-0.0010880792755965,0.0010880786735689,1.3869499166277e-08,-1.4475047121103e-08,4.9863877311508e-09,-5.7703944600573e-09,-0.0012102281980019,0.001210240576602,-0.0012102376604111,0.001210231179586,-0.0012102316093027,0.0012102370276368,-0.0012102410755605,0.0012102275650024,-0.0010846554790992,0.0010846790927299,-0.0010846831836497,0.0010846511938066,-4.6070348123077e-09,6.0899623805943e-09,7.1942833770518e-09,-5.9124537545375e-09,-0.001549784199475,0.001549785509593,-0.0016546016145282,0.0016546036543763,-0.0016546057494197,0.0016545992674264,-0.0016545981668491,0.001654607215922,-0.0016546023413194,0.0016546027927032,-0.001430161340929,0.0014301790939204,-0.0014301739856844,0.0014301658803795,-0.0014301766973518,0.0014301632444551,-0.0014301662960256,0.001430173925049,-1.257271720343e-08,1.5758803690392e-08,-0.0010880774336643,0.0010880805154982,-4.6946930310564e-09,8.1745322164029e-09,-0.0012102397438385,0.0012102289664637,-0.0012102355153249,0.0012102332362662,-0.0012102302768428,0.0012102384229907,-0.0012102260774887,0.0012102426524993,-0.0010846496598885,0.0010846848333628,-0.0010846773610397,0.00108465714825,0.64982378713347,128566,2924,0.0045243843624894,0.0064355712041504,0.0045243843624845,14.153203694601,-0.00012677437044319,-0.00012677437044319,-0.00012677437044319,2623939.3077057,0.0156057043985
22219200,0.98907257685285,0.015917645664066,0.0048095473944822,0.0062985508751347,0.0048095473944492,-0.0010889123737133,0.0010889117699232,1.3992194991549e-08,-1.4599447352967e-08,4.9927230282791e-09,-5.7786888425519e-09,-0.0012111003571095,0.0012111128151218,-0.0012111098949707,0.0012111033406714,-0.0012111037656501,0.0012111092665077,-0.0012111133217128,0.0012110997154876,-0.001085497802863,0.0010855216719637,-0.0010855257696049,0.0010854935115079,-4.6163624170617e-09,6.0988453904009e-09,6.9812187596766e-09,-5.6999155746682e-09,-0.0015507578487566,0.0015507591586438,-0.0016555919460451,0.0016555938329385,-0.0016555959362136,0.0016555895959281,-0.0016555884858473,0.0016555974065315,-0.0016555925280963,0.0016555931206388,-0.0014311140048949,0.0014311313658224,-0.0014311262554737,0.0014311185553004,-0.0014311290957886,0.0014311157864222,-0.0014311186970352,0.0014311264663189,-1.276827827469e-08,1.5902623576913e-08,-0.0010889105572277,0.0010889135864072,-4.4857475931961e-09,7.9078790571256e-09,-0.0012111119490172,0.0012111011580627,-0.0012111078709731,0.0012111052767608,-0.0012111023624912,0.0012111107335604,-0.0012110983261269,0.0012111147992092,-0.0010854920590354,0.0010855273362199,-0.0010855200732115,0.0010854993390769,0.64497435175167,128566,2924,0.0045278405985091,0.006439601086269,0.0045278405985085,14.499477726382,-0.00012400417818894,-0.00012400417818894,-0.00012400417818894,2628960.4071448,0.015616817851342
22419200,0.98927886481545,0.015920752906188,0.0048104790059521,0.0062997948943169,0.0048104790059186,-0.0010897575786044,0.0010897569763008,1.4185289420594e-08,-1.4791079942554e-08,4.9889373636969e-09,-5.7732863926519e-09,-0.0012119793446502,0.0012119919433296,-0.001211989024917,0.0012119823270944,-0.0012119827653939,0.0012119883842217,-0.0012119924341436,0.0012119787189772,-0.0010863524726083,0.001086376680571,-0.0010863807727713,0.0010863481846672,-4.6078493463066e-09,6.090827380228e-09,6.9009255989894e-09,-5.6190875739082e-09,-0.0015517386087393,0.0015517399189026,-0.0016565932361223,0.0016565950902439,-0.0016565971891083,0.0016565908919349,-0.0016565897961201,0.0016565986444735,-0.0016565937724609,0.0016565944257438,-0.0014320730846776,0.0014320902383016,-0.0014320851363725,0.0014320776315144,-0.0014320880607964,0.0014320747773042,-0.001432077634335,0.0014320854830591,-1.2870948886924e-08,1.6001727991248e-08,-0.0010897557646027,0.0010897587902953,-4.4678178884068e-09,7.8857244369662e-09,-0.0012119910279187,0.0012119801950129,-0.0012119869787693,0.0012119842854567,-0.0012119813885568,0.001211989824034,-0.0012119773525412,0.0012119938901102,-0.0010863467871633,0.0010863822869104,-0.0010863750405398,0.0010863540496157,0.67139353863049,128566,2924,0.0045313469700436,0.0064436605344776,0.0045313469700289,14.848453905642,-0.00012121236875486,-0.00012121236875486,-0.00012121236875486,2634163.4131658,0.015628063185234
22619200,0.98948571305953,0.015923904789081,0.0048114246483197,0.0063010554924754,0.0048114246482863,-0.0010905832755941,0.0010905826777498,1.4301029732274e-08,-1.4902430823846e-08,4.9720476571769e-09,-5.751532263755e-09,-0.0012128735466417,0.001212886201632,-0.001212883291844,0.0012128765208613,-0.0012128769435302,0.001212882666634,-0.001212886699449,0.0012128729142825,-0.0010872047633213,0.0010872292432778,-0.0010872333186141,0.0010872004926591,-4.5917563368782e-09,6.0732488907682e-09,7.0573276368968e-09,-5.7767986563546e-09,-0.0015527406875276,0.0015527419963434,-0.0016576031512877,0.0016576051073415,-0.0016576071947248,0.0016576008150757,-0.0016575997107755,0.0016576086613497,-0.0016576038002601,0.001657604326383,-0.0014330501777591,0.0014330676609536,-0.0014330625680589,0.0014330547089387,-0.0014330653363145,0.0014330520138941,-0.0014330549761967,0.0014330626530424,-1.3036201681033e-08,1.6195842721873e-08,-0.0010905814492183,0.0010905845041149,-4.5702095260008e-09,8.0197866073532e-09,-0.0012128853486744,0.0012128743348063,-0.0012128812095533,0.0012128785152198,-0.0012128755785212,0.0012128840945824,-0.0012128714749023,0.0012128882282036,-0.0010871990006325,0.0010872349269913,-0.001087227573277,0.0010872063702634,0.67880267617318,128566,2924,0.004534773371557,0.0064478070363988,0.0045347733715354,15.186640488321,-0.00011850687609343,-0.00011850687609343,-0.00011850687609343,2635897.3392302,0.015639235408776
22819200,0.98969011904822,0.015927009817961,0.0048123557124902,0.0063022983930139,0.0048123557124568,-0.0010909929724642,0.0010909923815495,1.4447571709717e-08,-1.5042134613475e-08,4.9455593221586e-09,-5.7174773106399e-09,-0.0012133537481214,0.0012133664830156,-0.0012133635876058,0.0012133567101818,-0.0012133571231191,0.0012133629708135,-0.0012133669771653,0.0012133531209789,-0.0010876385911073,0.0010876633854395,-0.0010876674350628,0.0010876343483471,-4.5636361524599e-09,6.0423336280318e-09,7.3957664107658e-09,-6.1177348891632e-09,-0.0015533156537429,0.0015533169600462,-0.0016581826092846,0.0016581848040051,-0.0016581868709231,0.0016581802866126,-0.0016581791856812,0.0016581883404909,-0.001658183497907,0.0016581837758322,-0.0014336022405984,0.0014336203757192,-0.0014336152974492,0.0014336067424045,-0.001433617802006,0.0014336043175392,-0.0014336075066266,0.0014336148909352,-1.3144099357585e-08,1.6388044177425e-08,-0.001090991106871,0.0010909942471294,-4.892089358087e-09,8.4346730507092e-09,-0.001213365722239,0.0012133544452038,-0.0012133613365217,0.001213358872256,-0.0012133558498827,0.0012133643073386,-0.0012133515042317,0.0012133686829016,-0.0010876326789343,0.0010876692198203,-0.0010876615380599,0.0010876403764365,0.67691802779268,128566,2924,0.0045364742797492,0.0064501853248893,0.0045364742797225,15.303377676138,-0.0001175729785909,-0.0001175729785909,-0.0001175729785909,2635168.9797445,0.015645106944437
23019200,0.98989200851215,0.015929860024505,0.0048132046577992,0.0063034507089395,0.0048132046577658,-0.0010913761610956,0.0010913755749118,1.4602124026405e-08,-1.5192017274503e-08,4.9271596961167e-09,-5.6939096612624e-09,-0.0012138039996337,0.0012138168292975,-0.0012138139441044,0.001213806953362,-0.0012138073638795,0.0012138133289455,-0.0012138173167494,0.0012138033802097,-0.0010880400169991,0.0010880651202485,-0.0010880691517436,0.0010880357930669,-4.5427797368444e-09,6.0194675791621e-09,7.7347203193095e-09,-6.4584979466151e-09,-0.0015538606429089,0.0015538619473667,-0.0016587334285142,0.0016587358625609,-0.0016587379132894,0.0016587311147915,-0.0016587300216912,0.0016587393818065,-0.0016587345518526,0.0016587345919489,-0.0014341226971914,0.0014341414757559,-0.0014341364063723,0.0014341271749455,-0.0014341386718087,0.0014341249957062,-0.001434128411722,0.0014341355330611,-1.3249079577921e-08,1.6564959815293e-08,-0.0010913742613927,0.0010913774746017,-5.1735860409095e-09,8.7958767661119e-09,-0.0012138161383461,0.001213804627841,-0.0012138115419804,0.0012138092655369,-0.0012138061746484,0.001213814581397,-0.0012138016131912,0.0012138191727993,-0.0010880339754898,0.0010880710844348,-0.0010880631181783,0.0010880419573237,0.63260002860653,128566,2924,0.0045380650891411,0.0064524396412188,0.0045380650891148,15.41461745718,-0.00011668306034256,-0.00011668306034256,-0.00011668306034256,2634991.5464636,0.015650628891491
23219200,0.99009137917818,0.015932802865797,0.0048140849400829,0.0063046329856649,0.0048140849400496,-0.0010917636912431,0.0010917631083446,1.4752600279201e-08,-1.5339251226196e-08,4.9147591443678e-09,-5.6778389314475e-09,-0.0012141979820707,0.0012142109063361,-0.0012142080281417,0.0012142009303071,-0.0012142013388611,0.0012142074140179,-0.001214211389437,0.001214197367943,-0.0010884213655939,0.001088446767918,-0.0010884507872829,0.0010884171547658,-4.5292323702954e-09,6.0044831633963e-09,8.0103884711896e-09,-6.7354622044295e-09,-0.0015543417116523,0.0015543430148045,-0.0016592421392265,0.0016592447650089,-0.0016592468047422,0.0016592398306868,-0.0016592387432953,0.001659248273047,-0.0016592434509263,0.0016592432999074,-0.001434585343967,0.0014346046494205,-0.0014345995844633,0.00143458980486,-0.0014346016592913,0.0014345878219289,-0.0014345914216042,0.001434598335596,-1.3363685522858e-08,1.6738990418871e-08,-0.0010917617630402,0.0010917650365353,-5.4060791034649e-09,9.0942351233945e-09,-0.0012142102744257,0.0012141985519787,-0.0012142055035752,0.0012142033641679,-0.0012142002161892,0.0012142086001801,-0.001214195476858,0.0012142133693355,-0.0010884152125694,0.0010884528441008,-0.0010884446429346,0.0010884234292992,0.65900009860017,128566,2924,0.0045396723722257,0.0064544313061238,0.004539672372201,15.525643800291,-0.00011579484959767,-0.00011579484959767,-0.00011579484959767,2639759.9872487,0.015655916189169
23419200,0.99028907929626,0.015935689426517,0.0048149474518265,0.0063057945228967,0.0048149474517933,-0.0010922750069285,0.0010922744233527,1.4900833718602e-08,-1.5488160480108e-08,4.9169377405411e-09,-5.6808372926143e-09,-0.0012147536580074,0.0012147666813005,-0.001214763802378,0.0012147566077771,-0.001214757015593,0.001214763188505,-0.0012147671664931,0.001214753042534,-0.0010889439738979,0.0010889696680411,-0.0010889736902811,0.0010889397612566,-4.5315650297989e-09,6.0071017324596e-09,8.081534335144e-09,-6.8063476889855e-09,-0.0015549908197082,0.0015549921231057,-0.0016599068984115,0.0016599095686023,-0.0016599116090225,0.0016599045877205,-0.0016599034998059,0.0016599130794427,-0.0016599082547935,0.0016599080575329,-0.0014352107843027,0.0014352302340818,-0.0014352251657878,0.0014352152454053,-0.0014352271949898,0.0014352133091176,-0.0014352169557772,0.0014352238246566,-1.3496273167277e-08,1.6895616772356e-08,-0.0010922730662022,0.0010922763640637,-5.5044353038681e-09,9.2193285991926e-09,-0.0012147660738924,0.0012147542037862,-0.0012147612281241,0.0012147590910784,-0.0012147559181779,0.0012147643495491,-0.0012147511061065,0.0012147691915531,-0.0010889377782549,0.0010889757874967,-0.0010889674885371,0.0010889460926761,0.6525636829028,128566,2924,0.0045417940857866,0.0064571173785588,0.0045417940857556,15.704239350095,-0.00011436608519924,-0.00011436608519924,-0.00011436608519924,2641576.1202126,0.015662954680469
23619200,0.99048928561555,0.015938681098473,0.0048158431956097,0.0063069947072865,0.0048158431955765,-0.001093412161893,0.0010934115722273,1.5058005552586e-08,-1.5651332028948e-08,4.9400540184209e-09,-5.7106272062588e-09,-0.0012159370734047,0.0012159502209738,-0.0012159473301668,0.0012159400343352,-0.0012159404541821,0.0012159467042692,-0.0012159507058755,0.0012159364579037,-0.001090099915744,0.0010901258822225,-0.0010901299283417,0.0010900956801731,-4.5552398940775e-09,6.0328006058473e-09,7.8842476456464e-09,-6.6072812806805e-09,-0.0015562952032901,0.0015562965085294,-0.0016612305456684,0.001661233077206,-0.001661235134174,0.0016612282227952,-0.0016612271370931,0.0016612365985603,-0.0016612317576972,0.0016612317151782,-0.0014364878056498,0.0014365068663953,-0.0014365017840201,0.0014364922890386,-0.0014365039906189,0.0014364901712851,-0.0014364936851324,0.0014365007538515,-1.3646574947141e-08,1.7011593867202e-08,-0.0010934102355482,0.0010934134985593,-5.3729555933654e-09,9.0498534954939e-09,-0.0012159495597133,0.0012159376727106,-0.0012159448199632,0.0012159424538637,-0.0012159393210699,0.0012159479011592,-0.0012159346029295,0.0012159526492656,-0.0010900937840035,0.0010901319379705,-0.0010901237731257,0.0010901019646413,0.66669033925466,128566,2924,0.0045465118341179,0.0064625159167248,0.0045465118340922,16.218468771136,-0.00011025224983091,-0.00011025224983091,-0.00011025224983091,2646837.6353161,0.015678021643429
23819200,0.99069197113615,0.015941876458963,0.0048168039469885,0.0063082685650189,0.0048168039469554,-0.0010945739263251,0.0010945733330591,1.516598163653e-08,-1.5762860802914e-08,4.9542039675798e-09,-5.728683653235e-09,-0.0012171664486414,0.0012171796625322,-0.0012171767635794,0.0012171694157208,-0.0012171698256699,0.0012171761491982,-0.0012171801641565,0.0012171658143939,-0.0010912922556538,0.0010913184647032,-0.0010913225229579,0.0010912880037536,-4.5731353603833e-09,6.0524577338061e-09,7.7748143688167e-09,-6.4962788097298e-09,-0.0015576527384262,0.0015576540451855,-0.0016626014530892,0.0016626038862709,-0.0016626059550994,0.0016625991199304,-0.0016625980179075,0.0016626074343989,-0.0016626025808312,0.0016626026107415,-0.001437816892646,0.0014378357934554,-0.0014378306993438,0.0014378213926333,-0.0014378329594597,0.0014378192195999,-0.0014378226595926,0.0014378297979477,-1.3860185017255e-08,1.7165116189505e-08,-0.0010945720285036,0.0010945752308676,-5.1452223059316e-09,8.7562327715451e-09,-0.0012171789793962,0.0012171670688248,-0.001217174397533,0.0012171716919275,-0.0012171686043614,0.0012171774336066,-0.001217164072588,0.0012171819952515,-0.0010912862014023,0.0010913244408871,-0.001091316508153,0.0010912941499735,0.70079154396634,128566,2924,0.0045513322099258,0.0064681337456903,0.0045513322098998,16.741048058629,-0.00010607161553097,-0.00010607161553097,-0.00010607161553097,2650441.0309839,0.01569352048024
24019200,0.99089699583364,0.015945146798168,0.0048177876482257,0.0063095715017496,0.0048177876481926,-0.001095733329193,0.0010957327337907,1.5324024504706e-08,-1.5923006318593e-08,4.9629802975756e-09,-5.7397926664505e-09,-0.0012184373475599,0.0012184506776966,-0.0012184477739814,0.0012184403188298,-0.0012184407367196,0.0012184471518426,-0.0012184511755655,0.0012184367168771,-0.0010925040019785,0.0010925304973397,-0.0010925345639627,0.001092499741113,-4.5823778786778e-09,6.062548481423e-09,7.6030117537981e-09,-6.3237176206498e-09,-0.0015590659444817,0.0015590672520143,-0.0016640109474222,0.0016640132669606,-0.0016640153433466,0.0016640086106213,-0.0016640075119281,0.0016640168157402,-0.0016640119568121,0.0016640121137258,-0.0014391992401222,0.0014392177931445,-0.0014392126959266,0.0014392037513441,-0.0014392150953621,0.0014392014349478,-0.0014392047604731,0.0014392120491365,-1.4008782233038e-08,1.7284954452526e-08,-0.0010957314449192,0.0010957346180512,-5.0302486885319e-09,8.6092083427372e-09,-0.0012184499486971,0.0012184380133387,-0.0012184454599851,0.0012184425432984,-0.001218439489863,0.0012184484618507,-0.0012184350397485,0.0012184529418819,-0.0010924980087912,0.0010925364121768,-0.0010925285949923,0.0010925058418514,0.70866200106481,128566,2924,0.0045561439656079,0.0064739804666083,0.0045561439655813,17.263951666433,-0.00010188838666854,-0.00010188838666854,-0.00010188838666854,2650438.4634719,0.015709235473692
24219200,0.99110298013708,0.01594828976136,0.004818729030977,0.0063108316994394,0.0048187290309439,-0.0010967018968151,0.0010967013025898,1.5464374436134e-08,-1.606202898472e-08,4.9612012960166e-09,-5.7364545157228e-09,-0.0012195252492568,0.0012195386674115,-0.0012195357638651,0.0012195282181649,-0.0012195286314606,0.001219535146421,-0.0012195391650202,0.0012195246122117,-0.0010935232877221,0.0010935500684831,-0.0010935541292167,0.0010935190249204,-4.5741875225934e-09,6.0553902915714e-09,7.620491250635e-09,-6.3403100096461e-09,-0.0015602989697566,0.0015603002764814,-0.0016652366667974,0.0016652389942808,-0.0016652410691616,0.0016652343272739,-0.00166523323168,0.0016652425418494,-0.0016652376915652,0.0016652378221444,-0.001440401035053,0.0014404196288497,-0.0014404145286437,0.0014404055408428,-0.0014404168979465,0.0014404032608689,-0.0014404065924355,0.0014404138516483,-1.417467288401e-08,1.7426292081437e-08,-0.0010967000250179,0.0010967031742281,-4.954765745484e-09,8.5066989351537e-09,-0.0012195379287156,0.0012195259235864,-0.0012195334943364,0.0012195303958621,-0.0012195273635106,0.0012195364785353,-0.001219522975476,0.0012195408931162,-0.0010935173310739,0.0010935559445954,-0.0010935482072964,0.0010935250833647,0.68010062856199,128566,2924,0.0045601642852298,0.0064790810118634,0.0045601642848961,17.691905812216,-9.8464753502272e-05,-9.8464753502272e-05,-9.8464753502272e-05,2649697.6818485,0.015722585156898
24419200,0.99130677124596,0.015951395923935,0.0048196591018237,0.0063120777203201,0.0048196591017914,-0.0010972294253826,0.0010972288355389,1.5623199156575e-08,-1.6216647831287e-08,4.942338567089e-09,-5.7130298216252e-09,-0.0012201250558588,0.0012201385734726,-0.0012201356803596,0.0012201280170943,-0.0012201284296656,0.0012201350631293,-0.001220139065606,0.0012201244307577,-0.0010940766746716,0.0010941037702882,-0.0010941078153144,0.0010940724342229,-4.5581916110222e-09,6.0362853810957e-09,7.6819083104448e-09,-6.4044973555903e-09,-0.0015610248743563,0.0015610261798082,-0.0016659690796623,0.0016659714657047,-0.001665973527158,0.001665966755767,-0.001665965660692,0.0016659749972463,-0.0016659701567301,0.0016659702424038,-0.0014411021623495,0.0014411208525385,-0.0014411157709718,0.0014411066530297,-0.0014411180874979,0.0014411044224319,-0.0014411078014799,0.0014411149875059,-1.429000075606e-08,1.7584078874672e-08,-0.0010972275347298,0.0010972307261478,-5.0987376370651e-09,8.6973463739915e-09,-0.0012201378642881,0.0012201257020767,-0.001220133324078,0.001220130283213,-0.0012201272122541,0.0012201363439478,-0.0012201227100124,0.0012201408755891,-0.0010940706616763,0.0010941097046566,-0.0010941018171355,0.0010940785648413,0.67934589157586,128566,2924,0.0045623539811773,0.0064820838494331,0.0045623539810854,17.884608054152,-9.6923135566783e-05,-9.6923135566783e-05,-9.6923135566783e-05,2650563.762219,0.015730084369986
24619200,0.99150825702951,0.01595461360856,0.0048206262539726,0.006313361100647,0.0048206262539402,-0.0010977509232536,0.0010977503362645,1.5766773817006e-08,-1.6357430205922e-08,4.9310957831348e-09,-5.698674889335e-09,-0.0012207096673551,0.0012207232744491,-0.0012207203870944,0.0012207126230081,-0.0012207130332996,0.00122071977244,-0.0012207237634573,0.0012207090454305,-0.0010946255621769,0.001094652946376,-0.0010946569800901,0.0010946213329638,-4.5462311358771e-09,6.022960275345e-09,7.8147678688529e-09,-6.538572357691e-09,-0.001561735290646,0.0015617365949258,-0.0016666860420317,0.0016666885243323,-0.001666690576948,0.0016666837240738,-0.0016666826316038,0.0016666920470852,-0.0016666872144275,0.001666687202502,-0.0014417904794176,0.0014418094211418,-0.0014418043465761,0.0014417949575167,-0.0014418065624033,0.0014417928305622,-0.0014417962993745,0.0014418033715234,-1.4432979805687e-08,1.7743293450147e-08,-0.0010977490258036,0.001097752233687,-5.1634378946343e-09,8.7802585333604e-09,-0.0012207225874046,0.0012207102915452,-0.001220717998355,0.0012207149216199,-0.0012207118350492,0.0012207210337694,-0.0012207072832602,0.0012207256151011,-0.0010946195124167,0.0010946589173882,-0.0010946509649493,0.0010946274804971,0.70944457818181,128566,2924,0.0045645185272396,0.0064850227958114,0.0045645185271826,18.071441201492,-9.5428470388067e-05,-9.5428470388067e-05,-9.5428470388067e-05,2651285.3150798,0.015737467457508
24819200,0.99170740118805,0.015957560199362,0.0048215057214877,0.0063145487564193,0.0048215057214553,-0.0010982549269136,0.0010982543419831,1.5916569146051e-08,-1.650515275445e-08,4.9232502120947e-09,-5.688399812114e-09,-0.0012213164260506,0.0012213301293675,-0.0012213272464404,0.0012213193779313,-0.0012213197873225,0.0012213266323126,-0.0012213306155466,0.0012213158074245,-0.0010951686296278,0.0010951963097931,-0.0010952003355712,0.0010951644085352,-4.5380855134262e-09,6.0139403978372e-09,7.8886441116315e-09,-6.6132325340503e-09,-0.0015624722068726,0.0015624735103719,-0.0016674167328948,0.0016674192700368,-0.0016674213170254,0.0016674144191202,-0.0016674133291978,0.0016674227858544,-0.0016674179588813,0.0016674178929095,-0.0014424997723731,0.0014425188496534,-0.0014425137801518,0.0014425042425893,-0.0014425159408288,0.0014425021723245,-0.0014425056906175,0.0014425126993091,-1.4567162464006e-08,1.7898137510689e-08,-0.0010982530200436,0.0010982562488256,-5.247282248188e-09,8.8869050959234e-09,-0.0012213294632022,0.0012213170296856,-0.0012213248124463,0.0012213217214784,-0.0012213186156813,0.0012213278671294,-0.0012213139998203,0.0012213325125225,-0.0010951625429622,0.0010952023178329,-0.0010951942819987,0.0010951705946504,0.6611222689286,128566,2924,0.00456661142857,0.0064880701972839,0.0045666114285128,18.258046254488,-9.3935629964092e-05,-9.3935629964092e-05,-9.3935629964092e-05,2649268.3525982,0.015744816150282
25019200,0.99190643925098,0.015960469864389,0.0048223732761569,0.0063157233121079,0.0048223732761245,-0.0010990990222767,0.0010990984354296,1.6061645460863e-08,-1.6652164956812e-08,4.9299424751506e-09,-5.6973903759878e-09,-0.0012222059838978,0.0012222197884708,-0.0012222169019328,0.0012222089390311,-0.0012222093506625,0.0012222162857395,-0.0012222202758401,0.0012222053637511,-0.0010960266708866,0.0010960546291118,-0.0010960586617653,0.0010960224425309,-4.5460400805961e-09,6.0227216475761e-09,7.845049833348e-09,-6.5688953545207e-09,-0.0015634996984097,0.0015635010025835,-0.0016684620197094,0.0016684645233576,-0.001668466575564,0.0016684597013568,-0.0016684586108944,0.0016684680443678,-0.001668463211697,0.001668463181254,-0.0014435012798123,0.0014435202759364,-0.0014435152012271,0.0014435057571053,-0.0014435174018463,0.0014435036454715,-0.0014435071348482,0.0014435141910576,-1.4720008030609e-08,1.8039759396995e-08,-0.001099097120129,0.0010991003375494,-5.2043717739559e-09,8.8318256997239e-09,-0.0012222191098576,0.0012222065997976,-0.0012222144918297,0.0012222112588068,-0.001222208164634,0.001222217534891,-0.0012222035807235,0.0012222221483172,-0.0010960206003509,0.0010960606207695,-0.001096052628509,0.0010960286082867,0.65362536806184,128566,2924,0.0045701134458531,0.0064923223234013,0.0045701134457953,18.629351757235,-9.0965185942123e-05,-9.0965185942123e-05,-9.0965185942123e-05,2654361.2787048,0.015756249844774
25219200,0.99210857675394,0.015963526818726,0.0048232874856887,0.0063169518473814,0.0048232874856563,-0.001100452997036,0.0011004524050673,1.6236462557534e-08,-1.68320725491e-08,4.9489104347072e-09,-5.7219922207125e-09,-0.0012236042444408,0.0012236181793968,-0.0012236152837081,0.0012236072094343,-0.0012236076283525,0.0012236146591402,-0.0012236186699877,0.0012236036234159,-0.0010973988489036,0.0010974271270043,-0.0010974311817087,0.0010973946041731,-4.5628246306043e-09,6.0405648125385e-09,7.5575652157469e-09,-6.2804756849554e-09,-0.0015650532541725,0.0015650545596634,-0.0016700402494714,0.0016700425578315,-0.0016700446229179,0.001670037925834,-0.0016700368324941,0.0016700460876771,-0.0016700412447768,0.0016700414199897,-0.0014450249231716,0.0014450433567759,-0.0014450382775162,0.0014450294192313,-0.001445040693592,0.0014450270847316,-0.0014450303828468,0.0014450376722656,-1.4839921192085e-08,1.8152037954674e-08,-0.0011004510964876,0.0011004543056189,-5.1649289494954e-09,8.7830796716187e-09,-0.0012236174619785,0.0012236048995396,-0.0012236128773897,0.0012236095258051,-0.0012236064419409,0.0012236159092931,-0.001223601885716,0.001223620495806,-0.0010973928407392,0.0010974330587318,-0.001097425104758,0.0010974008106775,0.67454672912114,128566,2924,0.004575730285932,0.0064987521485611,0.0045757302859399,19.269954644543,-8.5840362843652e-05,-8.5840362843652e-05,-8.5840362843652e-05,2662251.8419058,0.015774192048477
25419200,0.9923136982931,0.015966892510298,0.0048243005429907,0.0063182914243495,0.0048243005429582,-0.0011018352726056,0.0011018346790169,1.6357939357907e-08,-1.695511588148e-08,4.9559509244927e-09,-5.7307520271652e-09,-0.0012250589998553,0.0012250730177492,-0.0012250701173997,0.0012250619673368,-0.0012250623863464,0.0012250694942192,-0.0012250735109029,0.001225058373562,-0.0010988174186103,0.0010988459350079,-0.0010988499949934,0.0010988131651694,-4.5739599006059e-09,6.0531314103434e-09,7.5455988083124e-09,-6.2672440374084e-09,-0.0015666700203316,0.0015666713268272,-0.0016716724524587,0.0016716747431103,-0.001671676815472,0.001671670120663,-0.0016716690252849,0.0016716782831792,-0.0016716734320291,0.0016716736206313,-0.0014466101839442,0.0014466286100147,-0.0014466235201079,0.001446614689153,-0.0014466259534658,0.0014466123391685,-0.0014466156268154,0.0014466229440576,-1.5033946985967e-08,1.8300422514768e-08,-0.0011018333941711,0.001101836557424,-4.9925609092795e-09,8.5606556088171e-09,-0.0012250722740555,0.0012250596801209,-0.001225067816552,0.0012250641787211,-0.0012250611377343,0.0012250708061649,-0.0012250567131671,0.0012250752604332,-0.0010988114515205,0.0010988518242285,-0.0010988440448312,0.0010988192468295,0.72789189231113,128566,2924,0.0045814653102116,0.0065054426165106,0.0045814653101553,19.917302455413,-8.0661580356696e-05,-8.0661580356696e-05,-8.0661580356696e-05,2667482.8312763,0.01579264006452
25619200,0.99252158835634,0.015970324793979,0.0048253333790943,0.006319658035823,0.0048253333790619,-0.0011032115001785,0.0011032109056355,1.6496752531196e-08,-1.7094871866704e-08,4.9600465419277e-09,-5.7359967755888e-09,-0.0012265766906166,0.0012265908030288,-0.0012265879001915,0.0012265796600357,-0.0012265800796248,0.0012265872770087,-0.0012265912973423,0.0012265760625715,-0.0011002631395145,0.0011002919267929,-0.0011002959895463,0.0011002588808646,-4.5794966450504e-09,6.0591885685367e-09,7.505227815442e-09,-6.2264096126368e-09,-0.0015683689445364,0.0015683702514937,-0.0016733597518642,0.0016733620110195,-0.0016733640871261,0.0016733574170786,-0.001673356320431,0.0016733655555663,-0.0016733607004592,0.0016733609203352,-0.0014482736566949,0.001448292008707,-0.0014482869154148,0.0014482781671479,-0.0014482893808872,0.0014482757840515,-0.0014482790452464,0.0014482863991091,-1.5197918534271e-08,1.8444796608948e-08,-0.0011032096311572,0.0011032127746332,-4.9124431391753e-09,8.4589932062111e-09,-0.0012265900429793,0.0012265773869617,-0.0012265856454727,0.0012265818255534,-0.0012265788033157,0.0012265886163164,-0.0012265744399304,0.0012265930094324,-0.0011002571974105,0.0011002977898214,-0.0011002900905162,0.0011002649125575,0.73243473022848,128566,2924,0.0045871770819559,0.0065124707273707,0.0045871770819073,20.564902845677,-7.5480777234583e-05,-7.5480777234583e-05,-7.5480777234583e-05,2667268.6846847,0.015811385672092
25819200,0.99272686111859,0.015973621184909,0.0048263224414845,0.006320976301972,0.004826322441452,-0.0011038151297156,0.0011038145392069,1.6662588875131e-08,-1.7256713328637e-08,4.9449283454124e-09,-5.7163649526216e-09,-0.0012273142394921,0.0012273284554014,-0.0012273255608419,0.0012273172020228,-0.0012273176191188,0.0012273249394039,-0.0012273289444656,0.0012273136175409,-0.0011009243202767,0.0011009534385677,-0.00110095748611,0.0011009200770972,-4.5558599319005e-09,6.0332416357271e-09,7.6881760230293e-09,-6.4114287461351e-09,-0.001569266578842,0.0015692678837116,-0.0016742428205802,0.0016742452166937,-0.0016742472765994,0.0016742404982086,-0.0016742394070623,0.0016742487427921,-0.0016742439042273,0.0016742439865687,-0.001449141560265,0.001449160249547,-0.0014491551708744,0.0014491460482376,-0.0014491574911966,0.0014491438141298,-0.0014491471986757,0.0014491543847411,-1.5307601804118e-08,1.8594199609706e-08,-0.0011038132425467,0.0011038164263505,-5.0687664427233e-09,8.6593122427629e-09,-0.0012273277256293,0.0012273149062945,-0.0012273232117322,0.001227319461283,-0.0012273164014849,0.0012273262201556,-0.0012273119181071,0.0012273307331762,-0.0011009183354083,0.0011009593444594,-0.0011009514874585,0.0011009262083851,0.71386317297089,128566,2924,0.004589684046426,0.0065161821572584,0.0045896840463738,20.804633216329,-7.3562934269368e-05,-7.3562934269368e-05,-7.3562934269368e-05,2664124.153042,0.015820251185922
26019200,0.99292496954693,0.015976673463343,0.0048272347421793,0.0063222039790171,0.0048272347421469,-0.001103720937658,0.0011037203544215,1.6813671508204e-08,-1.7400589003141e-08,4.9170165943804e-09,-5.6804719308935e-09,-0.0012273111532591,0.0012273254530394,-0.0012273225738171,0.0012273141029648,-0.0012273145117533,0.0012273219587593,-0.0012273259362414,0.0012273105389494,-0.0011008616050602,0.0011008910410592,-0.0011008950613692,0.0011008573910541,-4.5312693582433e-09,6.0063771648888e-09,7.9350348147215e-09,-6.660354154223e-09,-0.0015693913871422,0.0015693926898353,-0.0016743619122712,0.0016743644856636,-0.0016743665285281,0.0016743596017474,-0.0016743585149934,0.001674367994739,-0.0016743631731958,0.0016743630727995,-0.0014492438210672,0.0014492629788612,-0.0014492579125834,0.001449248283853,-0.0014492600393273,0.0014492462489453,-0.0014492497979351,0.0014492567677251,-1.5414032264608e-08,1.877911994666e-08,-0.0011037190143447,0.0011037222776742,-5.3784255492031e-09,9.0554726832277e-09,-0.0012273248088699,0.0012273117356586,-0.0012273200604303,0.0012273165250734,-0.0012273133873038,0.0012273231471867,-0.0012273086698756,0.0012273278938963,-0.001100855481058,0.0011008970875356,-0.001100888917349,0.0011008636667289,0.68688289880312,128566,2924,0.0045892954965783,0.0065166959670037,0.0045892954964517,20.67590970553,-7.459272235576e-05,-7.459272235576e-05,-7.459272235576e-05,2660361.3648165,0.015819984946983
26219200,0.99311609397141,0.015979796172738,0.0048281729494722,0.0063234502738262,0.0048281729494399,-0.0011036151902203,0.001103614609443,1.694766281084e-08,-1.7532177018438e-08,4.9067599756854e-09,-5.6675431123306e-09,-0.0012272490710855,0.0012272634536502,-0.0012272605797522,0.0012272520157024,-0.0012272524217473,0.0012272599679036,-0.0012272639349619,0.0012272484587003,-0.0011007729603621,0.001100802668239,-0.0011008066784265,0.0011007687564961,-4.5189965614041e-09,5.9927815184618e-09,8.1777493126661e-09,-6.9042219621701e-09,-0.0015694479003684,0.0015694492019916,-0.0016744246225345,0.0016744273642744,-0.0016744293966926,0.0016744223171757,-0.0016744212332542,0.001674430865229,-0.0016744260502428,0.0016744257788964,-0.0014492846861161,0.0014493043138069,-0.001449299252677,0.0014492891339996,-0.0014493012051527,0.0014492872781594,-0.0014492909901522,0.0014492977692041,-1.5561493095481e-08,1.8952385442387e-08,-0.0011036132549871,0.0011036165446493,-5.4887866179247e-09,9.195280582242e-09,-0.0012272628508239,0.0012272496122969,-0.0012272580187225,0.0012272544855357,-0.0012272513218777,0.0012272611311992,-0.0012272465218877,0.0012272659607319,-0.0011007667620366,0.0011008087886954,-0.001100800510867,0.0011007750555371,0.72524659383816,128566,2924,0.0045888579080198,0.0065169285688549,0.004588857907964,20.537896246446,-7.5696830028432e-05,-7.5696830028432e-05,-7.5696830028432e-05,2659194.4191145,0.015819332357831
26419200,0.99330051641835,0.01598289691699,0.0048291064852105,0.0063246839466011,0.0048291064851782,-0.0011035059833953,0.001103505403777,1.7105011207086e-08,-1.7688358910985e-08,4.9018502622933e-09,-5.6611814871445e-09,-0.0012272258623433,0.0012272403471229,-0.0012272374766559,0.0012272288049925,-0.0012272292098057,0.0012272368648778,-0.0012272408276977,0.0012272252519968,-0.0011007029507179,0.0011007329695504,-0.0011007369758516,0.001100698752674,-4.5155679400285e-09,5.9889536638119e-09,8.2353915954398e-09,-6.9622271850915e-09,-0.0015695451675716,0.0015695464688605,-0.0016745101140486,0.0016745128957034,-0.0016745149256479,0.0016745078104429,-0.0016745067275062,0.0016745163938573,-0.0016745115811361,0.0016745112700603,-0.0014493652580559,0.0014493849954154,-0.0014493799363619,0.0014493697024847,-0.0014493818473949,0.0014493678881841,-0.0014493716381661,0.0014493783727523,-1.5680639419053e-08,1.91059974207e-08,-0.0011035040313386,0.0011035073558044,-5.6328899023742e-09,9.3773741877612e-09,-0.0012272397757945,0.0012272263727838,-0.0012272348360812,0.0012272313536861,-0.0012272281563615,0.0012272379822162,-0.0012272232480212,0.001227242920143,-0.0011006967030492,0.0011007391403377,-0.0011007307199176,0.0011007051392547,0.74502753781123,128566,2924,0.0045884071112048,0.006517328449315,0.0045884071111441,20.399520843485,-7.6803833252123e-05,-7.6803833252123e-05,-7.6803833252123e-05,2654184.8845008,0.015818823888805
26619200,0.99348255740826,0.015985928918203,0.0048300183931313,0.0063258921319729,0.004830018393099,-0.0011040675270119,0.0011040669424529,1.7224162526629e-08,-1.7812397051659e-08,4.9203075458918e-09,-5.6852435348302e-09,-0.0012279052783562,0.0012279198513628,-0.0012279169709456,0.0012279082297113,-0.0012279086375797,0.0012279163567186,-0.0012279203382408,0.0012279046609818,-0.0011013237552302,0.0011013539990717,-0.0011013580241048,0.001101319538372,-4.5439059410867e-09,6.0200328436584e-09,8.0514427358923e-09,-6.7758222853391e-09,-0.0015703820092584,0.0015703833130212,-0.0016753247874295,0.0016753274285084,-0.001675329477611,0.0016753224686432,-0.0016753213796956,0.0016753309486536,-0.00167532611572,0.0016753259462362,-0.0014501809972075,0.0014502003991063,-0.0014501953212807,0.0014501854672665,-0.001450197384554,0.0014501834975766,-0.0014501871229833,0.0014501940356477,-1.5876081111576e-08,1.9254157658867e-08,-0.0011040655964018,0.0011040688730354,-5.4586128155372e-09,9.1511339452085e-09,-0.0012279192509965,0.0012279058172005,-0.0012279144420149,0.0012279106673488,-0.0012279075148217,0.0012279175432734,-0.0012279027411894,0.0012279223466019,-0.0011013175445336,0.0011013601328593,-0.0011013518921117,0.0011013258008808,0.73848438338996,128566,2924,0.0045907392768686,0.0065207885504626,0.0045907392768116,20.62955727685,-7.4963541785196e-05,-7.4963541785196e-05,-7.4963541785196e-05,2651073.2518107,0.015827078658903
26819200,0.99366441564723,0.015988881988187,0.0048309043894573,0.0063270732093043,0.0048309043894249,-0.001104999282431,0.0011049986891916,1.7433618572772e-08,-1.8030640363753e-08,4.9504129796088e-09,-5.725107633127e-09,-0.0012289547313719,0.0012289694666935,-0.0012289665712711,0.001228957698819,-0.0012289581192649,0.0012289659456398,-0.0012289699616833,0.0012289541136941,-0.0011023122331778,0.0011023428551924,-0.0011023469148636,0.0011023079895468,-4.565695161441e-09,6.0424476964294e-09,7.7117839323533e-09,-6.4355053018482e-09,-0.001571607513675,0.0015716088201517,-0.0016765339028619,0.0016765363165947,-0.0016765383775119,0.0016765315847088,-0.0016765304856832,0.0016765398474101,-0.0016765349972715,0.0016765350798203,-0.0014513822706815,0.0014514010085528,-0.00145139593217,0.0014513867647025,-0.0014513982506027,0.0014513845248322,-0.0014513879307491,0.0014513951148019,-1.597964939007e-08,1.9309812769698e-08,-0.0011049973724501,0.0011050005993137,-5.2419275348297e-09,8.8810602780402e-09,-0.0012289687540027,0.0012289553832422,-0.001228964111478,0.0012289600716546,-0.001228956968963,0.001228967157809,-0.0012289523539376,0.0012289718072556,-0.0011023062355495,0.001102348777513,-0.001102340750359,0.0011023142799962,0.72121903479093,128566,2924,0.0045946068319775,0.0065258575255398,0.004594606832276,21.063921877054,-7.1488624983566e-05,-7.1488624983566e-05,-7.1488624983566e-05,2651339.7518072,0.01584008715211
27019200,0.99384599388295,0.015991747060146,0.0048317615642738,0.0063282239316313,0.0048317615642407,-0.0011059365240432,0.0011059359274095,1.761251080619e-08,-1.8212726806839e-08,4.96708523277e-09,-5.7452529957e-09,-0.0012299891691059,0.0012300040343785,-0.0012300011289382,0.0012299921427578,-0.0012299925683428,0.0012300004980981,-0.0012300045272134,0.0012299885449582,-0.0011032918631143,0.0011033228155199,-0.0011033268880221,0.001103287599345,-4.5791611254768e-09,6.0582605412402e-09,7.4876012819205e-09,-6.2093470360044e-09,-0.0015728152054055,0.0015728165119959,-0.0016777372427868,0.0016777394964269,-0.0016777415725382,0.0016777349094164,-0.0016777338165301,0.0016777430357378,-0.0016777381814577,0.0016777384169685,-0.0014525643060505,0.001452582610141,-0.0014525775193417,0.0014525688160345,-0.0014525800075711,0.0014525664085336,-0.0014525696581399,0.0014525770354842,-1.612027512844e-08,1.939517479873e-08,-0.0011059346399425,0.0011059378115021,-5.044924948594e-09,8.622626048375e-09,-0.0012300032436358,0.0012299898970549,-0.0012299987524603,0.0012299944297391,-0.0012299913846372,0.0012300017456223,-0.001229986918029,0.0012300062423261,-0.0011032860171699,0.0011033285843726,-0.0011033207589392,0.0011032938590148,0.70228504091638,128566,2924,0.0045984964732201,0.0065308535359931,0.0045984964732051,21.503486502242,-6.7972107982063e-05,-6.7972107982063e-05,-6.7972107982063e-05,2653925.6048275,0.015853066071791
27219200,0.99402713508062,0.01599451548874,0.0048325872474446,0.0063293409938836,0.0048325872474117,-0.0011068758506928,0.0011068752533275,1.7661273903687e-08,-1.826217846786e-08,4.9707137968114e-09,-5.7497908606007e-09,-0.0012310000645974,0.0012310149600256,-0.0012310120517061,0.0012310030394593,-0.0012310034621636,0.0012310114251485,-0.0012310154569547,0.0012309994348424,-0.0011042585185793,0.0011042895757192,-0.001104293650108,0.0011042542500322,-4.5921267700911e-09,6.0726510805603e-09,7.3842916288419e-09,-6.1047600202424e-09,-0.0015739877949082,0.0015739891027602,-0.0016789192559126,0.0016789214291122,-0.001678923514049,0.0016789169154292,-0.0016789158164504,0.001678924981889,-0.0016789201183107,0.0016789204280306,-0.0014537092701038,0.0014537273923747,-0.0014537222925987,0.0014537137920621,-0.0014537248546195,0.0014537113105395,-0.001453714490464,0.0014537219523181,-1.6389671874837e-08,1.9614558774676e-08,-0.0011068739914529,0.0011068771125621,-4.8495307928102e-09,8.372206260399e-09,-0.0012310141881843,0.0012310007727902,-0.0012310098408227,0.0012310051615851,-0.0012310021616213,0.0012310127889048,-0.0012309978473045,0.0012310171333271,-0.0011042525899435,0.0011042954258808,-0.0011042877983072,0.0011042602337357,0.68191770915759,128566,2924,0.0046023940417825,0.0065357051539658,0.0046023940417726,21.943254143283,-6.4453966853736e-05,-6.4453966853736e-05,-6.4453966853736e-05,2658182.7156079,0.015865914056564
27419200,0.99420625969975,0.015997340486419,0.0048334321302172,0.0063304762260174,0.0048334321301844,-0.0011075809011305,0.0011075803068451,1.7749658735768e-08,-1.834749186408e-08,4.9596467411891e-09,-5.7352510451939e-09,-0.0012317438503439,0.0012317587954106,-0.0012317558928505,0.0012317468199243,-0.0012317472365859,0.0012317552722408,-0.0012317592925883,0.0012317432206759,-0.0011049752770187,0.0011050065252692,-0.001105010588109,0.0011049710198757,-4.5838600649274e-09,6.063498326053e-09,7.423297592707e-09,-6.14457578431e-09,-0.001574873235578,0.001574874542711,-0.0016798267245267,0.0016798289250285,-0.0016798310046147,0.0016798243890733,-0.0016798232879561,0.0016798324749622,-0.0016798276174464,0.0016798278926419,-0.0014545695624179,0.0014545877644871,-0.0014545826715267,0.001454574078404,-0.0014545851869463,0.0014545716423576,-0.0014545748496112,0.0014545822581089,-1.6592813891345e-08,1.9824606860067e-08,-0.0011075790399186,0.0011075821680517,-4.8717683580561e-09,8.4017428104021e-09,-0.0012317580741043,0.0012317445082449,-0.0012317537067058,0.0012317489171424,-0.0012317459071093,0.0012317566648564,-0.0012317415788336,0.0012317610232991,-0.0011049692341756,0.0011050124896619,-0.0011050048375058,0.001104976902434,0.70214876733565,128566,2924,0.0046053190642595,0.0065393692907183,0.0046053190642493,22.251706408631,-6.198634873095e-05,-6.198634873095e-05,-6.198634873095e-05,2662960.5643478,0.015875579217317
27619200,0.99438284113359,0.016000168838209,0.0048342789998247,0.0063316108385922,0.0048342789997919,-0.0011082106190806,0.0011082100283551,1.7894807237965e-08,-1.8489127396441e-08,4.9461981061883e-09,-5.7179352861196e-09,-0.0012324338860895,0.001232448919779,-0.0012324460243142,0.0012324368493386,-0.0012324372620535,0.0012324454072082,-0.0012324494139423,0.0012324332598779,-0.0011056282428027,0.0011056597877261,-0.001105663836982,0.0011056239994032,-4.5677808118434e-09,6.0459432038205e-09,7.5378155007342e-09,-6.260408651166e-09,-0.0015757006508977,0.0015757019566321,-0.0016806672021388,0.0016806694879376,-0.0016806715566764,0.0016806648751013,-0.001680663776315,0.0016806730268118,-0.0016806681806236,0.0016806683671651,-0.0014553699784802,0.0014553883947572,-0.0014553833122029,0.0014553744797482,-0.0014553857305458,0.0014553721423563,-0.0014553754274405,0.0014553827243496,-1.6727176049489e-08,1.9990303412459e-08,-0.001108208743795,0.0011082119036355,-4.9889071303705e-09,8.5534677650469e-09,-0.0012324482335741,0.001232434509269,-0.0012324437767923,0.0012324390074997,-0.0012324359663452,0.0012324467661837,-0.0012324315491508,0.0012324512134469,-0.0011056221425158,0.001105665809687,-0.0011056580374115,0.0011056299308057,0.71252805465354,128566,2924,0.0046079322691863,0.0065427924799277,0.0046079322691765,22.518775342254,-5.9849797261971e-05,-5.9849797261971e-05,-5.9849797261971e-05,2664972.1739634,0.015884366737409
27819200,0.99455680975482,0.016003002470211,0.0048351285116947,0.0063327454468541,0.0048351285116619,-0.0011088381647358,0.0011088375765604,1.8183395388491e-08,-1.8775211884341e-08,4.9362505326497e-09,-5.7051907727499e-09,-0.0012331321691491,0.0012331473967638,-0.0012331445066864,0.0012331351277563,-0.0012331355449774,0.0012331438847325,-0.0012331478814582,0.0012331315527664,-0.0011062855524419,0.0011063176491141,-0.0011063216884867,0.0011062813190888,-4.5523176118806e-09,6.0289929901673e-09,7.6782709633279e-09,-6.4021926756437e-09,-0.0015765363422579,0.0015765376466289,-0.0016815110728104,0.0016815134681949,-0.0016815155261076,0.0016815087535461,-0.0016815076646761,0.0016815169890545,-0.0016815121534374,0.0016815122419149,-0.0014561783170559,0.001456196977488,-0.0014561919042043,0.0014561828033577,-0.0014561942314686,0.0014561805595042,-0.0014561839393976,0.001456191130349,-1.6718486540223e-08,2.0011160527058e-08,-0.0011088362757337,0.0011088394655569,-5.103044386791e-09,8.7003725944139e-09,-0.0012331466407854,0.0012331328624727,-0.0012331421045806,0.0012331374401222,-0.0012331343769365,0.0012331451160886,-0.0012331298659509,0.0012331496570544,-0.0011062796537749,0.0011063234695554,-0.0011063155815111,0.0011062875578402,0.72383354773927,128566,2924,0.0046105368184626,0.0065462494829934,0.0046105368184518,22.784769561245,-5.7721843510043e-05,-5.7721843510043e-05,-5.7721843510043e-05,2665863.4129748,0.015893171355492
28019200,0.99472810988078,0.016005843200465,0.0048359812348662,0.0063338807307651,0.0048359812348335,-0.0011094647965233,0.0011094642107818,1.8340281560852e-08,-1.8929647923535e-08,4.9267401034956e-09,-5.6929215724479e-09,-0.0012338405262431,0.0012338558528633,-0.0012338529680881,0.001233843480333,-0.0012338438954299,0.001233852347823,-0.0012338563351315,0.0012338399127926,-0.0011069492586805,0.0011069816667044,-0.0011069856967003,0.001106945035168,-4.541285029742e-09,6.0169056428981e-09,7.8014530047894e-09,-6.5263125241028e-09,-0.0015773829031133,0.0015773842065208,-0.0016823602570166,0.0016823627406609,-0.001682364790485,0.0016823579428562,-0.0016823568563972,0.0016823662533265,-0.0016823614251495,0.0016823614239107,-0.0014569971410881,0.0014570160341084,-0.0014570109655119,0.001457001614919,-0.0014570132011194,0.0014569994676518,-0.0014570029287654,0.0014570100156771,-1.6842085145396e-08,2.0163074211408e-08,-0.0011094628943782,0.001109466112919,-5.2147958449783e-09,8.8434908655715e-09,-0.0012338551216934,0.0012338411951677,-0.0012338505013505,0.0012338458569453,-0.0012338427661523,0.0012338535404817,-0.0012338381702394,0.0012338581663319,-0.0011069433229666,0.0011069875243024,-0.0011069795236986,0.0011069513398131,0.73612508066475,128566,2924,0.0046131379285841,0.006549751019422,0.0046131379285683,23.050721605275,-5.5594227157803e-05,-5.5594227157803e-05,-5.5594227157803e-05,2665538.0905397,0.015902014569177
28219200,0.99489602733664,0.016008681769925,0.0048368344062463,0.0063350129574649,0.0048368344062136,-0.0011099648133218,0.0011099642287762,1.8410317647919e-08,-1.8998552350362e-08,4.9214113347105e-09,-5.6863694058474e-09,-0.0012344322653652,0.0012344476316823,-0.0012344447499061,0.0012344352170593,-0.0012344356272491,0.0012344441342131,-0.0012344481164036,0.0012344316498102,-0.0011074918435131,0.0011075244027737,-0.0011075284278579,0.0011074876252032,-4.536984264245e-09,6.0121669692495e-09,7.8963537666951e-09,-6.6216102649399e-09,-0.0015781119312957,0.0015781132343006,-0.0016830855248198,0.0016830880701715,-0.0016830901164545,0.001683083212234,-0.0016830821236528,0.0016830915833761,-0.0016830867575594,0.0016830866867581,-0.0014576997731346,0.0014577188595582,-0.001457713791727,0.0014577042409932,-0.0014577159506555,0.0014577021729085,-0.0014577056970586,0.0014577127016131,-1.7055890439174e-08,2.0397133532236e-08,-0.001109962901485,0.0011099661406069,-5.2982481876253e-09,8.9495551669277e-09,-0.0012344469788273,0.0012344328562604,-0.001234442292102,0.0012344375844076,-0.0012344344701154,0.0012344453548025,-0.0012344298148292,0.0012344500399948,-0.0011074857278976,0.0011075304405474,-0.001107522356896,0.0011074938275332,0.74948915539111,128566,2924,0.004615214174569,0.0065527656607039,0.004615214174557,23.25063631048,-5.3994909516161e-05,-5.3994909516161e-05,-5.3994909516161e-05,2663737.8574708,0.015909297006294
28419200,0.99506046951987,0.016011519125237,0.004837688342716,0.0063361424398381,0.0048376883426833,-0.0011104416638485,0.0011104410790535,1.8508092734416e-08,-1.9096572773836e-08,4.9218932669253e-09,-5.6871036069474e-09,-0.0012350119305605,0.0012350273602149,-0.0012350244784522,0.0012350148825648,-0.0012350152909834,0.0012350238643224,-0.0012350278472133,0.001235011312938,-0.0011080186467469,0.0011080514039392,-0.0011080554297451,0.0011080144278478,-4.5384318565515e-09,6.0137558454163e-09,7.9368398986362e-09,-6.6619702404998e-09,-0.0015788339173855,0.0015788352205137,-0.0016837966547503,0.0016837992239441,-0.0016838012708303,0.0016837943410014,-0.0016837932508806,0.0016838027401316,-0.0016837979126714,0.0016837978145609,-0.0014583969547336,0.0014584161273193,-0.0014584110576845,0.001458401423073,-0.001458413186663,0.0014583993851243,-0.0014584029360528,0.0014584099112887,-1.7246981204184e-08,2.0597038617272e-08,-0.0011104397474034,0.0011104429954919,-5.3382819767382e-09,8.9994768116012e-09,-0.0012350267525611,0.0012350124764222,-0.0012350220340315,0.0012350172363688,-0.0012350141114436,0.0012350251073603,-0.0012350094281989,0.0012350298205198,-0.0011080124228091,0.0011080575501266,-0.0011080494277825,0.0011080205611075,0.76402415084126,128566,2924,0.0046171946709292,0.0065557506948879,0.0046171946709162,23.441273903796,-5.2469808769632e-05,-5.2469808769632e-05,-5.2469808769632e-05,2661010.0449431,0.015916355088135
28619200,0.99522144135875,0.016014315561979,0.0048385300916848,0.0063372553786425,0.0048385300916521,-0.0011109085486382,0.0011109079626427,1.8700903689137e-08,-1.9290570150396e-08,4.926097728048e-09,-5.6926198009609e-09,-0.001235594667833,0.0012356102309381,-0.001235607347111,0.0012355976218635,-0.0012355980333611,0.0012356067299059,-0.0012356107171649,0.0012355940509062,-0.0011085423333374,0.0011085754599885,-0.0011085794901108,0.0011085381099525,-4.5425531401197e-09,6.018246046185e-09,7.9369553549326e-09,-6.6617620231548e-09,-0.0015795660650989,0.001579567368549,-0.0016845107776797,0.0016845133462799,-0.0016845153956837,0.0016845084613734,-0.0016845073729651,0.0016845168633956,-0.0016845120328005,0.0016845119397606,-0.0014591055721202,0.0014591247424666,-0.0014591196703785,0.0014591100443974,-0.0014591218095404,0.0014591079946422,-0.0014591115460561,0.0014591185355373,-1.7347873046331e-08,2.0696123200056e-08,-0.0011109066324893,0.0011109098787849,-5.3373740007704e-09,8.9967627900752e-09,-0.001235609588931,0.0012355952480303,-0.00123560487353,0.0012356000048208,-0.0012355968836148,0.0012356079431429,-0.0012355921996981,0.0012356126569651,-0.0011085361952332,0.001108581520252,-0.0011085734009357,0.0011085443305372,0.76896077954364,128566,2924,0.00461913417704,0.0065587772926153,0.0046191341770267,23.631657496129,-5.0946740030965e-05,-5.0946740030965e-05,-5.0946740030965e-05,2657548.5976019,0.015923372406083
28819200,0.99537897303182,0.016016979054052,0.0048393297517593,0.0063383195505661,0.0048393297517267,-0.0011113666670919,0.0011113660796265,1.8901900038484e-08,-1.949301855566e-08,4.9315818641603e-09,-5.699725230189e-09,-0.0012361706954245,0.0012361863980495,-0.0012361835113735,0.0012361736520891,-0.001236174066946,0.0012361828909222,-0.0012361868837505,0.0012361700788637,-0.0011090561511522,0.0011090896608986,-0.0011090936965645,0.0011090519221044,-4.5479272158866e-09,6.0241240976734e-09,7.9053495612327e-09,-6.6297090247636e-09,-0.0015802958165551,0.0015802971204521,-0.0016852210240701,0.0016852235702089,-0.0016852256231083,0.0016852187046715,-0.0016852176174034,0.0016852270891525,-0.0016852222548652,0.0016852221887891,-0.0014598122069355,0.001459831313466,-0.001459826238086,0.0014598166842896,-0.0014598284102664,0.0014598146003918,-0.0014598181306246,0.001459825158252,-1.7443912159068e-08,2.0783421658774e-08,-0.0011113647546254,0.0011113679920869,-5.3076528304376e-09,8.9575123363104e-09,-0.0012361857085056,0.0012361713230506,-0.0012361810178964,0.0012361760550451,-0.0012361729443644,0.0012361840769587,-0.0012361682814962,0.0012361887697395,-0.0011090501274159,0.001109095606711,-0.0011090875190256,0.0011090582311567,0.74978433361073,128566,2924,0.0046210373206569,0.0065617938967766,0.0046210373206447,23.824250470582,-4.9405996235344e-05,-4.9405996235344e-05,-4.9405996235344e-05,2654442.085908,0.015930305732288
29019200,0.99553419967532,0.016019459067313,0.0048400704968308,0.0063393180736837,0.0048400704967982,-0.0011120460596701,0.0011120454705466,1.8920124072099e-08,-1.9512860429418e-08,4.9384073211749e-09,-5.70837691718e-09,-0.0012369445488873,0.0012369602616609,-0.0012369573713625,0.0012369475088988,-0.0012369479205657,0.0012369567540371,-0.0012369607537523,0.0012369439259556,-0.0011097780345514,0.0011098115887226,-0.0011098156312077,0.001109773798985,-4.5610325329987e-09,6.0384704814012e-09,7.7791078832998e-09,-6.5023624975832e-09,-0.0015812252761268,0.0015812265811443,-0.0016861431155082,0.0016861455650149,-0.0016861476274485,0.0016861407896816,-0.0016861396952266,0.0016861490981631,-0.0016861442549379,0.0016861442780809,-0.0014607160996543,0.0014607349811591,-0.0014607298964693,0.0014607205882295,-0.0014607321558781,0.0014607184180429,-0.0014607218612422,0.0014607289876312,-1.7727716148668e-08,2.1048551346612e-08,-0.0011120441558628,0.0011120473743455,-5.2325898843238e-09,8.8616248308294e-09,-0.0012369596424564,0.0012369451060255,-0.0012369550035528,0.0012369497863037,-0.0012369466893028,0.0012369580489189,-0.0012369420877064,0.0012369626804741,-0.0011097718086177,0.001109817736875,-0.0011098097239114,0.0011097798376237,0.71130252243408,128566,2924,0.0046238575324045,0.0065656379600783,0.0046238575323877,24.139914428442,-4.6880684572461e-05,-4.6880684572461e-05,-4.6880684572461e-05,2654529.6090806,0.015939942570135
29219200,0.99568707551645,0.016021841846329,0.0048407805608871,0.006340280724587,0.0048407805608546,-0.0011127339010046,0.0011127333104505,1.9049866619144e-08,-1.9643997491924e-08,4.9443506755562e-09,-5.7159059361737e-09,-0.0012376780603777,0.001237693863812,-0.0012376909700959,0.0012376810231396,-0.0012376814361054,0.0012376903517728,-0.0012376943572782,0.0012376774356034,-0.0011104818525753,0.0011105156588101,-0.0011105197069508,0.0011104776109282,-4.5663386850171e-09,6.0442910236464e-09,7.6952841616452e-09,-6.418085464777e-09,-0.0015821010820945,0.001582102387539,-0.0016870341169426,0.0016870365081894,-0.0016870385746517,0.0016870317886719,-0.0016870306929986,0.0016870400451466,-0.0016870351987562,0.0016870352806073,-0.0014615661974499,0.0014615849193027,-0.0014615798338254,0.0014615706935454,-0.0014615821517953,0.0014615684602339,-0.001461571849168,0.001461579041448,-1.7901625801942e-08,2.1200774792859e-08,-0.0011127320074237,0.001112735204024,-5.1494653048991e-09,8.7546509359509e-09,-0.001237693232281,0.0012376786295165,-0.001237688656267,0.0012376832468465,-0.0012376801710172,0.0012376916804684,-0.0012376756327832,0.0012376962486268,-0.0011104756365831,0.001110521796811,-0.0011105138687421,0.0011104835807529,0.69516966008577,128566,2924,0.004626711383542,0.0065692617132682,0.0046267113835273,24.4586437547,-4.4330849962399e-05,-4.4330849962399e-05,-4.4330849962399e-05,2658390.2716003,0.01594942293684
29419200,0.99583752897907,0.016024025062277,0.0048414266385912,0.0063411717851276,0.0048414266385587,-0.0011134199438745,0.0011134193519815,1.9332408338534e-08,-1.9927892963108e-08,4.9492593014117e-09,-5.7223724792723e-09,-0.0012383903926671,0.001238406392477,-0.0012384034959551,0.0012383933576648,-0.0012383937768441,0.0012384028717763,-0.0012384068821658,0.0012383897712288,-0.0011111689352493,0.0011112032774508,-0.0011112073303862,0.0011111646881699,-4.5676484646512e-09,6.0457057878381e-09,7.6393349405026e-09,-6.3620570312307e-09,-0.0015829422762334,0.0015829435817597,-0.0016879028083234,0.001687905166616,-0.0016879072344576,0.0016879004797957,-0.0016878993882863,0.001687908699712,-0.001687903852873,0.0016879039774289,-0.0014623780343367,0.0014623966332463,-0.0014623915482176,0.0014623825328346,-0.0014623939176222,0.0014623802465175,-0.0014623835989586,0.0014623908449062,-1.7921394453345e-08,2.1201590784278e-08,-0.0011134180591908,0.0011134212366577,-5.0750242063765e-09,8.6593301223527e-09,-0.0012384056447279,0.001238391077761,-0.0012384011298189,0.0012383956339573,-0.0012383925816083,0.001238404130495,-0.0012383880948921,0.0012384086471166,-0.0011111630077586,0.0011112091265962,-0.0011112012736195,0.0011111708767898,0.65089856646928,128566,2924,0.0046295571463244,0.0065727430020386,0.0046295571463096,24.777492594927,-4.1780059240584e-05,-4.1780059240584e-05,-4.1780059240584e-05,2663585.8755931,0.015958741894064
29619200,0.99598541045782,0.016026138655745,0.0048420513339571,0.0063420359878637,0.0048420513339245,-0.0011140980709044,0.0011140974795379,1.9465573459548e-08,-2.0060464626384e-08,4.9479886459407e-09,-5.7204243967261e-09,-0.0012390386465174,0.0012390547334122,-0.0012390518376496,0.0012390416109823,-0.0012390420294447,0.0012390512138862,-0.0012390552229496,0.0012390380255245,-0.0011118209096337,0.0011118555122044,-0.0011118595638146,0.0011118166645379,-4.566296182139e-09,6.044211763009e-09,7.6161676385419e-09,-6.3390285093833e-09,-0.0015836981220476,0.0015836994274335,-0.0016887091186442,0.0016887114621807,-0.0016887135294005,0.0016887067910154,-0.0016887056992705,0.0016887149944056,-0.0016887101489358,0.0016887102876292,-0.0014631058008307,0.0014631243533237,-0.0014631192689839,0.001463110297939,-0.0014631216523107,0.0014631079993857,-0.0014631113354917,0.0014631185937379,-1.8084696562733e-08,2.1359583638584e-08,-0.0011140961890862,0.0011140993613447,-5.0553156368127e-09,8.6338711240277e-09,-0.0012390539911805,0.0012390393262469,-0.0012390494911108,0.0012390438676161,-0.0012390408200922,0.0012390524868852,-0.0012390363484731,0.0012390569883955,-0.0011118149644458,0.0011118613792545,-0.0011118535465681,0.0011118228135704,0.64191385358738,128566,2924,0.0046323685437763,0.0065758730262118,0.0046323685437533,25.087126275462,-3.9302989796307e-05,-3.9302989796307e-05,-3.9302989796307e-05,2672219.592169,0.01596763303114
29819200,0.99613017380679,0.016028334855391,0.0048427044447746,0.0063429259658745,0.0048427044447421,-0.001114683096293,0.0011146825023587,1.9595086318928e-08,-2.0192557842283e-08,4.9463663983706e-09,-5.7213545878976e-09,-0.0012395813255516,0.0012395974969124,-0.0012395946041449,0.0012395842874656,-0.0012395847083135,0.0012395939778243,-0.0012395979894271,0.0012395807022481,-0.001112376617403,0.0011124114742634,-0.0011124155283305,0.0011123723703035,-4.5652108324134e-09,6.0428141082358e-09,7.6567900229089e-09,-6.379927648825e-09,-0.0015843315649237,0.0015843328701647,-0.0016893973320145,0.0016893997034115,-0.0016894017693612,0.0016893950052044,-0.0016893939133878,0.0016894032349028,-0.0016893983897353,0.0016893985008463,-0.0014637125467379,0.0014637311782394,-0.0014637260948334,0.0014637170419625,-0.0014637284501281,0.0014637147716141,-0.0014637181354649,0.0014637253629383,-1.8240107172647e-08,2.1529598548091e-08,-0.0011146812058631,0.0011146843927962,-5.1048645642446e-09,8.699350299568e-09,-0.001239596778634,0.0012395819815435,-0.0012395922404861,0.0012395865612489,-0.0012395834991418,0.0012395952505996,-0.0012395789896102,0.0012395997902775,-0.001112370614186,0.0011124173994372,-0.0011124095146452,0.001112378515432,0.67837702835581,128566,2924,0.0046347935466741,0.006578496802737,0.0046347935466908,25.339451515441,-3.7284387876469e-05,-3.7284387876469e-05,-3.7284387876469e-05,2680208.1858561,0.015975224598804
30019200,0.99627178967044,0.016030517804285,0.0048433545816048,0.0063438086411083,0.0048433545815723,-0.0011152681581589,0.0011152675650305,1.9731727328727e-08,-2.0328385507296e-08,4.943511960546e-09,-5.71760333179e-09,-0.0012401754321134,0.0012401916914956,-0.001240188800178,0.0012401783926409,-0.0012401788111417,0.0012401881761521,-0.0012401921846159,0.0012401748078593,-0.0011129591376703,0.001112994268644,-0.0011129983196699,0.0011129548932816,-4.5641732689926e-09,6.0418645923605e-09,7.7285663150748e-09,-6.451637377789e-09,-0.0015850131056879,0.001585014410876,-0.001690114052468,0.0016901164698598,-0.0016901185346292,0.0016901117250142,-0.0016901106328886,0.0016901200021891,-0.0016901151572527,0.0016901152185088,-0.0014643634042846,0.0014643821807782,-0.0014643770961035,0.0014643678976303,-0.0014643793992613,0.0014643656807279,-0.001464369091801,0.0014643762659285,-1.8389060498108e-08,2.1695200319449e-08,-0.0011152662596741,0.0011152694635041,-5.1404017537255e-09,8.7525505199949e-09,-0.0012401909887632,0.0012401760725813,-0.001240186419425,0.0012401806832697,-0.0012401776030526,0.0012401894478863,-0.0012401730654265,0.0012401940154347,-0.0011129530964751,0.0011130002317525,-0.001112992300421,0.0011129610442255,0.68873089473352,128566,2924,0.0046372201960065,0.0065813178160366,0.004637220195984,25.590344685601,-3.5277242515192e-05,-3.5277242515192e-05,-3.5277242515192e-05,2683312.1730438,0.015983021288697
30219200,0.99641024415385,0.016032555820717,0.0048439589037607,0.0063446380132283,0.0048439589037282,-0.0011158483537659,0.0011158477613148,1.9878916972758e-08,-2.0474879837379e-08,4.941844393421e-09,-5.7151688815137e-09,-0.001240780867523,0.0012407972249678,-0.0012407943345889,0.0012407838275205,-0.0012407842461423,0.001240793710139,-0.0012407977167038,0.001240780244949,-0.0011135421137377,0.0011135775317394,-0.0011135815809387,0.0011135378716183,-4.5608666939473e-09,6.038238274142e-09,7.7746094801347e-09,-6.497969059035e-09,-0.0015857020998218,0.0015857034047113,-0.0016908327093684,0.0016908351600964,-0.0016908372224631,0.0016908303834337,-0.0016908292929415,0.0016908386891967,-0.0016908338464112,0.0016908338754955,-0.0014650191160325,0.0014650379778943,-0.0014650328949136,0.0014650236059278,-0.0014650351665032,0.0014650214214021,-0.0014650248631059,0.0014650320022534,-1.8525623921025e-08,2.1851970611395e-08,-0.0011158464454234,0.0011158496696488,-5.1928170297689e-09,8.8265838297087e-09,-0.001240796532655,0.0012407814977826,-0.0012407919222986,0.001240786149475,-0.0012407830500725,0.0012407949699475,-0.00124077846962,0.0012407995803038,-0.0011135360401941,0.0011135835273493,-0.0011135755340254,0.0011135440500844,0.6600831208148,128566,2924,0.00463962709082,0.0065841691113192,0.0046396270908029,25.841181921438,-3.3270544628499e-05,-3.3270544628499e-05,-3.3270544628499e-05,2685084.7106436,0.015990809100655
30419200,0.99654581824373,0.016034437528316,0.0048445137318809,0.0063454100645865,0.0048445137318484,-0.001116496005481,0.0011164954146823,2.00251012465e-08,-2.0619447060939e-08,4.9371437044871e-09,-5.7087930288799e-09,-0.0012414187512462,0.0012414352030696,-0.0012414323147147,0.0012414217092977,-0.001241422125676,0.0012414316924677,-0.0012414356936827,0.0012414181298318,-0.0011141743450708,0.0011142100546511,-0.0011142140986051,0.0011141701082887,-4.5560907866127e-09,6.0329933782523e-09,7.7940163905022e-09,-6.5177995870496e-09,-0.0015864138625589,0.0015864151670122,-0.0016915885737137,0.00169159103973,-0.0016915930990318,0.0016915862504281,-0.0016915851600356,0.0016915945660428,-0.0016915897267739,0.0016915897385996,-0.00146569791788,0.001465716816135,-0.0014657117364767,0.0014657024036525,-0.0014657139872659,0.0014657002401832,-0.0014657036955355,0.0014657108097665,-1.8670922098271e-08,2.200295590947e-08,-0.0011164940950807,0.0011164973250741,-5.2028451886509e-09,8.8426729431109e-09,-0.0012414345147356,0.0012414193775519,-0.0012414298951482,0.0012414240384614,-0.0012414209328689,0.001241432949042,-0.0012414163442566,0.001241437567518,-0.0011141682659562,0.001114216055931,-0.001114208048233,0.0011141762900934,0.62526526884923,128566,2924,0.0046423127750351,0.0065871158849786,0.0046423127750181,26.129083254065,-3.096733396748e-05,-3.096733396748e-05,-3.096733396748e-05,2689828.3076443,0.015999259744759
30619200,0.99667929657473,0.016036412696133,0.0048451001128643,0.0063462124704367,0.0048451001128318,-0.0011173568754534,0.0011173562877663,2.0178650029256e-08,-2.076990857171e-08,4.9296401681267e-09,-5.6980247105505e-09,-0.0012422253730247,0.0012422419240349,-0.0012422390385776,0.0012422283280131,-0.0012422287422614,0.001242238418505,-0.0012422424106797,0.0012422247556527,-0.0011150048646449,0.0011150408781881,-0.0011150449131127,0.0011150006372162,-4.5451596184936e-09,6.0209181140845e-09,7.7301191706361e-09,-6.4549367707596e-09,-0.0015872849870019,0.0015872862904568,-0.0016925204121279,0.0016925228440497,-0.0016925248974122,0.0016925180961436,-0.0016925170068988,0.001692526361722,-0.0016925215316567,0.001692521577552,-0.0014665388319107,0.0014665575941939,-0.0014665525244295,0.0014665433105425,-0.0014665548038505,0.0014665411176561,-0.001466544531827,0.00146655166706,-1.8819764852246e-08,2.2137262820533e-08,-0.0011173549739417,0.0011173581892667,-5.1666927508477e-09,8.7909640751003e-09,-0.0012422412254006,0.0012422260095427,-0.0012422366360769,0.0012422306402387,-0.0012422275500261,0.0012422396745889,-0.0012422229897879,0.0012422442646701,-0.0011149988193937,0.0011150468457121,-0.0011150388818683,0.0011150067997156,0.66318229746525,128566,2924,0.0046458816817037,0.006590723731802,0.0046458816816811,26.523178066534,-2.7814575467728e-05,-2.7814575467728e-05,-2.7814575467728e-05,2698015.9514111,0.016010175867205
30819200,0.99681060121915,0.01603844753836,0.0048457068157324,0.0063470339069274,0.0048457068156999,-0.0011182306219428,0.0011182300365728,2.0320818363212e-08,-2.0909769181813e-08,4.9231543111806e-09,-5.6890407706508e-09,-0.0012431007770784,0.0012431174184567,-0.0012431145356705,0.0012431037290627,-0.0012431041402922,0.0012431139188649,-0.0012431179035815,0.0012431001609738,-0.0011158777433316,0.0011159140430653,-0.0011159180703954,0.0011158735230105,-4.5400247703597e-09,6.0153005276391e-09,7.6970417570107e-09,-6.4222890818888e-09,-0.0015882226057599,0.0015882239087283,-0.0016934976947786,0.0016935001070305,-0.0016935021576073,0.0016934953821068,-0.0016934942921382,0.0016935036219117,-0.0016934987962594,0.0016934988590619,-0.0014674426065301,0.0014674613028222,-0.0014674562378403,0.0014674470816841,-0.0014674585287495,0.0014674448769731,-0.0014674482698402,0.0014674554130834,-1.8980036547974e-08,2.2282097079903e-08,-0.0011182287293707,0.0011182319291346,-5.120608219228e-09,8.7282491759312e-09,-0.0012431167155019,0.0012431014177649,-0.0012431121611964,0.0012431060134014,-0.0012431029376393,0.0012431151853131,-0.0012430984141726,0.0012431197385872,-0.0011158717186515,0.0011159199898115,-0.001115912077135,0.0011158796477521,0.69236327683182,128566,2924,0.0046495056080429,0.0065946047622614,0.0046495056080223,26.919936332353,-2.4640509341173e-05,-2.4640509341173e-05,-2.4640509341173e-05,2700778.0555777,0.016021482888113
31019200,0.99693963671325,0.016040508658748,0.0048463229509079,0.006347862756965,0.0048463229508754,-0.0011191033871912,0.0011191028028157,2.0470448205811e-08,-2.105851437105e-08,4.9202576195917e-09,-5.6852709675804e-09,-0.0012440164154986,0.0012440331556609,-0.0012440302739005,0.001244019366344,-0.0012440197769005,0.0012440296577958,-0.0012440336392168,0.0012440158009414,-0.0011167715586773,0.0011168081523676,-0.0011168121766425,0.0011167673414607,-4.5362081180734e-09,6.011034556491e-09,7.6604598317987e-09,-6.386121908477e-09,-0.0015892052085237,0.0015892065110918,-0.0016945024223252,0.0016945048133091,-0.0016945068619839,0.001694500112304,-0.0016944990227857,0.0016945083250885,-0.0016945035028615,0.0016945035870215,-0.001468390787517,0.0014684094080051,-0.0014684043467081,0.0014683952601902,-0.0014684066568441,0.0014683930354904,-0.0014683964049385,0.0014684035652292,-1.9129145333015e-08,2.2421743101981e-08,-0.0011191014998852,0.0011191046901143,-5.0955617816735e-09,8.6931413388633e-09,-0.001244032445903,0.0012440170629125,-0.0012440279120114,0.0012440216381246,-0.0012440185722374,0.0012440309263206,-0.0012440140683059,0.0012440354600331,-0.0011167655537962,0.001116814079575,-0.0011168061960585,0.001116773453265,0.71215831620131,128566,2924,0.0046531266197623,0.0065986704711706,0.0046531266197474,27.316798745569,-2.1465610035449e-05,-2.1465610035449e-05,-2.1465610035449e-05,2700125.1612337,0.016032972734627
31219200,0.99706741928629,0.01604265256779,0.0048469663825741,0.0063487198026745,0.0048469663825416,-0.0011202623132227,0.001120261731214,2.0614438907483e-08,-2.1200065805438e-08,4.913592109178e-09,-5.6759424713242e-09,-0.0012452455146231,0.0012452623461606,-0.0012452594673869,0.0012452484622837,-0.0012452488699526,0.0012452588541271,-0.0012452628281919,0.0012452449016484,-0.0011179725428751,0.0011180094255917,-0.0011180134424736,0.0011179683337279,-4.5319733956766e-09,6.006458506698e-09,7.5561658617903e-09,-6.282119688144e-09,-0.0015905146897901,0.0015905159920343,-0.0016958197502065,0.0016958220743599,-0.001695824121659,0.001695817443848,-0.00169581635289,0.0016958255838675,-0.0016958207659782,0.0016958209148976,-0.0014696662528814,0.0014696846676784,-0.0014696796117195,0.0014696707246045,-0.0014696819811261,0.001469668439346,-0.0014696717392794,0.0014696789579624,-1.929144988997e-08,2.2561237445117e-08,-0.0011202604386299,0.0011202636057979,-5.0412560629701e-09,8.6143922239348e-09,-0.0012452616305878,0.0012452461677595,-0.0012452571401829,0.0012452506994582,-0.0012452476556154,0.0012452601324778,-0.0012452431964829,0.001245264621364,-0.001117966568937,0.0011180153220226,-0.0011180075051982,0.0011179744020604,0.74546029104156,128566,2924,0.0046579352945208,0.006604088051366,0.0046579352945031,27.866096275609,-1.7071229795128e-05,-1.7071229795128e-05,-1.7071229795128e-05,2698128.8070278,0.016048250324766
31419200,0.99719390481714,0.016044673711282,0.004847570219153,0.0063495332730085,0.0048475702191206,-0.0011214383820675,0.0011214377990654,2.0773981331263e-08,-2.1360601133221e-08,4.9177095136239e-09,-5.6811036861232e-09,-0.0012465386724039,0.0012465556148379,-0.0012465527334536,0.0012465416216668,-0.001246542032852,0.001246552117757,-0.0012465560953843,0.0012465380599148,-0.0011192105030994,0.0011192476895801,-0.0011192517091895,0.0011192062884128,-4.5257905684989e-09,5.9996256632602e-09,7.5730916215435e-09,-6.2996267157869e-09,-0.0015919023740991,0.0015919036757931,-0.0016971970998437,0.0016971994415075,-0.0016972014844714,0.0016971947968817,-0.0016971937086782,0.0016972029445513,-0.0016971981311191,0.0016971982655148,-0.0014710164775439,0.0014710349150825,-0.0014710298636481,0.0014710209437492,-0.0014710322200895,0.0014710186725146,-0.0014710219851559,0.001471029183946,-1.9438037872867e-08,2.2681909530695e-08,-0.001121436520009,0.0011214396611179,-4.948032487651e-09,8.4931256670788e-09,-0.0012465548642021,0.0012465393601495,-0.0012465504471976,0.0012465438185068,-0.0012465408022153,0.0012465534118107,-0.0012465364125005,0.0012465578312954,-0.001119204595536,0.0011192535180532,-0.0011192457991768,0.0011192123309996,0.71242629622458,128566,2924,0.0046628161747292,0.0066098277087432,0.0046628161747174,28.434155270679,-1.2526757834564e-05,-1.2526757834564e-05,-1.2526757834564e-05,2693670.9400428,0.016064003163466
31619200,0.99731890888323,0.016046575633393,0.0048481358754132,0.006350303882599,0.0048481358753808,-0.001122607610212,0.0011226070275551,2.0904740848719e-08,-2.1491060049033e-08,4.9140704011897e-09,-5.6772860938657e-09,-0.0012477794612519,0.0012477964863096,-0.0012477936072959,0.0012477824088372,-0.0012477828167347,0.0012477929939586,-0.0012477969691562,0.0012477788473206,-0.0011204183016675,0.0011204557537265,-0.0011204597717281,0.0011204140911315,-4.5335108899425e-09,6.008208824227e-09,7.4921300678045e-09,-6.2178794441688e-09,-0.0015932360308965,0.0015932373333313,-0.0016985366152968,0.0016985388952084,-0.0016985409439263,0.0016985343084477,-0.0016985332162979,0.0016985424061646,-0.0016985375876944,0.0016985377803945,-0.0014723194132287,0.0014723377040697,-0.0014723326479703,0.00147232388729,-0.0014723350598136,0.0014723215583422,-0.0014723248161683,0.0014723320797086,-1.9597008160709e-08,2.2849070334049e-08,-0.0011226057442449,0.0011226088935106,-4.9907594613125e-09,8.5449913231674e-09,-0.0012477957619236,0.0012477801230679,-0.0012477913108767,0.0012477846153987,-0.0012477815888321,0.0012477942858773,-0.0012477771697943,0.0012477987346698,-0.0011204123512667,0.0011204616265184,-0.0011204538670305,0.0011204201267658,0.68057766474786,128566,2924,0.0046676673328026,0.0066153453058799,0.0046676673327791,29.002737086269,-7.9781033098496e-06,-7.9781033098496e-06,-7.9781033098496e-06,2693436.542548,0.01607946908264
31819200,0.99744013838234,0.016048354442239,0.0048486631157439,0.006351028210784,0.0048486631157115,-0.0011231994184894,0.0011231988273187,2.1055618619518e-08,-2.1650323098771e-08,4.9371355317147e-09,-5.7091627554085e-09,-0.0012483922697479,0.0012484094092535,-0.0012484065208674,0.0012483952272502,-0.0012483956450274,0.0012484058975555,-0.001248409899152,0.0012483916486126,-0.0011210142934818,0.0011210520186811,-0.0011210560629221,0.0011210100560004,-4.5544007000672e-09,6.0310442122686e-09,7.7293719712272e-09,-6.4534030391434e-09,-0.0015939223424099,0.0015939236465879,-0.0016992478550802,0.0016992502802798,-0.0016992523391785,0.0016992455330638,-0.001699244443327,0.0016992538043952,-0.0016992489673,0.001699249020988,-0.0014729778569464,0.001472996624497,-0.0014729915473259,0.0014729823424399,-0.0014729938400174,0.0014729801365736,-0.0014729835494591,0.0014729907050664,-1.9708434254524e-08,2.3014555933456e-08,-0.0011231975209445,0.0011232007248529,-5.1127539445236e-09,8.7245247277427e-09,-0.0012484086963561,0.0012483929203645,-0.0012484041465311,0.0012483975114479,-0.001248394432324,0.0012484071739639,-0.0012483899117414,0.0012484117243417,-0.0011210082649874,0.0011210579690871,-0.0011210500561075,0.0011210161945219,0.65805652773158,128566,2924,0.0046701221840691,0.0066181854356252,0.0046701221840474,29.265411228566,-5.8767101714729e-06,-5.8767101714729e-06,-5.8767101714729e-06,2695629.2981691,0.016087343737467
32019200,0.9975559964316,0.016050221454294,0.0048492214541266,0.0063517785460734,0.0048492214540941,-0.0011233347016159,0.0011233341008526,2.1192800237941e-08,-2.179699691791e-08,4.9604991439172e-09,-5.7426893274301e-09,-0.0012485061939294,0.0012485234365997,-0.0012485205396377,0.0012485091616364,-0.0012485095874281,0.0012485199071451,-0.0012485239372524,0.0012485055629763,-0.0011211344762885,0.0011211724535453,-0.0011211765267464,0.0011211302112273,-4.5840127488512e-09,6.063545531258e-09,7.9749075645187e-09,-6.6963705175949e-09,-0.0015940927153524,0.0015940940221207,-0.001699455169148,0.0016994577362746,-0.0016994598106784,0.0016994528267113,-0.0016994517362879,0.0016994612820817,-0.0016994564194887,0.0016994563346585,-0.0014731274492442,0.0014731467217514,-0.0014731416162788,0.001473131952778,-0.0014731437901881,0.0014731298688096,-0.0014731334414749,0.0014731404967471,-1.9816079511237e-08,2.3210063491934e-08,-0.0011233327549313,0.001123336047534,-5.3412120571086e-09,9.0471432097912e-09,-0.0012485227711486,0.0012485067979172,-0.0012485180377833,0.0012485115725146,-0.0012485084051688,0.0012485211533338,-0.0012485037027881,0.001248525885589,-0.001121128291928,0.001121178560461,-0.0011211703775473,0.0011211364915467,0.71766338533153,128566,2924,0.0046706826124911,0.0066188915202793,0.0046706826124848,29.280951982942,-5.7523841364642e-06,-5.7523841364642e-06,-5.7523841364642e-06,2698732.4328372,0.016089199285153
32219200,0.99766667626496,0.01605204644083,0.0048497681752391,0.0063525100903839,0.0048497681752067,-0.001123449505431,0.0011234488993084,2.1349924448357e-08,-2.1959429576034e-08,4.9747569372338e-09,-5.7626231304072e-09,-0.0012486767926606,0.0012486941498648,-0.0012486912472102,0.0012486797667194,-0.001248680199661,0.0012486906072908,-0.001248694653892,0.0012486761584984,-0.0011212735118193,0.0011213117795603,-0.0011213158693276,0.0011212692301524,-4.5974577037642e-09,6.0782431116687e-09,8.1536047015615e-09,-6.8739534995567e-09,-0.0015943279377514,0.0015943292456515,-0.001699694622785,0.0016996973012899,-0.0016996993820275,0.0016996922703375,-0.0016996911827438,0.0016997008545273,-0.0016996959796787,0.001699695789704,-0.0014733385805995,0.0014733582074091,-0.0014733530877462,0.0014733430908166,-0.001473355171683,0.0014733410996504,-0.0014733447896658,0.0014733517614256,-1.9926299667118e-08,2.3367272922848e-08,-0.0011234475323163,0.0011234508724123,-5.4552103000111e-09,9.2113637739492e-09,-0.001248693493636,0.0012486773877634,-0.0012486886699766,0.0012486822526496,-0.0012486790404671,0.001248691830273,-0.0012486742438158,0.0012486966568324,-0.0011212672693774,0.0011213179444485,-0.0011213096228001,0.0011212756079092,0.73340851746052,128566,2924,0.0046711603369937,0.0066198632274557,0.0046711603369718,29.29019699555,-5.6784240355985e-06,-5.6784240355985e-06,-5.6784240355985e-06,2695289.3438639,0.016091158524152
32419200,0.99777240454097,0.01605383501944,0.004850305028349,0.006353224962774,0.0048503050283167,-0.0011235545253969,0.0011235539178718,2.1492582607895e-08,-2.2103469644081e-08,4.978419263161e-09,-5.7677468390579e-09,-0.0012488544283986,0.0012488718820339,-0.0012488689781575,0.0012488574042795,-0.0012488578377702,0.0012488683372545,-0.0012488723882659,0.0012488537924171,-0.0011214129467204,0.0011214514926217,-0.0011214555870124,0.0011214086611087,-4.6024561344773e-09,6.0836693227253e-09,8.2255552988731e-09,-6.9455279887111e-09,-0.0015945770434332,0.0015945783517086,-0.0016999379889392,0.0016999407108634,-0.0016999427939932,0.0016999356326913,-0.0016999345448292,0.0016999442682352,-0.0016999393889088,0.0016999391549388,-0.001473565921217,0.0014735856943774,-0.0014735805693779,0.0014735704337991,-0.0014735826122923,0.0014735684847123,-0.0014735722217331,0.0014735791550284,-2.0062705867883e-08,2.3531144194982e-08,-0.0011235525376955,0.0011235559055627,-5.5316944326498e-09,9.3173767832951e-09,-0.0012488712447263,0.0012488550048803,-0.0012488663599048,0.0012488599309083,-0.0012488566908095,0.0012488695481221,-0.0012488518342526,0.0012488744345873,-0.0011214066534037,0.001121457708726,-0.0011214492991532,0.0011214150798949,0.7510942541294,128566,2924,0.0046715979721431,0.0066208917422521,0.004671597972122,29.299194514098,-5.6064438872122e-06,-5.6064438872122e-06,-5.6064438872122e-06,2690803.2884188,0.016093094361749
32619200,0.99787314245853,0.016055406499978,0.0048507732576383,0.0063538599847338,0.0048507732576059,-0.0011235545580685,0.0011235539532578,2.1632947334375e-08,-2.2241146047392e-08,4.9684245724975e-09,-5.7548149584121e-09,-0.0012489469894566,0.001248964529466,-0.0012489616306708,0.0012489499606034,-0.0012489503896916,0.0012489609934785,-0.0012489650347616,0.0012489463551416,-0.0011214529348219,0.0011214917674399,-0.001121495852627,0.0011214486607011,-4.5988953180813e-09,6.0797076842212e-09,8.1758149362893e-09,-6.8961536528279e-09,-0.001594746388166,0.0015947476961425,-0.0017000914297751,0.0017000941197385,-0.0017000962013145,0.0017000890766618,-0.0017000879867985,0.001700097676022,-0.0017000928000142,0.0017000925949631,-0.0014737141672145,0.0014737338447004,-0.0014737287240811,0.0014737186784382,-0.0014737307891428,0.0014737167056238,-0.0014737204096217,0.0014737273642204,-2.0213466586412e-08,2.3689240595422e-08,-0.0011235525681017,0.0011235559432619,-5.5621663778117e-09,9.3558569071866e-09,-0.0012489639092619,0.0012489475490096,-0.0012489589999051,0.0012489524996321,-0.0012489492510449,0.0012489621966396,-0.0012489443727239,0.0012489671049163,-0.0011214466208767,0.001121498005208,-0.0011214895649599,0.0011214550779817,0.69653886266173,128566,2924,0.0046716006332661,0.0066215894586977,0.0046716006333446,29.262952388337,-5.8963808933035e-06,-5.8963808933035e-06,-5.8963808933035e-06,2685138.1443106,0.016093810525294
32819200,0.99796901407963,0.016056781998133,0.0048511798678053,0.0063544222625546,0.004851179867773,-0.0011235073361633,0.001123506733531,2.1786757710566e-08,-2.2392814931177e-08,4.9590763484562e-09,-5.7430452423806e-09,-0.001248918083248,0.0012489357216263,-0.0012489328271805,0.0012489210489599,-0.0012489214779328,0.0012489321913897,-0.0012489362229043,0.0012489174517807,-0.0011214070820982,0.0011214462191128,-0.0011214502939078,0.0011214028155701,-4.5789616756875e-09,6.0578533044457e-09,8.1521599316394e-09,-6.8742140961839e-09,-0.0015947816982544,0.0015947830044293,-0.0017001382736203,0.0017001409627008,-0.0017001430323147,0.0017001359323262,-0.0017001348455748,0.0017001445035049,-0.0017001396432854,0.0017001394379471,-0.0014737327731803,0.0014737523864819,-0.0014737472815445,0.0014737372689156,-0.0014737493384225,0.0014737353054029,-0.0014737389961881,0.0014737459264017,-2.0370029099106e-08,2.3814101633083e-08,-0.0011235053632049,0.0011235087064829,-5.4421610801852e-09,9.2011594001113e-09,-0.0012489350681392,0.0012489186755591,-0.0012489302513689,0.0012489235335529,-0.0012489203175618,0.0012489334155501,-0.001248915529098,0.0012489382338567,-0.0011214008416754,0.0011214523820964,-0.0011214440649755,0.0011214091756369,0.64446135306812,128566,2924,0.0046714052128423,0.0066217350447355,0.0046714052128296,29.204513987703,-6.3638880983718e-06,-6.3638880983718e-06,-6.3638880983718e-06,2685343.3807754,0.016093561345152
33019200,0.99806026505413,0.016058203578437,0.004851603651997,0.0063549962744747,0.0048516036519648,-0.0011234725968711,0.0011234719982166,2.1930958882514e-08,-2.2533079101735e-08,4.9434154064295e-09,-5.7229237320201e-09,-0.0012488280144113,0.0012488457386761,-0.0012488428521464,0.0012488309720741,-0.0012488313962471,0.0012488422210779,-0.0012488462371701,0.0012488273859549,-0.0011213411234047,0.0011213805572681,-0.0011213846164581,0.0011213368726659,-4.5663346046123e-09,6.0440005574612e-09,8.0187644010166e-09,-6.7419161822061e-09,-0.0015947379994356,0.001594739304511,-0.0017001341816701,0.001700136789449,-0.0017001388529051,0.001700131849494,-0.0017001307612308,0.0017001403223542,-0.0017001354733879,0.001700135345316,-0.0014736780974774,0.0014736974424851,-0.0014736923504594,0.0014736825864204,-0.0014736944726951,0.0014736805553992,-0.0014736841585912,0.0014736911469835,-2.0528644792853e-08,2.3957951721732e-08,-0.001123470633426,0.0011234739616571,-5.3758062663381e-09,9.1180615374026e-09,-0.0012488450754165,0.0012488286163983,-0.0012488403076245,0.00124883342544,-0.0012488302231383,0.0012488434582116,-0.0012488254854901,0.0012488482256741,-0.0011213349168208,0.0011213866865857,-0.0011213784336252,0.0011213431865384,0.69524135113505,128566,2924,0.0046712595879037,0.0066215562204818,0.004671259587895,29.145503820274,-6.8359694378094e-06,-6.8359694378094e-06,-6.8359694378094e-06,2690527.9377206,0.016093082071854
33219200,0.99814713096516,0.016059627596381,0.004852030051369,0.0063555674936756,0.0048520300513368,-0.0011234371772332,0.0011234365812603,2.2079937718096e-08,-2.267940327479e-08,4.9319440078103e-09,-5.7085676052958e-09,-0.0012488066938898,0.0012488245108976,-0.0012488216299266,0.0012488096452957,-0.0012488100673144,0.0012488210015239,-0.0012488250063287,0.0012488060681059,-0.0011213093760232,0.0011213491096017,-0.0011213531573279,0.0011213051362524,-4.553008379484e-09,6.0294056856186e-09,7.9169814000056e-09,-6.6412616281337e-09,-0.001594764280119,0.0015947655840506,-0.0017001735462519,0.001700176095554,-0.0017001781519795,0.0017001712231679,-0.0017001701350971,0.0017001796188779,-0.001700174781298,0.001700174709864,-0.0014736891542968,0.0014737082894807,-0.0014737032100084,0.0014736936350084,-0.001473705379768,0.0014736915551252,-0.0014736950923521,0.0014737021197199,-2.0686495841647e-08,2.4091705079409e-08,-0.0011234352273286,0.001123438531158,-5.2760299785528e-09,8.991548070214e-09,-0.0012488238239832,0.0012488073191924,-0.0012488191314501,0.0012488120529959,-0.0012488088747547,0.0012488222580007,-0.0012488042118843,0.0012488269506609,-0.0011213032254942,0.0011213551825671,-0.0011213470284775,0.0011213113963306,0.72922790447921,128566,2924,0.0046711131108789,0.006621664576577,0.0046711131108651,29.086471145427,-7.3082308365797e-06,-7.3082308365797e-06,-7.3082308365797e-06,2689706.8535976,0.016092894604672
33419200,0.99823117171824,0.016061032696043,0.0048524514136812,0.0063561298687131,0.004852451413649,-0.0011239237962902,0.0011239232057024,2.2222457209473e-08,-2.2816557174069e-08,4.9306910924647e-09,-5.7019607888942e-09,-0.0012493578897229,0.001249375801745,-0.0012493729176984,0.0012493608436655,-0.0012493612592516,0.0012493722956675,-0.0012493762927846,0.0012493572684227,-0.0011218293042328,0.0011218693225351,-0.0011218733627577,0.001121825072969,-4.5542096231986e-09,6.0307228899083e-09,7.6508623759356e-09,-6.3750340112634e-09,-0.0015953879343937,0.0015953892384317,-0.0017007919993732,0.0017007943711878,-0.0017007964310327,0.0017007896782709,-0.0017007885864924,0.0017007978963785,-0.0017007930605455,0.0017007931648429,-0.0014742928758174,0.0014743114925024,-0.0014743064173652,0.0014742973628039,-0.0014743087563404,0.0014742951090177,-0.0014742984694288,0.0014743056733778,-2.0884275419324e-08,2.4201476138489e-08,-0.001123921893417,0.0011239251085692,-5.1387967890502e-09,8.7623844807378e-09,-0.0012493751021113,0.0012493585274751,-0.0012493705301359,0.0012493631407051,-0.0012493600493684,0.0012493735698139,-0.0012493555090296,0.0012493781399462,-0.0011218232516484,0.0011218752981447,-0.0011218673528181,0.001121831213537,0.74278652255299,128566,2924,0.0046731331868821,0.0066242435812206,0.0046731331868694,29.311563805198,-5.5074895584121e-06,-5.5074895584121e-06,-5.5074895584121e-06,2687580.3287184,0.016099621561784
33619200,0.99831277848248,0.016062397597126,0.0048528606104914,0.0063566763761756,0.0048528606104591,-0.0011245504465969,0.0011245498563956,2.2387033106947e-08,-2.2980761532206e-08,4.9317466953307e-09,-5.7026616382485e-09,-0.0012500675482012,0.0012500855731492,-0.0012500826871052,0.0012500705021135,-0.0012500709204584,0.001250082064095,-0.0012500860605939,0.0012500669285905,-0.001122500198063,0.0011225405313671,-0.0011225445699812,0.0011224959645877,-4.5445616031155e-09,6.0201406792464e-09,7.5619779241181e-09,-6.2869879331871e-09,-0.0015961731483355,0.0015961744515079,-0.0017015634649142,0.0017015657873461,-0.001701567841915,0.0017015611501499,-0.0017015600609047,0.0017015693034449,-0.0017015644757749,0.001701564632119,-0.0014750584388606,0.0014750768674325,-0.0014750718011626,0.001475062919589,-0.0014750741914845,0.001475060614615,-0.0014750639179244,0.0014750711653861,-2.1050506074614e-08,2.4293774585448e-08,-0.0011245485811605,0.0011245517218255,-4.9135642539849e-09,8.4575248487375e-09,-0.0012500848069807,0.0012500682514981,-0.0012500804134596,0.0012500726862214,-0.0012500696704004,0.0012500833776291,-0.001250065303981,0.0012500877737443,-0.0011224942972321,0.0011225463532076,-0.0011225386582891,0.0011225020089297,0.74303041854371,128566,2924,0.0046757344339243,0.0066274906263341,0.0046757344339115,29.613202061541,-3.0943835076726e-06,-3.0943835076726e-06,-3.0943835076726e-06,2684383.7523799,0.016108208850804
33819200,0.99839196213441,0.016063726192845,0.0048532589417149,0.0063572083094471,0.0048532589416827,-0.0011251724516084,0.0011251718619075,2.2541534495874e-08,-2.3134781151332e-08,4.9306698102454e-09,-5.7010586302781e-09,-0.0012507711940815,0.001250789322016,-0.0012507864360859,0.0012507741473854,-0.0012507745659499,0.0012507858132292,-0.0012507898081756,0.0012507705752539,-0.0011231660992917,0.0011232067343728,-0.0011232107707723,0.0011231618663906,-4.5428830137482e-09,6.0182137068788e-09,7.4816054991464e-09,-6.2068427068629e-09,-0.001596957898627,0.0015969592015805,-0.0017023333655383,0.0017023356352036,-0.0017023376896294,0.001702331052364,-0.001702329963112,0.0017023391496506,-0.0017023343241811,0.0017023345337868,-0.0014758251835945,0.0014758434506536,-0.0014758383873608,0.0014758296645173,-0.0014758408292741,0.00147582730703,-0.001475830557493,0.0014758378559914,-2.1205252742129e-08,2.4417820175942e-08,-0.0011251706019136,0.0011251737115889,-4.8283613542279e-09,8.3393445693921e-09,-0.0012507885318098,0.0012507719211341,-0.0012507842064833,0.0012507762876467,-0.0012507733028653,0.0012507871397247,-0.0012507690035318,0.001250791468653,-0.0011231602604627,0.0011232124934759,-0.0011232048962194,0.0011231678744765,0.74517768521049,128566,2924,0.0046783163685316,0.0066307357237239,0.0046783163685041,29.916857421528,-6.6514062777222e-07,-6.6514062777222e-07,-6.6514062777222e-07,2681809.5890464,0.016116754857459
34019200,0.99846872704102,0.016064975441005,0.0048536324116833,0.0063577106176706,0.0048536324116511,-0.0011257854200532,0.0011257848310582,2.2658213675298e-08,-2.3250764366689e-08,4.9270076088069e-09,-5.6966695954777e-09,-0.0012514659675414,0.0012514841679708,-0.0012514812845111,0.0012514689193769,-0.0012514693337835,0.0012514806647242,-0.001251484656954,0.0012514653472023,-0.0011238223357075,0.0011238632105409,-0.0011238672449594,0.001123818107664,-4.5473388902124e-09,6.0232026775868e-09,7.3545127028029e-09,-6.0792598994301e-09,-0.0015977373678834,0.0015977386713359,-0.0017030971389069,0.0017030993180487,-0.0017031013767434,0.0017030948247792,-0.0017030937304955,0.0017031028386663,-0.001703098010997,0.0017030983064502,-0.0014765873266981,0.0014766053558376,-0.0014766002917678,0.0014765918140592,-0.0014766028122714,0.0014765893747858,-0.0014765925394377,0.0014765999247117,-2.1379895440648e-08,2.4597816945503e-08,-0.0011257835681177,0.0011257866829857,-4.8697747556063e-09,8.386896403298e-09,-0.0012514834148712,0.0012514666579956,-0.0012514790567287,0.0012514710573742,-0.0012514680646128,0.0012514819978818,-0.0012514637382793,0.001251486353936,-0.0011238164301546,0.0011238690378322,-0.0011238614045375,0.0011238240799586,0.72426544565852,128566,2924,0.0046808607858176,0.0066339589483551,0.0046808607858016,30.220592585157,1.7647406812526e-06,1.7647406812526e-06,1.7647406812526e-06,2679595.9457215,0.016125202419827
34219200,0.99854436296332,0.016066172968346,0.0048539895194052,0.0063581939295677,0.004853989519373,-0.0011269758858972,0.0011269753007854,2.2794555815169e-08,-2.3383239201161e-08,4.9178230654142e-09,-5.683320263173e-09,-0.0012527152210474,0.0012527335072217,-0.0012527306270132,0.0012527181687777,-0.0012527185793615,0.001252730011558,-0.0012527339925452,0.0012527146040237,-0.0011250524201226,0.0011250935707967,-0.0011250975939767,0.0011250482033961,-4.5337236496193e-09,6.0082766552724e-09,7.275779735394e-09,-6.001698782869e-09,-0.0015990781807499,0.001599079483024,-0.0017044304776261,0.0017044326149292,-0.0017044346659973,0.0017044281725895,-0.0017044270783245,0.0017044361261149,-0.0017044313098421,0.0017044316443531,-0.001477909876001,0.0014779277428892,-0.001477922691415,0.0014779143546011,-0.0014779252418433,0.0014779118840309,-0.0014779149981416,0.0014779224045955,-2.1553774874416e-08,2.4742733260033e-08,-0.0011269740505412,0.0011269771361329,-4.7907691134098e-09,8.2767682399043e-09,-0.0012527327473731,0.0012527159178414,-0.0012527284515235,0.0012527202549695,-0.001252717290689,0.001252731364177,-0.0012527130272228,0.0012527356573698,-0.0011250465430964,0.0011250993695774,-0.0011250918283364,0.0011250541009202,0.70594348123493,128566,2924,0.0046857996889847,0.0066395062236178,0.0046857996889675,30.83171705776,6.6537364620829e-06,6.6537364620829e-06,6.6537364620829e-06,2680718.660099,0.016140877322542
34419200,0.99861887646262,0.016067357650534,0.0048543429153974,0.0063586718197717,0.0048543429153652,-0.0011282325146822,0.0011282319317157,2.2847352791445e-08,-2.3433929844261e-08,4.9132335908695e-09,-5.6765224522533e-09,-0.0012540095261234,0.0012540278418959,-0.0012540249632173,0.0012540124721513,-0.0012540128774122,0.0012540243535048,-0.0012540283285484,0.0012540089078874,-0.0011263367859049,0.0011263780544473,-0.0011263820711321,0.0011263325746176,-4.5241491453491e-09,5.9977486327786e-09,7.2950839367815e-09,-6.0218486813622e-09,-0.0016004573092237,0.001600458610698,-0.0017058137696311,0.001705815922707,-0.0017058179674548,0.0017058114704903,-0.0017058103734217,0.0017058194304916,-0.0017058146212434,0.0017058149321603,-0.0014792704598114,0.0014792883676951,-0.0014792833237856,0.0014792749301918,-0.0014792858384928,0.001479272495572,-0.0014792756244292,0.0014792829862492,-2.179776239682e-08,2.4982909016082e-08,-0.0011282306823503,0.0011282337640479,-4.7747238815218e-09,8.2566145859422e-09,-0.0012540271454306,0.001254010159453,-0.0012540228583426,0.0012540144880844,-0.0012540115240909,0.0012540257704487,-0.0012540072761657,0.0012540300483173,-0.0011263307439509,0.0011263840175842,-0.001126376492723,0.0011263382853874,0.70867957932233,128566,2924,0.0046910122836756,0.0066452128983526,0.0046910122836772,31.475481378666,1.1803851029329e-05,1.1803851029329e-05,1.1803851029329e-05,2683784.5359492,0.016157270197353
34619200,0.99869213316159,0.016068570815738,0.0048547060856803,0.0063591586444094,0.0048547060856481,-0.0011294940397995,0.0011294934580105,2.3159235405131e-08,-2.3744617372657e-08,4.9092220497392e-09,-5.6712511641698e-09,-0.0012553118122005,0.0012553303402579,-0.0012553274636249,0.001255314756443,-0.0012553151666911,0.0012553268485589,-0.0012553308193292,0.0012553112013725,-0.0011276283393741,0.0011276702043879,-0.0011276742171374,0.0011276241325138,-4.5254173268423e-09,5.9991116141993e-09,7.3477888364477e-09,-6.0744810764199e-09,-0.0016018413679521,0.0016018426694369,-0.0017072019271007,0.0017072041198607,-0.0017072061653881,0.0017071996262876,-0.0017071985365091,0.0017072076223877,-0.0017072028117762,0.0017072030951267,-0.0014806349097868,0.0014806529039687,-0.0014806478584322,0.0014806393813098,-0.0014806503585377,0.0014806369607663,-0.0014806401247598,0.0014806474733789,-2.1770927425571e-08,2.4974826955683e-08,-0.00112949219856,0.0011294952992393,-4.8267400476401e-09,8.3286910985082e-09,-0.0012553295397314,0.0012553125497065,-0.0012553252177693,0.0012553169129245,-0.0012553139367407,0.0012553281424111,-0.0012553096412739,0.0012553324675286,-0.0011276225740822,0.0011276758911045,-0.001127668305996,0.0011276301758209,0.73613738116704,128566,2924,0.0046962452516924,0.0066509398550775,0.0046962452516706,32.120173265062,1.6961386120495e-05,1.6961386120495e-05,1.6961386120495e-05,2686371.124567,0.016173725478589
34819200,0.99876512438567,0.016069790287595,0.0048550713220135,0.0063596476436004,0.0048550713219813,-0.0011312889992699,0.0011312884196996,2.3673950957056e-08,-2.4257148963726e-08,4.9051673607634e-09,-5.6648860926184e-09,-0.0012571888775521,0.0012572077631695,-0.0012572048870372,0.0012571918197758,-0.0012571922434876,0.0012572042601564,-0.0012572082243602,0.0012571882828936,-0.0011294812909288,0.0011295241210667,-0.0011295281258135,0.0011294770872978,-4.5122689355755e-09,5.984833324156e-09,7.4049545125461e-09,-6.1326450409036e-09,-0.0016038156816231,0.0016038169820396,-0.0017091641726315,0.0017091664265227,-0.0017091684621885,0.0017091618779977,-0.0017091608048989,0.0017091699043263,-0.0017091651036286,0.0017091653530669,-0.0014825849297955,0.001482602983028,-0.0014825979478991,0.0014825893911688,-0.0014826004359339,0.0014825869816682,-0.0014825901877499,0.0014825975124653,-2.156547826504e-08,2.4740975451642e-08,-0.0011312871733959,0.0011312902455672,-4.7199114712386e-09,8.1912500418043e-09,-0.0012572066754585,0.00125718990149,-0.0012572024496797,0.0012571941684722,-0.0012571912353129,0.0012572053313412,-0.0012571870063522,0.0012572095898787,-0.001129476254198,0.0011295290768467,-0.0011295216022981,0.001129483745322,0.7423604668403,128566,2924,0.0047036917165693,0.0066591081419855,0.0047036917165565,33.050476943765,2.4403815550118e-05,2.4403815550118e-05,2.4403815550118e-05,2687236.8022773,0.016197161601264
35019200,0.99883800292386,0.016070970734924,0.004855423798925,0.0063601231371066,0.0048554237988928,-0.0011332689021711,0.0011332683250666,2.3360147015974e-08,-2.3940907320435e-08,4.8971975719592e-09,-5.6542846263683e-09,-0.0012592650343632,0.0012592836841015,-0.0012592808125563,0.00125926797375,-0.0012592683761715,0.0012592802053607,-0.001259284161824,0.0012592644249853,-0.0011315263486795,0.0011315686180934,-0.0011315726160746,0.0011315221554913,-4.5107779444184e-09,5.9832205395431e-09,7.3007519095112e-09,-6.0285458194751e-09,-0.0016059964887177,0.0016059977890713,-0.0017113297777627,0.0017113319433065,-0.001711333979944,0.0017113274859461,-0.0017113263930108,0.001711335438887,-0.0017113306402737,0.0017113309413595,-0.0014847391182615,0.0014847570164062,-0.0014847519787214,0.0014847435750428,-0.0014847544859885,0.0014847411556591,-0.0014847442852948,0.0014847516258769,-2.2166365253195e-08,2.5358142258031e-08,-0.0011332670693782,0.0011332701578552,-4.7943026134638e-09,8.2833813567862e-09,-0.0012592829484646,0.0012592657070724,-0.0012592786493065,0.001259270047516,-0.0012592670801896,0.0012592815651339,-0.0012592628139513,0.0012592858610023,-0.0011315204234029,0.0011315744643039,-0.0011315669165773,0.0011315279876294,0.72136487544499,128566,2924,0.0047119054632704,0.0066681304876618,0.0047119054632619,34.082371779556,3.2658974236451e-05,3.2658974236451e-05,3.2658974236451e-05,2688274.3438917,0.016223025918314
35219200,0.99891049082849,0.016072111142462,0.0048557633584806,0.0063605844255327,0.0048557633584484,-0.0011352531238135,0.0011352525454357,2.3254898623317e-08,-2.3836907873895e-08,4.8983698677622e-09,-5.6567014362423e-09,-0.0012613198498165,0.0012613384214956,-0.0012613355502313,0.0012613227892448,-0.0012613231836537,0.0012613349505712,-0.0012613389098572,0.001261319230328,-0.0011335621981932,0.0011336042932792,-0.0011336082951056,0.0011335580039395,-4.5155085358432e-09,5.988363892476e-09,7.3117043476864e-09,-6.0391398618932e-09,-0.0016081522503516,0.0016081535510883,-0.0017134812314648,0.00171348339411,-0.0017134854340074,0.0017134789372734,-0.0017134778353103,0.001713486902127,-0.0017134820994412,0.001713482386758,-0.001486868835346,0.0014868867870567,-0.0014868817489481,0.0014868732990294,-0.0014868842237666,0.0014868709051146,-0.0014868740443808,0.0014868813603646,-2.2552298073353e-08,2.5769474507947e-08,-0.0011352512775943,0.0011352543916477,-4.8653793305894e-09,8.3815602098141e-09,-0.0012613378775273,0.0012613203310153,-0.0012613335128236,0.0012613247370351,-0.0012613217353232,0.0012613364630244,-0.0012613174216991,0.0012613408063327,-0.0011335557720124,0.0011336106418448,-0.0011336030128169,0.0011335634174863,0.70214228578478,128566,2924,0.0047201362891821,0.0066770500373335,0.004720136289168,35.116921228893,4.093536983114e-05,4.093536983114e-05,4.093536983114e-05,2691436.1898933,0.016248820499751
35419200,0.99898145393409,0.016073192237035,0.0048560842474802,0.0063610237421068,0.0048560842474481,-0.0011368208659354,0.0011368202776607,2.3295961326222e-08,-2.388775793725e-08,4.92315094848e-09,-5.6918825193079e-09,-0.001262929077689,0.0012629476881482,-0.0012629448074754,0.001262932027822,-0.0012629324272685,0.0012629442016116,-0.0012629481909216,0.0012629284446991,-0.0011351603341864,0.0011352025057218,-0.0011352065384813,0.001135156111588,-4.5452983188446e-09,6.0209421805846e-09,7.504110021884e-09,-6.2290744042292e-09,-0.0016098462111235,0.0016098475143911,-0.0017151835645387,0.0017151858324032,-0.0017151878885329,0.0017151812504911,-0.0017151801442092,0.0017151893652393,-0.0017151845376435,0.0017151847168541,-0.0014885387362179,0.0014885571004745,-0.0014885520381726,0.0014885432222585,-0.0014885544141482,0.0014885409234853,-0.0014885441898805,0.0014885514301145,-2.2762311603161e-08,2.6055338169096e-08,-0.0011368189764885,0.0011368221670967,-5.069795586519e-09,8.6672126119378e-09,-0.0012629472522754,0.0012629294514635,-0.0012629427208537,0.0012629340241696,-0.0012629309427897,0.001262945750597,-0.0012629264708355,0.0012629502523064,-0.0011351535932327,0.0011352091702747,-0.0011352013036207,0.0011351614765589,0.68162296851111,128566,2924,0.0047266389143825,0.0066840594432953,0.0047266389143608,35.929293402989,4.7434347223911e-05,4.7434347223911e-05,4.7434347223911e-05,2695445.9682963,0.016269161191172
35619200,0.99905008886706,0.016074197400614,0.0048563814598095,0.0063614344810274,0.0048563814597774,-0.0011380745115206,0.0011380739107202,2.3592584161851e-08,-2.4196774646641e-08,4.9552942569523e-09,-5.7373328548901e-09,-0.0012641916192054,0.0012642104506624,-0.001264207557193,0.001264194583204,-0.0012641949992834,0.0012642069340412,-0.0012642109612606,0.0012641909786628,-0.0011364249896304,0.0011364677047896,-0.0011364717757828,0.0011364207293206,-4.5787816790686e-09,6.0577317338067e-09,7.7910972132693e-09,-6.5131182938246e-09,-0.0016111785203667,0.0016111798265933,-0.0017165367221767,0.0017165391633879,-0.0017165412367182,0.0017165343847784,-0.0017165332836072,0.0017165427150338,-0.001716537858372,0.0017165378794524,-0.0014898483966062,0.0014898673348683,-0.0014898622418255,0.0014898529043935,-0.00148986449174,0.0014898507324849,-0.0014898541876634,0.0014898613238372,-2.2712581517095e-08,2.6087021793915e-08,-0.0011380725746636,0.0011380758475664,-5.2669971260885e-09,8.9514807298623e-09,-0.0012642099379884,0.0012641920703184,-0.0012642052514418,0.00126419679808,-0.00126419364021,0.0012642083575371,-0.0012641890039231,0.001264213023637,-0.0011364184034788,0.0011364742146493,-0.0011364661077907,0.0011364265273307,0.65729898620154,128566,2924,0.0047318379970468,0.0066895732569095,0.0047318379970251,36.573832967994,5.2590663743952e-05,5.2590663743952e-05,5.2590663743952e-05,2700520.6960565,0.016285332080904
35819200,0.99911628223356,0.016075228990661,0.0048566884135502,0.0063618521635931,0.004856688413518,-0.0011393292970364,0.0011393286889368,2.3954234643438e-08,-2.4565647416556e-08,4.9723511655998e-09,-5.7621136385601e-09,-0.0012654208152893,0.0012654399074334,-0.0012654370074014,0.0012654237860587,-0.0012654242214576,0.0012654363651628,-0.0012654404129827,0.001265420179369,-0.0011376773601721,0.0011377207329908,-0.0011377248242451,0.0011376730781019,-4.6012302648091e-09,6.0824938596348e-09,8.0270121095841e-09,-6.7469712498361e-09,-0.0016124661743285,0.001612467482586,-0.0017178571996283,0.0017178597935215,-0.001717861877657,0.0017178548458217,-0.0017178537575076,0.001717863348868,-0.0017178584722045,0.0017178583684886,-0.0014911153008999,0.0014911346822468,-0.0014911295643486,0.0014911198189592,-0.0014911317324854,0.0014911177370984,-0.0014911213446332,0.0014911284093617,-2.2617178753767e-08,2.6039503856271e-08,-0.0011393273322901,0.0011393306536706,-5.3602384746293e-09,9.0957199175093e-09,-0.0012654392511591,0.001265421410092,-0.0012654344973303,0.0012654262051184,-0.0012654230115099,0.0012654376391112,-0.0012654182839391,0.0012654423965496,-0.0011376710907069,0.0011377269253873,-0.0011377186917575,0.0011376793414246,0.69619234599646,128566,2924,0.0047370409371816,0.006694903414335,0.0047370409371563,37.214063339456,5.7712506715644e-05,5.7712506715644e-05,5.7712506715644e-05,2707301.2034902,0.016301323686355
36019200,0.99917994876215,0.016076281793454,0.0048570033177355,0.0063622751580154,0.0048570033177034,-0.0011405835260282,0.0011405829135842,2.4021912258515e-08,-2.4637555354839e-08,4.984402179422e-09,-5.7785995859845e-09,-0.0012667042661084,0.0012667234026234,-0.0012667204980794,0.0012667072423519,-0.0012667076746064,0.0012667198582207,-0.0012667239201617,0.0012667036189581,-0.001138957262647,0.0011390007779759,-0.0011390048833981,0.0011389529675079,-4.6108960302913e-09,6.0931021072072e-09,8.1169978225824e-09,-6.8361218770515e-09,-0.0016138099430663,0.0016138112522068,-0.0017192131643174,0.0017192158042483,-0.0017192178931241,0.0017192108036011,-0.0017192097080709,0.0017192193732775,-0.0017192144884972,0.0017192143261254,-0.0014924347426088,0.0014924543282703,-0.0014924492012704,0.0014924392668961,-0.0014924513037672,0.0014924372514193,-0.0014924409168904,0.001492447922442,-2.2819224018697e-08,2.6285456200919e-08,-0.0011405815369679,0.0011405849026333,-5.4829961449962e-09,9.265502024754e-09,-0.0012667228292794,0.0012667047784882,-0.0012667179713819,0.001266709677623,-0.0012667064330958,0.0012667211639201,-0.0012667016158525,0.001266726011112,-0.0011389507846533,0.0011390071792242,-0.0011389988052175,0.0011389591763192,0.73586309314174,128566,2924,0.0047422431502437,0.0067004637666853,0.0047422431502213,37.854123014568,6.2832984116547e-05,6.2832984116547e-05,6.2832984116547e-05,2709475.0390478,0.016317549397731
36219200,0.99923894822432,0.016077225433195,0.004857284639984,0.0063626561532586,0.0048572846399519,-0.0011405674740943,0.0011405668539442,2.4239821768926e-08,-2.4863163510293e-08,5.0045628591888e-09,-5.8071310913666e-09,-0.0012667573527193,0.0012667766505672,-0.0012667737378793,0.0012667603381538,-0.0012667607827011,0.0012667730852478,-0.0012667771705675,0.0012667567033023,-0.0011389681501972,0.0011390120603823,-0.0011390161897531,0.0011389638314737,-4.6331036482756e-09,6.1173471294796e-09,8.4266843561655e-09,-7.1439981297022e-09,-0.0016139080561908,0.0016139093671473,-0.0017193100110912,0.001719312846192,-0.0017193149454333,0.0017193076336102,-0.001719306544771,0.0017193164257881,-0.0017193115206832,0.0017193111768178,-0.0014925112635857,0.0014925314576498,-0.0014925263064464,0.0014925157980578,-0.0014925282565389,0.0014925139402744,-0.0014925178095532,0.0014925246727127,-2.2851090632106e-08,2.6397306630336e-08,-0.0011405654407509,0.0011405688872768,-5.6826664511465e-09,9.5508299368769e-09,-0.001266776059011,0.0012667578838185,-0.0012667710452314,0.0012667629387672,-0.0012667596197138,0.0012667743122804,-0.0012667546364459,0.0012667793254912,-0.0011389616715667,0.0011390184625193,-0.0011390098484137,0.0011389703031322,0.71361054606606,128566,2924,0.0047421783684982,0.0067008675033115,0.0047421783684764,37.827179022098,6.2617432176787e-05,6.2617432176787e-05,6.2617432176787e-05,2705651.2859477,0.016317829541992
36419200,0.99929277335923,0.016078074495285,0.0048575374744538,0.0063629995464094,0.0048575374744216,-0.0011399843582425,0.0011399837390471,2.4428608148381e-08,-2.5050992415898e-08,5.0007522152337e-09,-5.8022620157606e-09,-0.0012661928769473,0.001266212300076,-0.0012662093900636,0.0012661958611871,-0.0012661963063396,0.0012662087357076,-0.0012662128176337,0.0012661922311625,-0.0011383892918222,0.0011384335669256,-0.0011384376933884,0.001138384977834,-4.6297528722277e-09,6.113645192983e-09,8.5496408566935e-09,-7.2672748943287e-09,-0.0016133633495424,0.0016133646601969,-0.0017187709596655,0.0017187738792819,-0.0017187759752088,0.0017187685829094,-0.0017187674975969,0.0017187774543749,-0.0017187725507563,0.0017187721259335,-0.0014919538401758,0.0014919742666883,-0.0014919691147331,0.0014919583687011,-0.0014919709881582,0.001491956590763,-0.001491960540703,0.001491967322018,-2.2936141001526e-08,2.6522612536696e-08,-0.0011399823049508,0.0011399857923275,-5.8479749712024e-09,9.7608546963189e-09,-0.0012662117227986,0.0012661933945154,-0.0012662065866417,0.0012661985718601,-0.0012661952150751,0.0012662098914144,-0.0012661901052225,0.001266215031219,-0.0011383828069074,0.0011384399762557,-0.0011384311974211,0.00113839160323,0.70434019470473,128566,2924,0.0047397607073094,0.0066986124623278,0.0047397607072865,37.496735528687,5.9973884229495e-05,5.9973884229495e-05,5.9973884229495e-05,2701564.7220054,0.016310623792141
36619200,0.99934191922144,0.016078805304279,0.0048577539259645,0.006363297452382,0.0048577539259324,-0.001139383831342,0.0011393832160939,2.4719837843025e-08,-2.5338326151704e-08,4.98488285228e-09,-5.7820361666464e-09,-0.0012655917600089,0.0012656113753641,-0.0012656084738413,0.0012655947365088,-0.0012655951852745,0.0012656078150145,-0.0012656118818031,0.0012655911264983,-0.001137784635173,0.0011378294686367,-0.0011378335807524,0.0011377803384198,-4.6091903302228e-09,6.0910788582514e-09,8.4357526860754e-09,-7.1551787638473e-09,-0.0016127751194449,0.0016127764283388,-0.0017181917427975,0.001718194608724,-0.001718196693444,0.0017181893799577,-0.0017181883024972,0.0017181981614736,-0.0017181932751936,0.0017181929163567,-0.0014913557830976,0.0014913759485373,-0.0014913708150911,0.0014913602979426,-0.0014913727555998,0.0014913584509508,-0.0014913623264836,0.0014913691621499,-2.2936563520839e-08,2.6530593871857e-08,-0.0011393817762729,0.0011393852711513,-5.8737942285006e-09,9.7945979141054e-09,-0.0012656107059177,0.0012655923701431,-0.0012656055580332,0.0012655975593172,-0.0012655942029146,0.0012656088623706,-0.0012655890655543,0.0012656140297015,-0.0011377784004213,0.0011378356292273,-0.0011378268231088,0.0011377872240358,0.6667528035416,128566,2924,0.0047372703596454,0.0066961779314518,0.0047372703596216,37.158387784316,5.7267102274529e-05,5.7267102274529e-05,5.7267102274529e-05,2698355.9450337,0.016303087515354
36819200,0.99938684855745,0.016079454994073,0.0048579459119975,0.0063635631701103,0.0048579459119653,-0.0011387876307809,0.0011387870213064,2.4685440166145e-08,-2.5298229398132e-08,4.9617598531203e-09,-5.7526333271183e-09,-0.0012649431722588,0.0012649627397929,-0.0012649598489917,0.0012649461360757,-0.001264946569341,0.001264959207522,-0.001264963250421,0.0012649425327492,-0.0011371587431238,0.0011372035559388,-0.0011372076432195,0.001137154467614,-4.5881338877768e-09,6.0680544115736e-09,8.3707512534128e-09,-7.0919292855461e-09,-0.001612125743911,0.0016121270509857,-0.0017175706463823,0.0017175734723936,-0.0017175755444889,0.0017175682962365,-0.0017175672093205,0.0017175770209312,-0.0017175721516577,0.0017175718073761,-0.0014907001344155,0.0014907201893969,-0.0014907150732536,0.001490704633764,-0.0014907169957295,0.0014907028058609,-0.0014907066410083,0.0014907134418327,-2.3293414259572e-08,2.6835224148675e-08,-0.0011387856049252,0.0011387890471509,-5.6724539917772e-09,9.5361465198212e-09,-0.0012649621592492,0.0012649436924675,-0.001264957153016,0.0012649487399354,-0.0012649454245709,0.0012649604165564,-0.00126494045035,0.0012649654206232,-0.001137152290285,0.0011372099329442,-0.0011372013312712,0.001137160909175,0.64957833185767,128566,2924,0.0047347964893808,0.0066934922362074,0.0047347964893584,36.819725964954,5.4557807719629e-05,5.4557807719629e-05,5.4557807719629e-05,2698898.2756262,0.016295328331069
37019200,0.9994291433773,0.016080107553399,0.0048581400743182,0.0063638274047945,0.0048581400742861,-0.0011391878128928,0.0011391872022326,2.4853990080715e-08,-2.5467949718205e-08,4.9651251927839e-09,-5.7572799524612e-09,-0.0012652849973133,0.001265304680302,-0.0012653017867578,0.0012652879613519,-0.0012652883979681,0.0012653011433031,-0.0012653051898693,0.0012652843574498,-0.001137535345663,0.001137580481367,-0.0011375845715892,0.0011375310655053,-4.5908925100322e-09,6.0711091732527e-09,7.9165084229841e-09,-6.6374267588157e-09,-0.0016124991354395,0.0016125004427806,-0.0017179802610475,0.0017179827874277,-0.001717984866032,0.0017179779140889,-0.0017179768236086,0.0017179863364912,-0.0017179814697967,0.0017179814286208,-0.0014910621240016,0.0014910812843767,-0.0014910761761111,0.0014910666356285,-0.0014910783984715,0.0014910644998066,-0.0014910680334492,0.001491075145903,-2.3465826268424e-08,2.691210318394e-08,-0.0011391858348651,0.0011391891802495,-5.2918825140335e-09,9.0494966175663e-09,-0.0012653039856964,0.00126528563032,-0.0012652992687111,0.0012652903885364,-0.0012652871691428,0.0012653024362628,-0.0012652824811501,0.0012653071541008,-0.0011375291206444,0.0011375866296704,-0.0011375784102922,0.0011375373572944,0.68961815079861,128566,2924,0.0047364546824026,0.00669503954422,0.0047364546823809,37.015983980879,5.6127871847033e-05,5.6127871847033e-05,5.6127871847033e-05,2705313.6653664,0.016300269811149
37219200,0.99946919829341,0.01608076786691,0.004858337682007,0.0063640925029278,0.0048583376819749,-0.0011398289534761,0.0011398283434425,2.5048408491061e-08,-2.5661745483745e-08,4.9621748603006e-09,-5.7536924514098e-09,-0.0012659363221927,0.0012659561368056,-0.0012659532432396,0.0012659392832086,-0.0012659397239718,0.0012659525978256,-0.0012659566408936,0.0012659356855161,-0.0011381838232539,0.0011382293318129,-0.0011382334169549,0.0011381795437139,-4.5951458577424e-09,6.0759047915734e-09,7.584340849299e-09,-6.3047607817682e-09,-0.0016131935051994,0.0016131948129102,-0.0017186917521443,0.0017186940602943,-0.0017186961446566,0.0017186894055476,-0.001718688315277,0.0017186976084969,-0.0017186927420578,0.0017186929270369,-0.001491737479669,0.0014917559795897,-0.0014917508756401,0.0014917420019977,-0.0014917533282998,0.001491739630015,-0.0014917429441833,0.0014917502966822,-2.3611418960255e-08,2.6965889845881e-08,-0.0011398270222526,0.0011398302746552,-4.9229059887189e-09,8.5789919809807e-09,-0.0012659553133133,0.0012659370825266,-0.0012659508782197,0.0012659415587781,-0.0012659384340702,0.0012659539512345,-0.0012659340205982,0.0012659583945097,-0.0011381778658284,0.0011382352104515,-0.0011382273606697,0.0011381857325683,0.73362542646818,128566,2924,0.0047391139807893,0.0066979129044216,0.0047391139807675,37.342549487794,5.8740395902349e-05,5.8740395902349e-05,5.8740395902349e-05,2708245.168978,0.016308595521389
37419200,0.99950708819683,0.016081349361589,0.0048585105119922,0.0063643283376366,0.0048585105119601,-0.0011404631161371,0.0011404625071898,2.5223628810461e-08,-2.5835865265716e-08,4.9572801643118e-09,-5.7476072687197e-09,-0.0012666433688951,0.0012666632994272,-0.0012666604077883,0.0012666463266227,-0.0012666467686235,0.001266659762138,-0.0012666638004129,0.0012666427347712,-0.0011388530303206,0.0011388988793814,-0.0011389029594521,0.0011388487552551,-4.592693221904e-09,6.0731519042605e-09,7.3570850115736e-09,-6.0777713769623e-09,-0.0016139539024549,0.001613955210036,-0.0017194465888446,0.0017194487511525,-0.0017194508362954,0.001719444246549,-0.0017194431554997,0.0017194522959308,-0.0017194474334678,0.0017194477679811,-0.0014924750080813,0.0014924930550186,-0.0014924879579814,0.0014924795337375,-0.0014924905582137,0.0014924770100255,-0.0014924801739573,0.0014924876763823,-2.3756918230301e-08,2.7058619074954e-08,-0.0011404612121711,0.0011404644111474,-4.6928866580045e-09,8.289899976486e-09,-0.0012666623960044,0.0012666442085014,-0.0012666581352957,0.0012666485105711,-0.0012666454394281,0.0012666611545143,-0.0012666411967751,0.0012666654271703,-0.0011388472353857,0.001138904595103,-0.0011388969699127,0.0011388548776795,0.68665558541885,128566,2924,0.0047417459960162,0.006701057313785,0.0047417459959992,37.672594956193,6.1380759649541e-05,6.1380759649541e-05,6.1380759649541e-05,2706827.6694081,0.016317142797793
37619200,0.99954288133266,0.016081879404794,0.0048586675189506,0.0063645443669248,0.0048586675189185,-0.0011411075290866,0.001141106925165,2.5313872318084e-08,-2.5921140300053e-08,4.9574242397505e-09,-5.7427513563586e-09,-0.0012672926925966,0.0012673126803188,-0.0012673097852064,0.0012672956539039,-0.0012672960859511,0.001267309148858,-0.0012673131809929,0.001267292059198,-0.0011395027177485,0.0011395487587678,-0.0011395528330103,0.0011394984496796,-4.5833921642214e-09,6.0628591174039e-09,7.1697662526802e-09,-5.8913522427624e-09,-0.0016146386374123,0.0016146399440682,-0.0017201466479461,0.0017201486867546,-0.0017201507680723,0.0017201443128713,-0.0017201432166188,0.0017201522295431,-0.0017201473761508,0.0017201478230534,-0.0014931442174031,0.0014931619030515,-0.0014931568153232,0.0014931487377099,-0.0014931595108114,0.0014931461180739,-0.001493149157783,0.0014931567513723,-2.4029779514962e-08,2.7197840620477e-08,-0.0011411056947113,0.0011411087595298,-4.6551648236748e-09,8.1171100345827e-09,-0.0012673118515659,0.0012672934576057,-0.0012673076560036,0.0012672976944038,-0.0012672947527958,0.001267310545809,-0.0012672905843781,0.0012673147440645,-0.0011394969255839,0.0011395544723652,-0.0011395470498867,0.0011395043650868,0.66415285399128,128566,2924,0.0047444186233405,0.0067038909651465,0.0047444186233193,38.002779316174,6.4022234529391e-05,6.4022234529391e-05,6.4022234529391e-05,2709132.8111556,0.016325455261771
37819200,0.99957573681537,0.016082346958237,0.0048588054857682,0.0063647359867331,0.0048588054857361,-0.0011407670795468,0.0011407664741011,2.5451791574985e-08,-2.6060539283802e-08,4.9638463892678e-09,-5.7507678156966e-09,-0.0012669146480193,0.0012669347311471,-0.0012669318336768,0.0012669176134398,-0.001266918045894,0.0012669311958766,-0.0012669352344556,0.00126691401297,-0.0011391353305132,0.0011391816396238,-0.0011391857207159,0.0011391310567908,-4.5901958989602e-09,6.0703382073346e-09,7.488271414919e-09,-6.2092565810031e-09,-0.0016142585534623,0.0016142598607205,-0.0017197965251263,0.0017197987691233,-0.0017198008512719,0.0017197941826044,-0.0017197930885543,0.0017198023172612,-0.0017197974552593,0.0017197976970275,-0.0014927545314198,0.0014927728492562,-0.0014927677494169,0.0014927590502507,-0.0014927702477639,0.0014927566329639,-0.0014927598828021,0.0014927672784731,-2.4151002161149e-08,2.7386510349693e-08,-0.0011407652102386,0.001140768343398,-4.9286497860734e-09,8.465394911285e-09,-0.0012669339767107,0.0012669153395963,-0.001266929574236,0.0012669197833014,-0.0012669167743663,0.0012669325313302,-0.0012669124002605,0.00126693693529,-0.0011391293858195,0.001139187506298,-0.001139179810826,0.0011391370984736,0.64016140840262,128566,2924,0.0047430056407712,0.0067023194171114,0.0047430056407482,37.804419738937,6.2435357911494e-05,6.2435357911494e-05,6.2435357911494e-05,2710521.5671028,0.016320985070273
38019200,0.99960584730517,0.016082794071772,0.0048589380510269,0.0063649179697504,0.0048589380509948,-0.0011403472865232,0.0011403466808113,2.5595547779967e-08,-2.6204556594085e-08,4.9649004821303e-09,-5.7520928158658e-09,-0.0012664176628151,0.0012664378419973,-0.0012664349450569,0.0012664206297343,-0.0012664210614929,0.0012664343066521,-0.0012664383465404,0.0012664170278405,-0.0011386740723403,0.0011387206627757,-0.0011387247459002,0.0011386697985757,-4.5870767063083e-09,6.0668472099234e-09,7.7944613995546e-09,-6.5157931549329e-09,-0.001613746826556,0.0016137481335521,-0.001719323981975,0.0017193264295832,-0.0017193285066602,0.0017193216382313,-0.0017193205472258,0.0017193299758896,-0.0017193251130504,0.0017193251500954,-0.0014922368945122,0.0014922558125991,-0.0014922507081958,0.0014922414042051,-0.0014922530046753,0.0014922391943004,-0.0014922426469575,0.001492249832134,-2.4265419314565e-08,2.7571530010341e-08,-0.0011403453812932,0.0011403485860295,-5.2154750583464e-09,8.8305905641118e-09,-0.0012664371632869,0.0012664182796935,-0.0012664325443333,0.0012664229398972,-0.0012664198607773,0.0012664355715647,-0.0012664152708064,0.0012664401913856,-0.0011386679793499,0.0011387266786691,-0.0011387186970321,0.0011386759783111,0.66569813118408,128566,2924,0.0047412627183563,0.006700204296752,0.0047412627183323,37.560232990376,6.0481863923006e-05,6.0481863923006e-05,6.0481863923006e-05,2713327.2196568,0.01631529094938
38219200,0.99963346614069,0.016083207500739,0.0048590607528285,0.006365085995114,0.0048590607527964,-0.00113992503909,0.0011399244347395,2.5743949623161e-08,-2.6351614171998e-08,4.9598632815685e-09,-5.7455972641828e-09,-0.0012659569326587,0.0012659772078758,-0.0012659743140638,0.0012659598978125,-0.0012659603278537,0.0012659736766127,-0.0012659777114705,0.0012659562994333,-0.0011382297346759,0.0011382766197848,-0.0011382806980625,0.001138225466368,-4.5836200573183e-09,6.0631301714763e-09,8.0318912031194e-09,-6.7534482138516e-09,-0.0016132687341495,0.001613270040848,-0.0017188701685163,0.0017188727747182,-0.0017188748471173,0.0017188678242494,-0.0017188667360824,0.0017188763185427,-0.0017188714559169,0.0017188713337484,-0.0014917502419666,0.0014917696236558,-0.0014917645165729,0.0014917547433327,-0.0014917666560594,0.001491752694954,-0.0014917563053263,0.0014917633257171,-2.4386777319965e-08,2.7741905612601e-08,-0.0011399231096893,0.0011399263641283,-5.4217170418542e-09,9.0916362350222e-09,-0.001265976583447,0.0012659574959247,-0.001265971809452,0.0012659623111709,-0.0012659591837246,0.0012659748850542,-0.0012659544386939,0.0012659796599244,-0.0011382235448035,0.00113828273291,-0.0011382745478699,0.0011382317470746,0.67076170999727,128566,2924,0.0047395107655991,0.0066982269297662,0.0047395107655751,37.314698582181,5.8517588657446e-05,5.8517588657446e-05,5.8517588657446e-05,2712676.6938378,0.016309719522372
38419200,0.99965899267611,0.016083615371303,0.0048591825636307,0.006365250244074,0.0048591825635986,-0.0011397399838779,0.0011397393799565,2.5890655386507e-08,-2.6497891560722e-08,4.9583952482615e-09,-5.7436861949764e-09,-0.0012657454768641,0.0012657658489312,-0.0012657629558639,0.001265748441402,-0.001265748870872,0.0012657623189423,-0.0012657663522279,0.0012657448439664,-0.0011380312751711,0.0011380784490664,-0.0011380825257302,0.0011380270083468,-4.5835753188027e-09,6.0631013699444e-09,8.0711902576191e-09,-6.792729156787e-09,-0.001613047850929,0.001613049157631,-0.001718669202381,0.0017186718343113,-0.0017186739061981,0.0017186668576415,-0.0017186657698409,0.0017186753782076,-0.0017186705151743,0.0017186703670236,-0.0014915198416252,0.0014915393008257,-0.0014915341927238,0.0014915243419298,-0.0014915363067368,0.0014915223199817,-0.0014915259564229,0.0014915329503813,-2.4532860992521e-08,2.7890146463082e-08,-0.001139738053566,0.0011397413102571,-5.4465833856163e-09,9.1194265944538e-09,-0.0012657652329512,0.001265746031739,-0.0012657604413137,0.0012657508646114,-0.0012657477350104,0.0012657635190996,-0.0012657429725764,0.0012657683113616,-0.0011380250759639,0.0011380845714726,-0.0011380763668417,0.0011380332977809,0.71253731627374,128566,2924,0.0047387428489057,0.0066973135790134,0.0047387428488827,37.196800986602,5.7574407892815e-05,5.7574407892815e-05,5.7574407892815e-05,2712316.6736119,0.016307229951966
38619200,0.99968273798169,0.0160839968745,0.0048592965413166,0.0063654037918985,0.0048592965412845,-0.0011397597996906,0.0011397591957562,2.6037400801683e-08,-2.6644649380401e-08,4.9587610345024e-09,-5.7440677818486e-09,-0.0012658021335812,0.0012658226034876,-0.0012658197097304,0.0012658050978972,-0.0012658055275043,0.0012658190733535,-0.0012658231066691,0.0012658015001086,-0.0011380689530249,0.0011381164146958,-0.0011381204909364,0.0011380646852653,-4.5844608153396e-09,6.0640504960669e-09,7.9781842741233e-09,-6.69966479431e-09,-0.0016131117903979,0.0016131130971573,-0.0017187301246423,0.0017187326945182,-0.0017187347678456,0.0017187277802225,-0.0017187266912604,0.0017187362392198,-0.0017187313764624,0.001718731290037,-0.0014915703250013,0.0014915896027379,-0.0014915844959708,0.0014915748279918,-0.0014915866705406,0.0014915727440907,-0.0014915763190676,0.0014915833757428,-2.4696558199373e-08,2.8020386938516e-08,-0.0011397578862717,0.0011397611091639,-5.334070151936e-09,8.9704387170939e-09,-0.0012658219606434,0.0012658027148661,-0.0012658172555636,0.0012658074611697,-0.0012658043645049,0.001265820300425,-0.0012657996890664,0.0012658250056891,-0.001138062813839,0.0011381224764167,-0.0011381143918826,0.0011380709155373,0.71625965398867,128566,2924,0.0047388262840263,0.0066975767446424,0.0047388262840034,37.193735535821,5.7549884286571e-05,5.7549884286571e-05,5.7549884286571e-05,2708533.5330605,0.016307668041454
38819200,0.99970482997526,0.016084353047543,0.0048594029757942,0.0063655470959872,0.0048594029757621,-0.0011397792630789,0.0011397786599817,2.6185479889718e-08,-2.67919030119e-08,4.9556876551439e-09,-5.7400687079588e-09,-0.0012658617933271,0.0012658823602073,-0.0012658794676733,0.0012658647558159,-0.0012658651848407,0.0012658788321574,-0.0012658828623734,0.0012658611606403,-0.0011381070705001,0.0011381548241033,-0.0011381588972348,0.0011381028059179,-4.5806102232078e-09,6.0597998263337e-09,7.8350233329448e-09,-6.5568608908712e-09,-0.0016131838284455,0.0016131851348531,-0.0017187966049449,0.0017187990829932,-0.0017188011555444,0.0017187942644115,-0.0017187931742924,0.0017188026248939,-0.0017187977666835,0.0017187977715838,-0.0014916309325208,0.0014916499262119,-0.0014916448255834,0.0014916354355869,-0.0014916470869008,0.0014916332625863,-0.0014916367428588,0.001491643886281,-2.4857315030443e-08,2.8151737597405e-08,-0.0011397773649784,0.0011397805580707,-5.2290256383855e-09,8.8330062758906e-09,-0.0012658816917152,0.0012658623999639,-0.0012658770671754,0.0012658670657374,-0.001265863998277,0.0012658800828347,-0.0012658594031933,0.0012658847077413,-0.0011381009888159,0.001138160828359,-0.0011381528532787,0.0011381089810609,0.71844599017912,128566,2924,0.0047389082699732,0.0066978733518878,0.0047389082699499,37.193613798963,5.7548910391702e-05,5.7548910391702e-05,5.7548910391702e-05,2705016.2293348,0.016308137184599
38880000,0.99971139655772,0.016084459044651,0.0048594346553053,0.0063655897340725,0.0048594346552732,-0.0011397835988519,0.0011397829961452,2.6231439941707e-08,-2.6837482053807e-08,4.9541649148739e-09,-5.7381180531382e-09,-0.0012658791678146,0.0012658997648792,-0.0012658968731702,0.001265882129592,-0.0012658825585385,0.0012658962374638,-0.0012659002663733,0.0012658785360873,-0.0011381176335194,0.0011381654770065,-0.0011381695491126,0.0011381133709502,-4.5773110172904e-09,6.0561723862672e-09,7.7665647384255e-09,-6.488696174433e-09,-0.0016132065919785,0.0016132078980919,-0.0017188169022935,0.0017188193377249,-0.0017188214090768,0.0017188145645546,-0.0017188134743235,0.0017188228768632,-0.0017188180220276,0.0017188180698379,-0.0014916507428093,0.0014916695985388,-0.0014916645021176,0.0014916552448854,-0.0014916668036947,0.0014916530301062,-0.0014916564651125,0.0014916636481766,-2.4902340206718e-08,2.8193753943364e-08,-0.0011397817025124,0.0011397848924734,-5.217963327508e-09,8.818481946132e-09,-0.0012658990928714,0.001265879778027,-0.0012658944772588,0.0012658844348785,-0.0012658813708638,0.0012658974894705,-0.0012658767838286,0.0012659021063201,-0.0011381115594244,0.0011381714741579,-0.0011381635103955,0.0011381195403728,0.71909629317341,128566,2924,0.0047389266478184,0.0066979670670884,0.0047389266477955,37.193609114638,5.7548872917103e-05,5.7548872917103e-05,5.7548872917103e-05,2703935.9595022,0.016308270106669
