time,ASR_ext,ASR_strain,ASR_strain_xx,ASR_strain_yy,ASR_strain_zz,disp_x_101,disp_x_102,disp_x_103,disp_x_104,disp_x_105,disp_x_106,disp_x_p1_neg,disp_x_p1_pos,disp_x_p2_neg,disp_x_p2_pos,disp_x_p3_neg,disp_x_p3_pos,disp_x_p4_neg,disp_x_p4_pos,disp_x_p5_neg,disp_x_p5_pos,disp_x_p6_neg,disp_x_p6_pos,disp_y_101,disp_y_102,disp_y_103,disp_y_104,disp_y_105,disp_y_106,disp_y_p1_neg,disp_y_p1_pos,disp_y_p2_neg,disp_y_p2_pos,disp_y_p3_neg,disp_y_p3_pos,disp_y_p4_neg,disp_y_p4_pos,disp_y_p5_neg,disp_y_p5_pos,disp_y_p6_neg,disp_y_p6_pos,disp_y_p7_neg,disp_y_p7_pos,disp_y_p8_neg,disp_y_p8_pos,disp_z_101,disp_z_102,disp_z_103,disp_z_104,disp_z_105,disp_z_106,disp_z_p1_neg,disp_z_p1_pos,disp_z_p2_neg,disp_z_p2_pos,disp_z_p3_neg,disp_z_p3_pos,disp_z_p4_neg,disp_z_p4_pos,disp_z_p5_neg,disp_z_p5_pos,disp_z_p6_neg,disp_z_p6_pos,humidity,ndof,nelem,strain_xx,strain_yy,strain_zz,temp,thermal_strain_xx,thermal_strain_yy,thermal_strain_zz,vonmises,vstrain
2419200,0,0,0,0,0,0,0,0,0,0,0,0,0,0,0,0,0,0,0,0,0,0,0,0,0,0,0,0,0,0,0,0,0,0,0,0,0,0,0,0,0,0,0,0,0,0,0,0,0,0,0,0,0,0,0,0,0,0,0,0,0,0,0,0,0,0,0,0,0,0,0,0,0,0,0
2619200,0.019524446067609,0.00040053336503182,0.00013351112167727,0.00013351112167727,0.00013351112167727,-3.4199321323736e-05,3.4199233459559e-05,-6.6289363248918e-11,-2.0833827591748e-11,1.2241106293835e-10,-2.1551365175367e-10,-3.3718490702449e-05,3.3718499020006e-05,-3.3718443294359e-05,3.3718482588182e-05,-3.3718581481981e-05,3.3718369832557e-05,-3.3718568966497e-05,3.371838733424e-05,-3.4968819853171e-05,3.4968577146448e-05,-3.4968768090452e-05,3.496861271865e-05,-1.1788882041937e-10,2.4324591786815e-10,-7.8642077447579e-09,7.9839296769931e-09,-3.5388524116289e-05,3.5388644441741e-05,-3.4705306768057e-05,3.4700113331476e-05,-3.4700233988145e-05,3.4705429410322e-05,-3.4705191617611e-05,3.4700234350729e-05,-3.4700119504583e-05,3.4705550147949e-05,-3.5840249728805e-05,3.5824938551864e-05,-3.5824917114253e-05,3.5840706390978e-05,-3.5830211911189e-05,3.5835231555419e-05,-3.5829861901676e-05,3.5835592768331e-05,-2.0097299432162e-09,-2.0609081842741e-09,-3.4201327831695e-05,3.4197226952243e-05,5.6564614563327e-09,-9.999123507371e-09,-3.371788989153e-05,3.3719065648929e-05,-3.3723081996577e-05,3.3713874351569e-05,-3.3717906249717e-05,3.3719048566436e-05,-3.3723099308971e-05,3.3713857270679e-05,-3.4973363123817e-05,3.4964026606024e-05,-3.497331264921e-05,3.4964078083081e-05,0.81992965320518,128566,2924,0.00014248679157882,0.0001474415083533,0.0001424867915807,31.517920759928,1.2143366079421e-05,1.2143366079421e-05,1.2143366079421e-05,464179.72107356,0.00043250881312597
2819200,0.041120039334375,0.0008374731888733,0.00027854092092754,0.00028039134701187,0.00027854092093389,-7.0486673198445e-05,7.0483371041026e-05,-1.4989980719127e-09,-1.7769579981483e-09,4.7161455485876e-09,-8.218528155371e-09,-7.0447627786746e-05,7.0448697358798e-05,-7.0447777633732e-05,7.0448661898742e-05,-7.0451792084826e-05,7.0444414516998e-05,-7.0451875662013e-05,7.0444314049393e-05,-7.1687848225219e-05,7.168055917868e-05,-7.1688125478298e-05,7.1680293981023e-05,-4.2881544583395e-09,8.6977793176395e-09,1.6792895146455e-08,-1.2587010671773e-08,-7.3469754388578e-05,7.3473985925321e-05,-7.2783847599961e-05,7.2793428761264e-05,-7.2793237530446e-05,7.2783556898882e-05,-7.2779715457815e-05,7.2797763695603e-05,-7.2789104854505e-05,7.2787892533262e-05,-7.3832503286391e-05,7.3869829890472e-05,-7.3860908391893e-05,7.3840587814106e-05,-7.3859904094432e-05,7.3841705658561e-05,-7.3847266846381e-05,7.3854709929068e-05,4.7633623081151e-09,5.0277400395552e-09,-7.0480104153786e-05,7.0489940087775e-05,-9.4481345690406e-09,1.9744780228677e-08,-7.0448178395941e-05,7.0448116679148e-05,-7.0438519259424e-05,7.0457791481409e-05,-7.0448076082119e-05,7.044819072769e-05,-7.0438419284697e-05,7.04578690905e-05,-7.1674329545593e-05,7.1694091145439e-05,-7.1674628082998e-05,7.1693870155217e-05,0.82138488951864,128566,2924,0.00029364443117375,0.00030608581474087,0.0002936444311796,32.735979590126,2.1887836721006e-05,2.1887836721006e-05,2.1887836721006e-05,503127.16748143,0.00089377422430887
3019200,0.062598806953856,0.001270635746648,0.00042122598664497,0.00042818377345052,0.00042122598655248,-0.00010342468081821,0.00010342186410475,-1.1000513593235e-09,-1.6960448528826e-09,6.0587075159076e-09,-9.1004648454759e-09,-0.00010384760730087,0.00010384998660241,-0.00010384790376345,0.00010384988549731,-0.00010385247379395,0.00010384497653312,-0.00010385266136117,0.00010384476792703,-0.00010521190357461,0.00010520465795611,-0.00010521248806236,0.0001052040771927,-5.8761953284023e-09,9.2758607886289e-09,2.8396752695216e-08,-2.5264702081249e-08,-0.00010896025039076,0.00010896342293988,-0.00010815590618245,0.00010817167650866,-0.00010817309140104,0.0001081536708906,-0.00010815107204032,0.000108176726296,-0.00010816825684796,0.00010815872111728,-0.00010924841199013,0.00010930922091983,-0.00010930034543889,0.0001092558334028,-0.00010929297682798,0.00010926354642241,-0.00010927819738383,0.00010927872908808,6.0493190665639e-09,6.6358593377148e-09,-0.00010341689666674,0.00010342964821106,-1.9763153027197e-08,3.3314871709157e-08,-0.0001038514122576,0.00010384614264728,-0.00010383383064406,0.00010386376923861,-0.00010385120649385,0.00010384632779903,-0.000103833621221,0.00010386395207203,-0.00010519281200264,0.00010522376816079,-0.00010519342334878,0.0001052232290659,0.82013323364146,128566,2924,0.00043083747414857,0.00045390432602531,0.00043083747406019,32.491953948272,1.9935631586176e-05,1.9935631586176e-05,1.9935631586176e-05,659123.56439909,0.0013164457589138
3219200,0.083852241282455,0.0016895463354411,0.00055814470996315,0.0005732569156456,0.0005581447098323,-0.00013488208231578,0.00013487977639896,-6.8964118885189e-10,-1.6060744674769e-09,6.1156646947215e-09,-8.639595479193e-09,-0.00013601096510621,0.00013601382603489,-0.00013601136737232,0.0001360136170674,-0.00013601570119121,0.00013600895748495,-0.00013601598179687,0.00013600862835911,-0.00013708542481038,0.00013707911916535,-0.00013708628265553,0.00013707818432858,-5.9597580338507e-09,8.7873428887434e-09,3.3736618271234e-08,-3.1177249018818e-08,-0.00014373112134193,0.00014373372175754,-0.00014306174700023,0.00014308078443154,-0.00014308261502974,0.00014305903433361,-0.00014305702533293,0.00014308569192128,-0.00014307789296152,0.00014306394216561,-0.00014362561563983,0.00014369676496559,-0.00014368849568351,0.00014363223663018,-0.00014367725970835,0.0001436439232652,-0.00014366285754106,0.00014365869260136,6.3257028133916e-09,7.2319844305027e-09,-0.00013487412980597,0.00013488772884473,-2.4846500636968e-08,3.9407501822689e-08,-0.00013601651938085,0.00013600822115517,-0.00013599522237716,0.00013602957350545,-0.00013601621244505,0.00013600851825953,-0.00013599491007777,0.00013602986668973,-0.00013706432181647,0.00013710020954304,-0.00013706522989996,0.00013709934091993,0.80675912406441,128566,2924,0.00056184616373931,0.00059870528791778,0.0005618461636145,32.204253550365,1.7634028402921e-05,1.7634028402921e-05,1.7634028402921e-05,782710.02664061,0.001723882916207
3419200,0.1048526431048,0.0020901839615083,0.00068786496399257,0.00071445403365235,0.00068786496386334,-0.0001646058514276,0.00016460398298462,-3.1350910906109e-10,-1.5499191999037e-09,5.9903027692396e-09,-8.0719676539437e-09,-0.00016675811500741,0.00016676129509917,-0.00016675861717853,0.00016676097274396,-0.00016676263250615,0.00016675665984699,-0.00016676300904734,0.00016675621332927,-0.00016693864877763,0.00016693331610437,-0.00016693977917398,0.00016693202713105,-5.7628900253494e-09,8.2931162702259e-09,3.6389850725208e-08,-3.4119999448769e-08,-0.00017757789023007,0.00017758019922105,-0.00017744071029452,0.00017746153248691,-0.00017746343269843,0.00017743793129206,-0.00017743620219988,0.00017746620616639,-0.00017745892423261,0.00017744260523844,-0.00017660856327649,0.00017668468665457,-0.00017667688328324,0.00017661461469427,-0.00017666340583111,0.00017662860248345,-0.0001766496759567,0.00017664267864993,6.0710418495976e-09,7.2975091979112e-09,-0.00016459822490836,0.00016461160943998,-2.7661622012744e-08,4.2122609169113e-08,-0.00016676492976078,0.00016675442651752,-0.00016674179076949,0.00016677762034482,-0.0001667645184665,0.0001667548327439,-0.0001667413735721,0.00016677802207731,-0.00016691702556754,0.00016695488950762,-0.00016691823851573,0.00016695369877206,0.78589835441364,128566,2924,0.00068561923615158,0.00073963823395929,0.0006856192360288,31.914782834754,1.5318262678032e-05,1.5318262678032e-05,1.5318262678032e-05,905928.13533578,0.0021131076097059
3619200,0.12611599455564,0.0024840425123046,0.00081430835192596,0.00085542580858045,0.00081430835179823,-0.0001942151014792,0.00019421363349857,4.5774710800587e-11,-1.510648422581e-09,5.8069172269193e-09,-7.4822457717115e-09,-0.00019753115147104,0.00019753458263998,-0.00019753175866337,0.00019753415166518,-0.00019753541619019,0.00019753020500084,-0.00019753590053108,0.00019752965324863,-0.00019646110286426,0.00019645673851727,-0.00019646253090428,0.00019645512138064,-5.4859841149951e-09,7.8003613862993e-09,3.5981968710224e-08,-3.3913530308994e-08,-0.00021209871031402,0.00021210081594772,-0.0002130031740169,0.00021302385199486,-0.0002130257196149,0.00021300046796712,-0.00021299891385217,0.00021302826628446,-0.00021302145878585,0.00021300488282825,-0.00020972156866933,0.00020979662307721,-0.00020978928135203,0.00020972716496951,-0.00020977550811431,0.0002097414564384,-0.00020976253219782,0.00020975476674545,5.1149899299368e-09,6.6614615807699e-09,-0.00019420847988075,0.00019422025503387,-2.8134019538265e-08,4.1011598797199e-08,-0.00019753885155687,0.00019752683244845,-0.00019751592229134,0.00019754981359463,-0.00019753833365994,0.00019752734511166,-0.00019751539818159,0.00019755032205695,-0.00019644069953068,0.0001964770762156,-0.00019644222371647,0.00019647556915478,0.77011574107069,128566,2924,0.00080890035213733,0.00088335744435784,0.00080890035201594,31.993776268637,1.5950210149096e-05,1.5950210149096e-05,1.5950210149096e-05,1072366.0230827,0.002504290421284
3819200,0.1479852852653,0.002885134002899,0.00094225155457651,0.0010006308938711,0.00094225155445138,-0.00022461630231488,0.00022461512731998,3.5166628774163e-10,-1.5243935201933e-09,5.7079730506516e-09,-7.0853154734758e-09,-0.00022914194741098,0.00022914561121313,-0.00022914266000057,0.00022914507811203,-0.00022914604799383,0.00022914140149308,-0.00022914664753039,0.00022914074628272,-0.00022686444196179,0.00022686085608405,-0.0002268661898719,0.00022685891627267,-5.3366542094507e-09,7.4805049025483e-09,3.4070875070794e-08,-3.216458128712e-08,-0.00024815010391329,0.00024815204590028,-0.0002503279177151,0.00025034737614685,-0.00025034926537224,0.00025032521941468,-0.00025032380669296,0.00025035163570267,-0.00025034515920473,0.00025032947402469,-0.00024417212657264,0.0002442432807358,-0.0002442362683009,0.00024417741588678,-0.00024422336754496,0.00024419083229295,-0.00024421085703445,0.00024420366954513,4.1702058553554e-09,6.0371964019576e-09,-0.00022461061660066,0.0002246208129729,-2.716016030271e-08,3.845942720599e-08,-0.00022915002796527,0.00022913748759515,-0.00022912826919534,0.00022915929628056,-0.00022914939999299,0.00022913810941797,-0.00022912764065317,0.00022915990841576,-0.00022684564505043,0.00022687958465712,-0.00022684747397914,0.00022687777122918,0.77140159802249,128566,2924,0.00093546299367435,0.0010334266107088,0.00093546299355581,32.32478823235,1.8598305858798e-05,1.8598305858798e-05,1.8598305858798e-05,1237822.9135094,0.0029085766833777
4019200,0.17045128847696,0.0032946912971897,0.001072136814443,0.0011504176684283,0.0010721368143184,-0.00025544770046391,0.00025544671728874,6.0740356818416e-10,-1.58889109317e-09,5.6764461022971e-09,-6.8586499021741e-09,-0.00026123508736539,0.00026123896446559,-0.00026123590591438,0.00026123832152919,-0.0002612391028597,0.00026123483860896,-0.00026123981282353,0.00026123408270744,-0.00025777875728446,0.00025777575841694,-0.00025778081265572,0.00025777350678759,-5.2661715577355e-09,7.2830549769345e-09,3.2193406395489e-08,-3.0409561239866e-08,-0.00028535675407239,0.00028535857263629,-0.00028900818426784,0.00028902640780908,-0.00028902835130208,0.00028900547137783,-0.00028900415989334,0.00028903057697536,-0.0002890243303066,0.00028900963710639,-0.00027959328279955,0.00027966065949038,-0.00027965388742169,0.00027959838957246,-0.00027964198644565,0.00027961078837964,-0.00027962973134435,0.00027962336393415,3.2276664762901e-09,5.4145853342053e-09,-0.00025544289879305,0.00025545151889843,-2.61300392134e-08,3.5829934047175e-08,-0.00026124350919528,0.00026123050147926,-0.0002612229656415,0.00026125109367123,-0.00026124277536481,0.00026123122842131,-0.00026122222883329,0.00026125181318321,-0.00025776148514668,0.00025779295901776,-0.00025776363117293,0.00025779082830489,0.77299483976547,128566,2924,0.0010638003433449,0.0011882808038274,0.0010638003432256,32.662269416451,2.1298155331608e-05,2.1298155331608e-05,2.1298155331608e-05,1393178.8595162,0.0033213884146135
4219200,0.19348785937649,0.0037132303917328,0.0012041161759411,0.001304998039971,0.0012041161758207,-0.00028672795717747,0.00028672708870375,8.2451170232262e-10,-1.6917945698832e-09,5.6780512670297e-09,-6.7440200787718e-09,-0.00029383888747594,0.00029384294670623,-0.00029383980943564,0.00029384219449634,-0.00029384286182161,0.00029383885717995,-0.00029384368303884,0.00029383799855193,-0.00028921190129528,0.00028920936900389,-0.0002892142698372,0.00028920680172103,-5.2528157445112e-09,7.1827589864816e-09,3.0598573072935e-08,-2.8898817173178e-08,-0.00032377783551684,0.00032377956921451,-0.00032907691185126,0.00032909406447816,-0.00032909607471111,0.0003290741729145,-0.00032907292390991,0.00032909819557227,-0.00032909209087917,0.00032907829984126,-0.00031605069002152,0.00031611490215584,-0.00031610828607162,0.00031605570916613,-0.00031609730695902,0.00031606716227572,-0.0003160851609899,0.00031607962540174,2.3732171659379e-09,4.8802963295205e-09,-0.00028672391247258,0.00028673113335001,-2.5307708855087e-08,3.3577046333432e-08,-0.00029384764022325,0.00029383415166456,-0.00029382811854073,0.00029385372141669,-0.00029384679916475,0.00029383498545261,-0.0002938272748844,0.00029385454686049,-0.00028919591230138,0.00028922528479046,-0.00028919837091139,0.00028922284179573,0.77488671988409,128566,2924,0.001193989588656,0.0013481639696444,0.0011939895885413,33.000006266457,2.4000050131653e-05,2.4000050131653e-05,2.4000050131653e-05,1542858.7180723,0.0037431358870314
4419200,0.21746354980158,0.0041476082190922,0.0013402642511408,0.00146707971693,0.0013402642510214,-0.00031941787384248,0.00031941709454055,1.0342471666208e-09,-1.8131162396418e-09,5.6549528491884e-09,-6.6296567547869e-09,-0.00032803455987504,0.00032803878320248,-0.00032803559940644,0.000328037903384,-0.00032803849760294,0.00032803472563487,-0.00032803941910046,0.0003280337711302,-0.00032210880893151,0.00032210669876889,-0.00032211146175739,0.00032210383994089,-5.1895215819573e-09,7.024277827237e-09,2.9316209414896e-08,-2.7707850918042e-08,-0.00036461003506192,0.00036461167649266,-0.00037171585670707,0.0003717321876883,-0.00037173423458401,0.00037171311704761,-0.0003717119518221,0.00037173623198649,-0.00037173030959903,0.00037171718139331,-0.00035469543528771,0.00035475702453144,-0.00035475060346457,0.0003547003197806,-0.00035474031065101,0.00035471107062915,-0.00035472834165521,0.00035472334885158,1.5803059014187e-09,4.3965888473736e-09,-0.00031941451689585,0.00031942045142976,-2.4547837434152e-08,3.1493003055924e-08,-0.00032804360749121,0.00032802969050397,-0.00032802504248902,0.00032804830264575,-0.00032804267534018,0.00032803061482412,-0.00032802408278803,0.00032804924269921,-0.00032209397227403,0.00032212145729427,-0.00032209677073222,0.00032211867611051,0.77612067024715,128566,2924,0.0013300283816899,0.0015180521459146,0.0013300283815769,33.593768009159,2.8750144073271e-05,2.8750144073271e-05,2.8750144073271e-05,1691817.2963966,0.004186855878806
4619200,0.24251589182148,0.0046002523025872,0.0014810955126349,0.0016380612774353,0.001481095512517,-0.00035335511626107,0.00035335439510145,1.2237838518941e-09,-1.9452049960246e-09,5.606993271084e-09,-6.5219569366483e-09,-0.00036368206417862,0.00036368640476891,-0.00036368321097892,0.0003636854122689,-0.00036368595347031,0.00036368239380638,-0.00036368698294684,0.00036368133775552,-0.00035626855308551,0.00035626685959332,-0.00035627150942268,0.00035626368884843,-5.1470386585021e-09,6.9079729672265e-09,2.8279934255685e-08,-2.6741109337819e-08,-0.00040787284530431,0.00040787441606517,-0.0004169709650503,0.00041698662839483,-0.00041698870175554,0.00041696822088343,-0.00041696711694916,0.00041699061412692,-0.00041698482699495,0.00041697223330105,-0.00039548478289559,0.00039554428967253,-0.0003955380135925,0.00039548956897294,-0.00039552826043066,0.00039549976537092,-0.00039551644121393,0.00039551188943125,1.0277528170178e-09,4.1626801246404e-09,-0.00035335218498947,0.00035335732631683,-2.3950891061527e-08,3.0078359264359e-08,-0.00036369127726102,0.00036367714688658,-0.00036367339164909,0.00036369507799354,-0.00036369024156219,0.00036367817448237,-0.00036367232315285,0.00036369612652198,-0.00035625449247846,0.00035628083651465,-0.00035625761077454,0.00035627773669028,0.77693645591816,128566,2924,0.0014712391787696,0.0016980212831073,0.0014712391786587,34.291458602535,3.4331668820283e-05,3.4331668820283e-05,3.4331668820283e-05,1840397.4925424,0.0046512923672468
4819200,0.26861247285689,0.0050704292600774,0.0016261848857299,0.001818059488736,0.0016261848856115,-0.00038824996956869,0.00038824928326448,1.4001480172241e-09,-2.0871369367269e-09,5.5696006658941e-09,-6.4486977669598e-09,-0.00040047404369156,0.00040047848695299,-0.00040047529301043,0.00040047738878436,-0.00040047789486008,0.00040047451390925,-0.00040047903572803,0.00040047335255565,-0.00039140026570826,0.00039139896155188,-0.00039140353931559,0.0003913954716612,-5.12281727139e-09,6.830804633872e-09,2.7503378168367e-08,-2.6013861358363e-08,-0.0004533624194247,0.00045336394010693,-0.00046461687692872,0.00046463203084475,-0.0004646341289687,0.0004646141280026,-0.00046461306002086,0.00046463598371879,-0.00046463029011353,0.00046461810282039,-0.00043821886351371,0.00043827683089076,-0.00043827065325214,0.00043822358236201,-0.00043826130144623,0.0004382333660781,-0.0004382495927107,0.00043824537748038,6.3740390541183e-10,4.0943311024758e-09,-0.00038824728711941,0.00038825196565617,-2.3473743883752e-08,2.9122386334444e-08,-0.00040048335221556,0.00040046913502579,-0.00040046594499635,0.00040048658627362,-0.00040048220710284,0.00040047027184338,-0.00040046477146809,0.00040048773989184,-0.00039138671332149,0.00039141242874538,-0.00039139013997028,0.00039140901976169,0.77792178483262,128566,2924,0.0016164148937538,0.0018872180131762,0.0016164148936398,34.991858543128,3.9934868345021e-05,3.9934868345021e-05,3.9934868345021e-05,1989259.0317183,0.0051331896886331
5019200,0.2957025466702,0.0055554903931116,0.0017745873903933,0.0020063156124428,0.0017745873902755,-0.00042388167608381,0.00042388101635834,1.5735082894294e-09,-2.2342338176977e-09,5.5381071240655e-09,-6.3897304057251e-09,-0.00043822633051851,0.00043823087805339,-0.00043822768587171,0.00043822967082016,-0.00043823015309584,0.00043822693407973,-0.00043823140242771,0.00043822566890943,-0.00042725568832208,0.00042725475233414,-0.00042725927355629,0.00042725095049114,-5.0978869117748e-09,6.7664603791625e-09,2.6870587554054e-08,-2.5417378227763e-08,-0.00050089167419018,0.0005008931578596,-0.00051446389193452,0.00051447863411705,-0.0005144807472261,0.00051446114456741,-0.00051446010399595,0.00051448255647654,-0.00051447693728351,0.00051446508892517,-0.00048275781158987,0.0004828145108749,-0.00048280841237664,0.00048276247729032,-0.0004827993945401,0.00048277191748366,-0.00048278777337871,0.00048278383934756,3.0658409869859e-10,4.0833729872405e-09,-0.0004238791794212,0.00042388351296217,-2.3047694442638e-08,2.8336679888286e-08,-0.00043823571322955,0.00043822145329591,-0.00043821870992433,0.00043823849921754,-0.00043823446222795,0.00043822269594445,-0.00043821742914029,0.00043823976011641,-0.00042724253472633,0.00042726782007745,-0.00042724627596592,0.00042726409528359,0.77677325194685,128566,2924,0.0017646358971058,0.0020848589728179,0.0017646358969889,35.692366018604,4.5538928148831e-05,4.5538928148831e-05,4.5538928148831e-05,2136866.5618079,0.0056299354994706
5219200,0.32308859946011,0.0060444746795856,0.0019229615164072,0.002198551646886,0.0019229615162924,-0.0004587509142444,0.00045875023998878,1.716670802173e-09,-2.3918810526873e-09,5.5613685795524e-09,-6.4290222277546e-09,-0.00047534095450811,0.0004753455966157,-0.00047534239875986,0.00047534430281743,-0.00047534478626544,0.00047534164530616,-0.00047534615099787,0.0004753402697773,-0.00046237901251444,0.00046237837330841,-0.00046238293223955,0.00046237424215269,-5.1505350819387e-09,6.8154206722385e-09,2.6834272798092e-08,-2.5383405094516e-08,-0.0005486932927031,0.00054869477357823,-0.00056470504027389,0.00056471970963402,-0.00056472185810912,0.00056470225755659,-0.00056470120742183,0.00056472367854744,-0.00056471802905835,0.00056470622266931,-0.00052744498231863,0.00052750168571976,-0.00052749555365928,0.0005274496767595,-0.00052748658353991,0.00052745906694074,-0.0005274749033529,0.00052747105197244,1.68111646266e-10,4.2845177108174e-09,-0.00045874837933729,0.00045875277483793,-2.3116092127282e-08,2.847346598097e-08,-0.00047535045187944,0.00047533606065062,-0.00047533336990506,0.00047535318387471,-0.00047534907503744,0.00047533742886957,-0.00047533198872705,0.00047535454549591,-0.00046236579563669,0.00046239150691666,-0.00046236983114822,0.00046238748600435,0.7785555178143,128566,2924,0.0019096657333342,0.0022835920198259,0.0019096657332191,36.02238187005,4.8179054960401e-05,4.8179054960401e-05,4.8179054960401e-05,2279275.4394982,0.0061216050335922
5419200,0.35056440675675,0.0065268442145356,0.0020680539003553,0.0023907364139363,0.002068053900244,-0.00049268408325006,0.00049268340791218,1.8806493683498e-09,-2.557118719992e-09,5.5733433291806e-09,-6.4428594444783e-09,-0.00051179088090246,0.00051179564456561,-0.00051179243929121,0.00051179423549367,-0.00051179472627239,0.00051179168127914,-0.00051179619582336,0.0005117902018977,-0.0004964397978728,0.00049643945435188,-0.00049644402288595,0.00049643501778238,-5.1584601378778e-09,6.8241882401159e-09,2.6890375251583e-08,-2.5437324769572e-08,-0.00059642078361754,0.00059642226624532,-0.00061507323896508,0.00061508793585536,-0.00061509008855749,0.00061507045153342,-0.00061506940328312,0.00061509190703299,-0.00061508624939236,0.0006150744265105,-0.00057184684099235,0.00057190363813289,-0.00057189749418209,0.00057185153827354,-0.0005718885231208,0.00057186093276715,-0.00057187680569103,0.00057187295515761,7.6219424140823e-12,4.4352723304982e-09,-0.00049268155346895,0.00049268593763697,-2.3130806583001e-08,2.8480729622713e-08,-0.00051180050138167,0.00051178598683375,-0.00051178341237837,0.00051180311592785,-0.00051179902580926,0.00051178745380741,-0.00051178192211775,0.00051180458668984,-0.00049642656905291,0.00049645259993883,-0.00049643092542059,0.00049644825633124,0.7695800280173,128566,2924,0.0020507841061808,0.002481976109941,0.0020507841060692,36.275381509621,5.0203052076965e-05,5.0203052076965e-05,5.0203052076965e-05,2409124.7372269,0.0066052898939986
5619200,0.37804811951344,0.0069848671312034,0.0022044394081311,0.0025759883150498,0.0022044394080225,-0.0005246426039452,0.00052464194112011,2.0466851288727e-09,-2.7107635180639e-09,5.5659667560381e-09,-6.4227630703793e-09,-0.0005469964101511,0.00054700128372252,-0.00054699807432822,0.0005469997676393,-0.00054700024695492,0.00054699732988398,-0.00054700182364125,0.00054699574427031,-0.00052804134527548,0.00052804133710615,-0.00052804587946606,0.00052803658180441,-5.1463814067277e-09,6.8082904541647e-09,2.6848446279513e-08,-2.5398454945606e-08,-0.00064279622524362,0.00064279770470401,-0.00066461084435256,0.00066462552174715,-0.00066462766990532,0.00066460806454888,-0.00066460701836515,0.00066462948246924,-0.000664623838862,0.00066461203056667,-0.00061433359598949,0.00061439030080042,-0.0006143841694299,0.0006143382811311,-0.00061437520637729,0.00061434766720088,-0.00061436351536263,0.00061435966181889,-1.745645025603e-10,4.5737842634738e-09,-0.00052464010329439,0.00052464444171656,-2.3113068341922e-08,2.8418701701014e-08,-0.00054700614803603,0.00054699150920714,-0.00054698908737678,0.00054700860938857,-0.00054700456546149,0.00054699308323211,-0.00054698749038778,0.00054701018690828,-0.00052802816024904,0.00052805443410874,-0.00052803282937241,0.00052804977709967,0.73637048178264,128566,2924,0.0021836746695794,0.0026747006726777,0.0021836746694718,36.52630307391,5.2210424591282e-05,5.2210424591282e-05,5.2210424591282e-05,2531561.1694676,0.0070669365392915
5819200,0.40545598129797,0.0074213665887692,0.0023332920726232,0.0027547824436311,0.0023332920725149,-0.00055498312623073,0.00055498248066257,2.2152859741334e-09,-2.8621825578745e-09,5.5461485914639e-09,-6.3850120698818e-09,-0.00058138879882487,0.00058139377752155,-0.00058139056932816,0.00058139215463213,-0.00058139261781575,0.00058138984292281,-0.00058139430106615,0.00058138815034076,-0.00055790085549864,0.00055790119698477,-0.00055790569794494,0.00055789612264813,-5.1203275544785e-09,6.776662751487e-09,2.6746500090605e-08,-2.5301575113895e-08,-0.00068808994725454,0.00068809142180608,-0.00071330460267018,0.00071331922907335,-0.00071332136513272,0.00071330183898193,-0.00071330079511051,0.00071332317035826,-0.00071331755263687,0.000713305785452,-0.000655617043162,0.00065567352931718,-0.0006556674242153,0.00065562170622201,-0.00065565848569669,0.00065563106591752,-0.00065564685164038,0.0006556430019983,-3.6448459938906e-10,4.7041476632923e-09,-0.00055498066498646,0.00055498494185214,-2.3046837726545e-08,2.8290192960885e-08,-0.00058139864045683,0.00058138389983944,-0.00058138164470079,0.00058140093493317,-0.00058139695100185,0.0005813855806705,-0.00058137994112211,0.0005814026191499,-0.00055788774771352,0.0005579142117894,-0.00055789272977167,0.00055790924110255,0.71317583442529,128566,2924,0.0023098235602026,0.0028628907277361,0.0023098235600942,36.777141510745,5.4217132085959e-05,5.4217132085959e-05,5.4217132085959e-05,2643326.5634661,0.0075106437089708
6019200,0.43230627030512,0.0078378707638925,0.0024553533367074,0.0029271640905845,0.0024553533366007,-0.00058341823887909,0.0005834175606622,2.3588232688201e-09,-3.038170815946e-09,5.5561539489137e-09,-6.4283583855345e-09,-0.00061436196699672,0.00061436703648046,-0.00061436384174676,0.00061436530808499,-0.0006143658037223,0.00061436308614648,-0.00061436759375431,0.00061436128409142,-0.00058607078031246,0.00058607138918314,-0.0005860759357147,0.00058606599240364,-5.1483654625279e-09,6.8024860991309e-09,2.687034471459e-08,-2.5427374520015e-08,-0.00073173039858803,0.00073173187129482,-0.00076007116519104,0.00076008585283025,-0.00076008800743015,0.00076006838094913,-0.0007600673386125,0.0007600898138083,-0.00076008417919597,0.00076007234383126,-0.00069569152408767,0.00069574827676773,-0.00069574215326926,0.00069569620043581,-0.00069573316264224,0.00069570561162051,-0.00069572148184858,0.00069571759602357,-4.2852276873147e-10,4.9606556252476e-09,-0.00058341566528854,0.00058342013419822,-2.3078122146328e-08,2.8516835394422e-08,-0.00061437185468385,0.0006143571128778,-0.00061435477183737,0.00061437423464355,-0.00061437005674454,0.00061435890215017,-0.00061435296324795,0.000614376024274,-0.00058605750996034,0.00058608456221256,-0.0005860628006994,0.00058607928214017,0.70261522793468,128566,2924,0.0024280385058231,0.0030441736845569,0.0024280385057152,36.775474652479,5.420379721983e-05,5.420379721983e-05,5.420379721983e-05,2711957.8497759,0.00793159333165
6219200,0.45853091024066,0.0082457198982803,0.0025746020472059,0.003096515803974,0.0025746020471004,-0.00061120320031749,0.00061120249976375,2.5077680027324e-09,-3.2093632725874e-09,5.542105783422e-09,-6.4370701310143e-09,-0.00064657664624192,0.00064658180001241,-0.00064657862752671,0.00064657996381244,-0.00064658048377283,0.00064657785109906,-0.00064658237865774,0.00064657594146247,-0.000613863267011,0.00061386416742957,-0.00061386873202804,0.00061385845606159,-5.1483199771234e-09,6.7964056290027e-09,2.6851291289012e-08,-2.5414827132624e-08,-0.00077460413310618,0.00077460559940766,-0.00080573764471848,0.00080575231756364,-0.00080575447756948,0.00080573485631977,-0.0008057338195786,0.00080575627710142,-0.00080575065110352,0.00080573881744967,-0.00073539213037148,0.00073544884403168,-0.00073544272745281,0.00073539679673565,-0.0007354337423987,0.00073540620183203,-0.0007354220679539,0.00073541818129535,-5.2144660972651e-10,5.1876236345651e-09,-0.00061120054871256,0.00061120515131456,-2.2994880634299e-08,2.8568548315566e-08,-0.00064658655722863,0.0006465718533191,-0.00064656948491696,0.00064658896417184,-0.00064658465313227,0.00064657374874422,-0.00064656756942092,0.00064659086111046,-0.00061384992188837,0.00061387741295835,-0.00061385552701072,0.00061387181807208,0.70745491353611,128566,2924,0.0025435397156967,0.0032222363149031,0.0025435397155896,36.758787773196,5.407030218557e-05,5.407030218557e-05,5.407030218557e-05,2728009.113936,0.0083440009863974
6419200,0.48409072345715,0.0086401026066273,0.0026897499546757,0.0032606026973792,0.0026897499545724,-0.00063809543618804,0.00063809472704101,2.6634956506391e-09,-3.3736375438255e-09,5.5144121982086e-09,-6.4176030066922e-09,-0.00067776413073668,0.00067776936783493,-0.00067776621729967,0.00067776742331212,-0.00067776795457138,0.00067776543428597,-0.00067776995429719,0.00067776341644791,-0.00064066565380053,0.00064066687404029,-0.00064067142941664,0.00064066084767691,-5.1289448114037e-09,6.7678003866085e-09,2.6741365084182e-08,-2.5314253108444e-08,-0.00081614290588072,0.00081614436284111,-0.00084998419647053,0.00084999880740618,-0.00085000096341916,0.00084998141603098,-0.00084998038623073,0.00085000275130189,-0.00084999715183257,0.00084998536154928,-0.00077386262268033,0.0007739191049745,-0.00077391301530305,0.0007738672655788,-0.00077390406595504,0.00077387663283742,-0.00077389243835356,0.00077388856528296,-6.4235308843092e-10,5.3866953314369e-09,-0.00063809274132018,0.00063809742185556,-2.2853395682126e-08,2.8502702028285e-08,-0.00067777406250866,0.00067775939946165,-0.0006777570588179,0.00067777644163546,-0.00067777205205458,0.00067776140154503,-0.00067775503670071,0.00067777844552784,-0.00064065230599498,0.00064068012015415,-0.0006406582251098,0.00064067421155917,0.70210892319796,128566,2924,0.0026553195559909,0.0033947210241549,0.0026553195558855,36.741630208181,5.3933041665448e-05,5.3933041665448e-05,5.3933041665448e-05,2738285.9042489,0.0087434446432908
6619200,0.50936084644495,0.0090536297993801,0.0028113242575962,0.0034309812842899,0.002811324257494,-0.00066662910375338,0.00066662845125295,2.8515688342427e-09,-3.5054880357696e-09,5.4355520771096e-09,-6.2787425357549e-09,-0.00070973848384816,0.00070974381121086,-0.00070974067345184,0.00070974175808654,-0.00070974223571244,0.00070973994959054,-0.00070974434179391,0.0007097378232527,-0.00066962098507298,0.00066962264925785,-0.00066962707309294,0.00066961630410634,-5.0276840685558e-09,6.6492286825986e-09,2.6255685165135e-08,-2.4845168676445e-08,-0.00085890876023417,0.00085891020058604,-0.00089551758698877,0.00089553193998532,-0.00089553404843866,0.00089551486952103,-0.00089551384574112,0.00089553581118979,-0.00089553030764375,0.00089551874055712,-0.0008135637334488,0.00081361919173293,-0.00081361320684455,0.00081356830253032,-0.00081360441685245,0.00081357750200667,-0.00081359300509374,0.00081358921167382,-9.0548448119197e-10,5.4444166128327e-09,-0.00066662654087042,0.00066663101408388,-2.2494988374135e-08,2.79222332536e-08,-0.00070974845961624,0.00070973379646681,-0.00070973176588999,0.00070975052889697,-0.00070974634188628,0.00070973590673776,-0.00070972963781027,0.00070975263907667,-0.00066960796096799,0.00066963556889608,-0.00066961419149683,0.00066962934800677,0.74070665703873,128566,2924,0.0027739105419576,0.0035722690682068,0.0027739105418546,37.008565998324,5.6068527986591e-05,5.6068527986591e-05,5.6068527986591e-05,2704390.9313024,0.0091619019507915
6819200,0.53543650095474,0.0095151816750949,0.0029481498445453,0.0036188819861071,0.0029481498444425,-0.00069976418361155,0.00069976370751282,3.0746472402881e-09,-3.5533174169486e-09,5.2783785173305e-09,-5.9362443041937e-09,-0.00074521081626009,0.000745216212025,-0.00074521305968391,0.00074521409513617,-0.00074521437081135,0.00074521254444118,-0.00074521659965129,0.00074521029663686,-0.00070363417417398,0.00070363653791586,-0.00070364062192991,0.00070362983405687,-4.7974652308774e-09,6.385129418591e-09,2.5015205309149e-08,-2.3636433278453e-08,-0.00090620695432319,0.00090620836281769,-0.00094598608164052,0.00094599973153548,-0.00094600173143533,0.00094598351660665,-0.00094598246587882,0.00094600346854696,-0.00094599818057132,0.00094598718912537,-0.00085747899405893,0.00085753194619044,-0.00085752620474658,0.0008574834158482,-0.0008575177775287,0.00085749222429364,-0.00085750693972926,0.00085750334150188,-1.4598763595514e-09,5.2625506502484e-09,-0.00069976207967181,0.00069976581140145,-2.1812757460085e-08,2.6460059891509e-08,-0.0007452209118045,0.00074520607270459,-0.00074520489648246,0.00074522212745998,-0.00074521863951133,0.00074520833964955,-0.00074520267628953,0.00074522433011386,-0.00070362208806632,0.00070364852091097,-0.00070362858838594,0.00070364202811076,0.7922145001292,128566,2924,0.0029116087203498,0.0037685997883623,0.0029116087202483,38.072418844916,6.4579350759327e-05,6.4579350759327e-05,6.4579350759327e-05,2708806.2342937,0.0096380746855404
7019200,0.56222073632136,0.0099551157684148,0.0030775878536252,0.0037999400612706,0.003077587853519,-0.00073194485426205,0.00073194448313979,3.3038403787605e-09,-3.6776829094132e-09,5.1885995599517e-09,-5.7369245407168e-09,-0.0007805571032013,0.00078056264406844,-0.00078055948106202,0.00078056038860037,-0.00078056058255664,0.00078055905159021,-0.00078056290893019,0.00078055670672433,-0.00073593190197083,0.00073593474959857,-0.00073593863799638,0.00073592776707451,-4.663066488402e-09,6.2140614713052e-09,2.4329776288153e-08,-2.2985801992115e-08,-0.00095323324967675,0.00095323462326789,-0.00099610244085686,0.00099611572257906,-0.00099611766429972,0.00099609994881867,-0.00099609893780053,0.00099611934269052,-0.00099611419727316,0.0009961035341751,-0.00090053939057974,0.00090059082758458,-0.00090058523837098,0.00090054369200111,-0.00090057710747014,0.00090055219745823,-0.00090056650192456,0.00090056307501683,-1.8467870217569e-09,5.1654194468888e-09,-0.00073194304514498,0.00073194629220526,-2.1354433429393e-08,2.5494677184352e-08,-0.00078056731623964,0.00078055238608002,-0.00078055178489587,0.00078056795718792,-0.00078056496627345,0.00078055473114967,-0.00078054944742802,0.00078057027678278,-0.00073592036390586,0.00073594618862741,-0.00073592721126933,0.00073593934991066,0.73335806509126,128566,2924,0.0030453253615262,0.003963759070038,0.0030453253614234,39.156514398151,7.3252115185209e-05,7.3252115185209e-05,7.3252115185209e-05,2693126.0820277,0.010105250560397
7219200,0.58955808843219,0.010386697896719,0.0032042290067008,0.003978239883427,0.003204229006591,-0.00076377093977473,0.00076377064107628,3.5001217197355e-09,-3.8011118401619e-09,5.1359031255544e-09,-5.6089963336887e-09,-0.00081606350695126,0.00081606916654138,-0.00081606599068023,0.00081606680530474,-0.00081606692735726,0.00081606563352425,-0.00081606936303319,0.00081606318316525,-0.00076763606772096,0.00076763936503007,-0.00076764312605757,0.00076763207063314,-4.5926043206493e-09,6.1044095424787e-09,2.3844985541618e-08,-2.2538662833351e-08,-0.001000003112182,0.0010000044480872,-0.0010460958779852,0.00104610887728,-0.0010461108028761,0.0010460934139527,-0.0010460924354802,0.0010461124349297,-0.0010461073919721,0.0010460969408927,-0.00094331625105472,0.00094336667421707,-0.00094336119206195,0.00094332046471069,-0.000943353246606,0.00094332878086742,-0.00094334281192449,0.00094333948286178,-2.1877050880819e-09,5.1481085914276e-09,-0.00076376934505175,0.00076377223575042,-2.1077868773166e-08,2.4846301984248e-08,-0.00081607385678011,0.00081605877303613,-0.00081605863115976,0.00081607403871944,-0.00081607139807201,0.00081606122653879,-0.00081605618637218,0.00081607646503268,-0.0007676249323785,0.0007676504052204,-0.00076763209388805,0.00076764325497076,0.70718847823663,128566,2924,0.0031775530946256,0.0041578116776428,0.0031775530945284,40.241412226905,8.1931297815244e-05,8.1931297815244e-05,8.1931297815244e-05,2708098.5521006,0.010568518312808
7419200,0.61645430605909,0.010795291841421,0.0033238491329643,0.0041475935756106,0.0033238491328464,-0.00079301396526802,0.00079301360401422,3.6317916557726e-09,-3.9943625235362e-09,5.2401137216798e-09,-5.7791873964097e-09,-0.00084949186423159,0.00084949767056551,-0.00084949446773546,0.00084949519445878,-0.00084949538696855,0.00084949403864085,-0.00084949792237841,0.0008494914896362,-0.00079666005088799,0.00079666348736709,-0.00079666740463007,0.00079665590517922,-4.7399712914836e-09,6.2320315323322e-09,2.434975535907e-08,-2.3063768901103e-08,-0.001043887705183,0.0010438890208044,-0.0010931459233173,0.0010931591592639,-0.0010931611884485,0.0010931433413013,-0.001093142401767,0.0010931627999465,-0.0010931576792622,0.0010931469704731,-0.00098349209791667,0.00098354357733084,-0.00098353800957105,0.00098349636768498,-0.00098352994151521,0.00098350481374944,-0.0009835192098886,0.00098351582024317,-2.2555060969804e-09,5.3991702219952e-09,-0.0007930122458133,0.00079301532341161,-2.1456512571975e-08,2.5422507088526e-08,-0.00084950240411664,0.00084948709099019,-0.00084948687011089,0.00084950266454366,-0.00084949984730811,0.0008494896409133,-0.00084948430977924,0.00084950520609652,-0.00079664856733838,0.00079667487855026,-0.00079665606859452,0.00079666739052005,0.68501443599331,128566,2924,0.0032990365829346,0.004339852395367,0.00329903658282,40.770119069832,8.6160952558656e-05,8.6160952558656e-05,8.6160952558656e-05,2750728.261868,0.01099813298813
7619200,0.64217058879554,0.011175970757196,0.0034350866079824,0.0043057975413492,0.0034350866078645,-0.00081939661472403,0.00081939612912481,3.7308081899663e-09,-4.2163734018088e-09,5.3272225781467e-09,-5.9962359814009e-09,-0.00088049687268252,0.00088050275952059,-0.00088049958394684,0.00088050018504654,-0.00088050049428318,0.00088049903280968,-0.00088050314203139,0.00088049637409679,-0.00082288669569718,0.00082289023613257,-0.00082289437887005,0.00082288232980121,-4.8955068386853e-09,6.3829495340085e-09,2.496164941098e-08,-2.3681329181973e-08,-0.0010845103738666,0.0010845116839434,-0.0011366649306467,0.0011366784643478,-0.0011366805893044,0.0011366622315533,-0.0011366613096467,0.0011366822100615,-0.0011366769832942,0.0011366659630104,-0.001020781628981,0.0010208344187883,-0.0010208287302894,0.0010207859698111,-0.001020820463343,0.0010207946267961,-0.0010208094410682,0.001020805936313,-2.1790435000955e-09,5.7983477328328e-09,-0.00081939459258225,0.00081939815120898,-2.182576864075e-08,2.6294563768333e-08,-0.00088050747811057,0.00088049212051168,-0.00088049153108687,0.00088050810645507,-0.00088050480858664,0.0008804947807431,-0.00088048886689413,0.00088051075125296,-0.00082287467200247,0.00082290216933545,-0.00082288247777151,0.00082289437872498,0.67223240815666,128566,2924,0.0034086280711744,0.0045083270623466,0.0034086280710594,40.851597363715,8.6812778909723e-05,8.6812778909723e-05,8.6812778909723e-05,2801170.9816277,0.011390158053683
7819200,0.66667309954532,0.01153390713719,0.0035395474029735,0.0044548123313611,0.0035395474028553,-0.00084415545326403,0.00084415489071852,3.8536275235321e-09,-4.4154059063674e-09,5.3215131309396e-09,-6.0705915040966e-09,-0.00090994445177575,0.00090995039386855,-0.00090994727341005,0.00090994771344684,-0.00090994809743505,0.00090994664461564,-0.00090995085159959,0.00090994387952356,-0.00084751603831044,0.00084751979292588,-0.00084752403612078,0.00084751157608066,-4.9327620863278e-09,6.4171811805787e-09,2.5123272555739e-08,-2.3846408118601e-08,-0.0011231272976379,0.0011231286044568,-0.0011779121103793,0.0011779257255327,-0.0011779278733191,0.0011779093799538,-0.0011779084669142,0.0011779294958155,-0.0011779242442315,0.0011779131366016,-0.0010562783603939,0.00105633148892,-0.0010563257656175,0.0010562827068316,-0.0010563174448838,0.0010562914237465,-0.00105630635274,0.0010563028108896,-2.1826423967289e-09,6.1165187891658e-09,-0.00084415323387941,0.00084415711004555,-2.1819934526949e-08,2.6618486786828e-08,-0.00090995503452126,0.00090993977981487,-0.00090993898502025,0.00090995586788157,-0.00090995225824386,0.00090994254605436,-0.00090993621262575,0.00090995862076002,-0.00084750375496414,0.00084753198736417,-0.00084751187877144,0.00084752387950947,0.66655083348314,128566,2924,0.0035114670000243,0.0046684532442942,0.0035114669999094,40.921526941794,8.7372215534356e-05,8.7372215534356e-05,8.7372215534356e-05,2817775.5638972,0.011760227358745
8019200,0.68995562865136,0.011870560240192,0.0036377152735309,0.0045951296932483,0.0036377152734129,-0.00086746762109096,0.00086746705005708,4.0102862897677e-09,-4.5806774207591e-09,5.3148912444175e-09,-6.0720506425797e-09,-0.00093735679601731,0.00093736283518016,-0.00093735972491944,0.0009373600479139,-0.0009373604398581,0.00093735908768545,-0.00093736330161842,0.00093735621515791,-0.00087048304741313,0.00087048711190189,-0.00087049136200871,0.00087047857842192,-4.9318736401163e-09,6.4116670113269e-09,2.5146983116751e-08,-2.3874964569162e-08,-0.0011596083687473,0.0011596096708371,-0.0012170835631165,0.0012170971932126,-0.001217099346169,0.0012170808312801,-0.0012170799192376,0.0012171009627102,-0.0012170957191632,0.0012170845848106,-0.0010895152779705,0.0010895684510127,-0.0010895627373629,0.001089519621037,-0.0010895543953711,0.0010895283570369,-0.0010895433087012,0.0010895397372891,-2.3179656720523e-09,6.3027769985291e-09,-0.000867465372346,0.00086746929874459,-2.1823456621939e-08,2.6670839570524e-08,-0.0009373674651139,0.00093735213483322,-0.00093735139720458,0.00093736824145749,-0.00093736458141671,0.00093735500855973,-0.0009373485177553,0.00093737110126815,-0.0008704707276245,0.00087049934307488,-0.00087047916459617,0.00087049092161188,0.66097249012637,128566,2924,0.0036082897642196,0.0048196982870721,0.003608289764105,40.990996377368,8.7927971018945e-05,8.7927971018945e-05,8.7927971018945e-05,2821007.7283744,0.012109266100271
8219200,0.71216264294917,0.012188827197896,0.0037305153621705,0.004727796473672,0.0037305153620531,-0.00088979999026117,0.0008897994402781,4.1815552499604e-09,-4.7312532537494e-09,5.2884647259262e-09,-6.0227995160796e-09,-0.00096358888004539,0.00096359502266529,-0.00096359191529061,0.00096359212724953,-0.00096359249938686,0.00096359129947079,-0.00096359546839789,0.00096358831961416,-0.00089238574815693,0.00089239017356693,-0.00089239437753115,0.00089238132381638,-4.8973440752649e-09,6.3692225419175e-09,2.4995518450716e-08,-2.3731151425261e-08,-0.0011943946286187,0.001194395923118,-0.0012546710772506,0.0012546846285673,-0.0012546867687047,0.0012546683671493,-0.0012546674561818,0.0012546883728653,-0.0012546831661676,0.0012546720940338,-0.001120920550349,0.0011209734002415,-0.0011209677294952,0.0011209248706775,-0.0011209594311258,0.0011209335576321,-0.0011209484180808,0.0011209448596482,-2.5176725110187e-09,6.4246411274058e-09,-0.00088979779178119,0.00088980163870079,-2.1722444056186e-08,2.6482826540751e-08,-0.00096359964553742,0.00096358422506738,-0.00096358367292977,0.00096360023673171,-0.0009635966548439,0.00096358720626491,-0.00096358068627987,0.00096360320372158,-0.00089237353750056,0.00089240229522534,-0.00089238228864909,0.00089239355899947,0.6554913944977,128566,2924,0.0037010358212832,0.0049638952818696,0.0037010358211689,41.18124221914,8.9449937753117e-05,8.9449937753117e-05,8.9449937753117e-05,2820637.6998926,0.012443035196721
8419200,0.73334628121931,0.01249183338892,0.0038189479004564,0.0048539375881249,0.0038189479003391,-0.00091117796685099,0.00091117743644753,4.3520600179509e-09,-4.8824875980793e-09,5.2627872106618e-09,-5.97610568275e-09,-0.0009887075642642,0.00098871380993855,-0.00098871070580332,0.00098871080606995,-0.00098871116004658,0.00098871010993092,-0.00098871423591666,0.00098870702273319,-0.00091334926911024,0.00091335405208783,-0.00091335821280242,0.00091334488733109,-4.8655282907447e-09,6.3279116011148e-09,2.4832255348939e-08,-2.3576960274871e-08,-0.0012275368863047,0.0012275381717829,-0.0012906980056578,0.0012907114684555,-0.0012907135979424,0.0012906953144619,-0.0012906944068771,0.0012907151884083,-0.0012907100184885,0.0012906990164019,-0.0011506370235265,0.0011506895270952,-0.0011506838980383,0.0011506413192738,-0.0011506756539314,0.00115064994739,-0.0011506647106435,0.0011506611759951,-2.7175780758901e-09,6.5463243938725e-09,-0.00091117581795017,0.00091117958529151,-2.1609289133197e-08,2.6283472624861e-08,-0.00098871842200412,0.00098870291898396,-0.00098870255229204,0.00098871882800377,-0.00098871532445289,0.00098870600746757,-0.00098869945834825,0.00098872190239054,-0.00091333716945629,0.00091336606244407,-0.00091334623580947,0.00091335701093062,0.65380934985576,128566,2924,0.0037898115659563,0.0051012565912525,0.0037898115658429,41.430471671449,9.1443773371588e-05,9.1443773371588e-05,9.1443773371588e-05,2814368.6011302,0.012761949225716
8619200,0.75349177532867,0.012779762472338,0.0039030706984194,0.0049736210756175,0.0039030706983015,-0.00093147581355594,0.00093147529400445,4.5183111352037e-09,-5.0380265805817e-09,5.2424649893391e-09,-5.9441326854443e-09,-0.0010123841434266,0.0010123904895613,-0.00101238739118,0.0010123873778513,-0.0010123877216136,0.0010123868068981,-0.0010123909046329,0.0010123836118844,-0.00093324326365883,0.00093324839005439,-0.00093325252294074,0.00093323890977271,-4.8438452349119e-09,6.2966165695095e-09,2.4712433188365e-08,-2.3466365871395e-08,-0.0012589047918866,0.0012589060682021,-0.0013249415203993,0.0013249549161596,-0.0013249570403412,0.0013249388401459,-0.00132493793753,0.0013249586188238,-0.001324953477945,0.0013249425238192,-0.0011786947298574,0.0011787469801308,-0.0011787413824103,0.001178699003497,-0.0011787331773019,0.00117870759032,-0.0011787222856742,0.0011787187652915,-2.8979334679343e-09,6.6874136778204e-09,-0.00093147369003411,0.00093147741746977,-2.15178155343e-08,2.6148428936253e-08,-0.0010123950862646,0.0010123795126611,-0.0010123792907038,0.0010123953475935,-0.0010123918814744,0.0010123827086879,-0.001012376089905,0.0010123985289984,-0.00093323123529969,0.00093326032907167,-0.00093324061597742,0.00093325096336578,0.65260875346928,128566,2924,0.0038740954271525,0.0052312450147601,0.0038740954270397,41.681242138494,9.3449937107951e-05,9.3449937107951e-05,9.3449937107951e-05,2809092.6592959,0.013064392666138
8819200,0.77259077383808,0.013042381780306,0.0039795629205144,0.0050832559393952,0.0039795629203961,-0.0009501917450146,0.0009501912315671,4.6821900009253e-09,-5.195827439752e-09,5.226360844681e-09,-5.9213985445744e-09,-0.0010344971726189,0.0010345036194625,-0.0010345005275275,0.0010345004003402,-0.001034500738534,0.0010344999494426,-0.0010345040287065,0.0010344966472475,-0.00095135775088115,0.00095136321110973,-0.00095136732530421,0.00095135341606486,-4.8286859014308e-09,6.27244935986e-09,2.4618446118723e-08,-2.3381125389786e-08,-0.0012880501924353,0.0012880514600725,-0.001356935687019,0.0013569490285777,-0.0013569511505811,0.0013569330128852,-0.0013569321160544,0.0013569527183555,-0.0013569476007324,0.0013569366831825,-0.0012046174914128,0.0012046695434842,-0.0012046639703099,0.0012046217461783,-0.0012046557972397,0.0012046302995281,-0.0012046449436821,0.001204641435115,-3.0684664821354e-09,6.838295914411e-09,-0.00095018963453426,0.00095019334199025,-2.1440687246869e-08,2.6049061922615e-08,-0.0010345081999861,0.0010344925581065,-0.0010344924628699,0.0010345083347004,-0.001034504888102,0.0010344958612471,-0.0010344891548248,0.0010345116232993,-0.0009513457710107,0.0009513751016754,-0.00095135546651723,0.00095136542137458,0.62941992700847,128566,2924,0.0039518052754458,0.0053520056099483,0.0039518052753316,41.932074181462,9.5456593451699e-05,9.5456593451699e-05,9.5456593451699e-05,2831342.7517905,0.013344254152326
9019200,0.79024441814838,0.013285221382559,0.0040504019889431,0.0051844174047912,0.004050401988825,-0.00096666185850243,0.00096666133115576,4.8356071637631e-09,-5.3629908711252e-09,5.2400748970515e-09,-5.9496267191936e-09,-0.0010540196368256,0.0010540261919101,-0.0010540231007345,0.0010540228658303,-0.001054023218521,0.0010540225073585,-0.0010540266144823,0.0010540190993846,-0.00096727264171036,0.00096727838519532,-0.00096728252808602,0.00096726828030948,-4.8527995831274e-09,6.2910059833797e-09,2.4900240959672e-08,-2.3668538912971e-08,-0.0013140879369254,0.0013140891990381,-0.0013857802222653,0.0013857937333268,-0.0013857958720263,0.0013857775255511,-0.0013857766383604,0.0013857974363914,-0.0013857923070707,0.0013857812114037,-0.0012275865464864,0.0012276391622927,-0.0012276335736684,0.0012275908028726,-0.0012276252492382,0.0012275995121605,-0.0012276143509275,0.0012276106937006,-3.1596745796142e-09,7.0694683848297e-09,-0.00096665967053418,0.00096666351906629,-2.1649954321463e-08,2.6406320053271e-08,-0.0010540307962756,0.0010540149997142,-0.0010540148723223,0.0010540309630962,-0.0010540273778939,0.0010540184090825,-0.0010540114557006,0.0010540343602345,-0.00096726048092151,0.00096729045741531,-0.00096727049535886,0.00096728045877317,0.62977530096268,128566,2924,0.0040201873276391,0.0054598765266787,0.0040201873275239,41.7502718628,9.4002174902401e-05,9.4002174902401e-05,9.4002174902401e-05,2834928.7116907,0.013592216509498
9219200,0.80644653188057,0.013505604806332,0.0041146975755679,0.0052762096553134,0.0041146975754505,-0.00098136126146031,0.00098136072165583,4.9900186317311e-09,-5.5296724540435e-09,5.2504800645852e-09,-5.9729499853897e-09,-0.0010715345872105,0.0010715412483324,-0.0010715381591812,0.0010715378161328,-0.0010715381807747,0.0010715375529133,-0.001071541683839,0.0010715340381384,-0.00098142703443661,0.00098143306914177,-0.00098143723661983,0.00098142265080036,-4.8719414455331e-09,6.3060424079684e-09,2.5135900761839e-08,-2.3908404992168e-08,-0.0013375199499202,0.0013375212079078,-0.0014118446523478,0.0014118583051801,-0.0014118604566063,0.0014118419375286,-0.0014118410573627,0.001411862019733,-0.0014118568803874,0.0014118456350903,-0.0012482076833338,0.0012482607728954,-0.0012482551715064,0.0012482119412382,-0.0012482467169198,0.0012482207841877,-0.0012482357854535,0.0012482319999981,-3.2612567662415e-09,7.2895879210808e-09,-0.00098135900732004,0.00098136297573783,-2.1824425305935e-08,2.6705835152049e-08,-0.0010715458732258,0.0010715299307483,-0.0010715297920863,0.0010715460512731,-0.0010715423475122,0.0010715334471748,-0.0010715262680939,0.0010715495557062,-0.00098141472464137,0.00098144529122732,-0.00098142505409252,0.00098143497813283,0.62300580225959,128566,2924,0.0040812148162766,0.005556940897638,0.0040812148161604,41.452615903939,9.1620927231513e-05,9.1620927231513e-05,9.1620927231513e-05,2838536.2676784,0.013814369884887
9419200,0.82130638721343,0.013705427500059,0.0041729967296393,0.0053594340408967,0.004172996729523,-0.00099460432831757,0.00099460378166288,5.1476980796329e-09,-5.6940891131458e-09,5.247017989669e-09,-5.9764954829596e-09,-0.0010874058448646,0.0010874126063409,-0.0010874095244186,0.0010874090677396,-0.0010874094385394,0.0010874089114764,-0.0010874130492395,0.0010874052890436,-0.00099417455774005,0.00099418090201181,-0.00099418507701972,0.00099417016814902,-4.8737532397722e-09,6.3034508483152e-09,2.5230290997694e-08,-2.4007179175744e-08,-0.0013587393883181,0.0013587406420001,-0.0014355097505251,0.0014355234630849,-0.001435525617269,0.0014355070303362,-0.0014355061555899,0.0014355271777039,-0.0014355220413824,0.0014355107276459,-0.0012668667921746,0.0012669200679185,-0.0012669144682138,0.0012668710426162,-0.0012669059502247,0.0012668799507893,-0.0012668950209093,0.001266891164939,-3.3840042698711e-09,7.4873974976809e-09,-0.00099460203278108,0.00099460607714075,-2.1881797061179e-08,2.6841627236859e-08,-0.0010874172296167,0.0010874011906674,-0.0010874010841078,0.0010874173756048,-0.0010874135966136,0.0010874048142865,-0.0010873974534898,0.001087420986587,-0.00099416217705266,0.00099419319553138,-0.00099417281966281,0.00099418256975091,0.6162082400332,128566,2924,0.0041361932957732,0.0056448305888567,0.0041361932956562,41.151859839156,8.9214878713252e-05,8.9214878713252e-05,8.9214878713252e-05,2844480.612403,0.014014999587032
9619200,0.83493038704995,0.013886465600592,0.004225810463639,0.0054348446734292,0.0042258104635235,-0.0010065365292729,0.0010065359796219,5.3069092451058e-09,-5.8562465969159e-09,5.234760913493e-09,-5.9672083632335e-09,-0.0011017563472161,0.0011017632058366,-0.0011017601341611,0.0011017595603944,-0.0011017599341235,0.0011017595182543,-0.0011017636518407,0.0011017557885721,-0.0010056495244869,0.0010056561875055,-0.0010056603586389,0.0010056451393657,-4.8653429241134e-09,6.2901715569296e-09,2.5238073842874e-08,-2.4019716173394e-08,-0.0013779406603924,0.0013779419093683,-0.0014569899910673,0.0014570037131832,-0.0014570058644463,0.0014569872728814,-0.0014569864033216,0.0014570074204864,-0.0014570022953818,0.0014569909632475,-0.0012837184269074,0.0012837717107385,-0.0012837661216908,0.0012837226641601,-0.0012837575832071,0.0012837315935576,-0.0012837466754598,0.001283742786233,-3.52028625455e-09,7.6722682212581e-09,-0.0010065342077132,0.001006538301123,-2.1867079083038e-08,2.6877030492946e-08,-0.0011017678133811,0.0011017517090867,-0.0011017516610317,0.0011017679008912,-0.0011017640732836,0.0011017554397641,-0.0011017479233492,0.0011017716189251,-0.0010056371183303,0.0010056685066468,-0.0010056480756004,0.0010056575664754,0.60938040499582,128566,2924,0.0041857276660784,0.0057243533841877,0.0041857276659614,40.850979389535,8.6807835116283e-05,8.6807835116283e-05,8.6807835116283e-05,2851607.1266841,0.014196139028161
9819200,0.84718470043864,0.014050182816795,0.0042736575400385,0.0055028677368327,0.0042736575399241,-0.0010165082359424,0.0010165076782499,5.4828867810651e-09,-6.0401448764103e-09,5.2409476945591e-09,-5.9816318811343e-09,-0.001113858059656,0.0011138650251161,-0.001113861955488,0.0011138612721781,-0.0011138616425085,0.0011138613422043,-0.0011138654905202,0.0011138574823827,-0.0010152658940687,0.0010152729242147,-0.0010152771112577,0.0010152614962515,-4.8658830477306e-09,6.2862149507424e-09,2.5408129192447e-08,-2.4194248530197e-08,-0.0013943968535417,0.0013943980986109,-0.0014755098884121,0.0014755237106919,-0.0014755258632367,0.0014755071657499,-0.0014755062908092,0.0014755274285044,-0.0014755223055143,0.0014755108439835,-0.0012980995708212,0.0012981532237988,-0.0012981476341808,0.0012981037999956,-0.001298138949286,0.0012981128799018,-0.0012981280783744,0.0012981240339854,-3.6118908351261e-09,7.8630623456948e-09,-0.0010165058602315,0.0010165100539018,-2.1994096832792e-08,2.7108030426309e-08,-0.0011138696422443,0.0011138534127164,-0.0011138533601765,0.0011138697342702,-0.0011138657961454,0.001113857249231,-0.0011138495385182,0.0011138735361095,-0.0010152534392062,0.0010152852935783,-0.0010152646440294,0.0010152741060913,0.61213711022317,128566,2924,0.0042271231900825,0.0057925008917965,0.0042271231899645,40.185202646731,8.1481621173852e-05,8.1481621173852e-05,8.1481621173852e-05,2851768.9526595,0.014349257624687
10019200,0.858198368308,0.014198370885385,0.0043170484543158,0.0055642739768671,0.0043170484542018,-0.0010252764397251,0.0010252758802742,5.6306369519907e-09,-6.1895397073125e-09,5.231102296695e-09,-5.9734222528152e-09,-0.001124511425041,0.0011245184887053,-0.0011245154267542,0.0011245146309823,-0.0011245150075057,0.0011245148064037,-0.001124518951199,0.001124510851546,-0.0010237931401261,0.0010238004505099,-0.0010238046341961,0.0010237887466922,-4.8655917763935e-09,6.2827740436245e-09,2.5455493091865e-08,-2.424475410311e-08,-0.001408960293264,0.0014089615348572,-0.0014918942109468,0.0014919080694387,-0.0014919102229744,0.0014918914851793,-0.0014918906203349,0.0014919117793788,-0.0014919066611076,0.0014918951682761,-0.0013108757925045,0.0013109295203032,-0.0013109239326177,0.0013108800126163,-0.0013109152309696,0.0013108891134919,-0.0013109043478419,0.0013109002777897,-3.7600433324925e-09,8.0599179271943e-09,-0.0010252740382343,0.0010252782817056,-2.2013200395603e-08,2.7178288265256e-08,-0.0011245231021317,0.0011245067823476,-0.0011245067951308,0.0011245231288996,-0.0011245191473523,0.0011245107276395,-0.0011245028546639,0.0011245270493409,-0.0010237806105083,0.0010238128947551,-0.0010237921681272,0.0010238013553035,0.61574676839076,128566,2924,0.0042635219514786,0.0058528054267824,0.00426352195136,39.481113525841,7.5848908206731e-05,7.5848908206731e-05,7.5848908206731e-05,2847906.2465019,0.014484301571661
10219200,0.86811062820006,0.014332865408379,0.0043565025254924,0.0056198603575072,0.0043565025253796,-0.0010330509364495,0.001033050377943,5.7896907472068e-09,-6.3475957081337e-09,5.2167252316471e-09,-5.9578675567064e-09,-0.0011339680573935,0.0011339752199993,-0.0011339721671156,0.001133971254759,-0.0011339716321632,0.0011339715457266,-0.0011339756799639,0.0011339674869897,-0.0010313990460287,0.0010314066720942,-0.001031410845918,0.0010313946642929,-4.8537997197503e-09,6.2665863335008e-09,2.5400529825897e-08,-2.4194039878866e-08,-0.0014219313766269,0.0014219326139504,-0.0015064619803632,0.0015064758113628,-0.0015064779600623,0.0015064592599288,-0.0015064584009171,0.0015064795096994,-0.001506474405202,0.0015064629357696,-0.0013222858368802,0.0013223394406746,-0.0013223338668246,0.0013222900433854,-0.0013223251873771,0.0013222991219704,-0.0013223143256975,0.0013223102648958,-3.9126033865604e-09,8.2322941652461e-09,-0.0010330485253418,0.0010330527889925,-2.1950032449164e-08,2.7135088023593e-08,-0.0011339798095954,0.0011339634388695,-0.0011339635397686,0.0011339797483009,-0.0011339757485226,0.0011339674903886,-0.001133959489266,0.0011339837787668,-0.0010313865204492,0.0010314191131823,-0.0010313984018501,0.0010314072500133,0.62007022691448,128566,2924,0.0042957951236168,0.0059065123557805,0.004295795123501,38.775920152387,7.0207361219096e-05,7.0207361219096e-05,7.0207361219096e-05,2841886.4250793,0.014604295271625
10419200,0.8770593051599,0.014455448647404,0.0043925258885538,0.0056703968704094,0.0043925258884412,-0.0010400388101143,0.0010400382562501,5.9527673759656e-09,-6.5060613728987e-09,5.1962998216772e-09,-5.9324588661597e-09,-0.0011424495770883,0.0011424568361801,-0.0011424537935815,0.0011424527638392,-0.0011424531365801,0.0011424531772213,-0.0011424572917855,0.0011424490110727,-0.00103825233244,0.0010382602937113,-0.0010382644480606,0.0010382479707262,-4.8334398806706e-09,6.2408870443612e-09,2.5240647091028e-08,-2.4039263840109e-08,-0.0014335864232109,0.0014335876554543,-0.001519548299686,0.0015195620373977,-0.0015195641774139,0.001519545590831,-0.0015195447351462,0.00151956572018,-0.0015195606373814,0.0015195492514934,-0.0013325607163939,0.0013326139913219,-0.0013326084403771,0.0013325649050041,-0.0013325998316919,0.0013325739113205,-0.0013325890156509,0.0013325850079953,-4.0835236690392e-09,8.3818138319393e-09,-0.0010400364121142,0.0010400406541958,-2.1805700020303e-08,2.696677187241e-08,-0.001142461389645,0.0011424449945501,-0.0011424452233691,0.0011424612004965,-0.0011424572215432,0.0011424491531802,-0.0011424410662855,0.0011424653375694,-0.0010382398804071,0.0010382726615108,-0.0010382520749386,0.0010382604852171,0.62506142493177,128566,2924,0.0043248026152539,0.0059547671779091,0.0043248026151457,38.10082663161,6.4806613052882e-05,6.4806613052882e-05,6.4806613052882e-05,2832975.5830322,0.014712141071155
10619200,0.88541282534442,0.014567725922588,0.004425476731917,0.0057167724588668,0.0044254767318044,-0.0010475258423438,0.0010475253071934,6.1205257936493e-09,-6.6552396268138e-09,5.1433965478727e-09,-5.8595499858877e-09,-0.0011513605191906,0.0011513678614579,-0.0011513648406177,0.0011513636814118,-0.0011513640372942,0.0011513642429716,-0.0011513682974612,0.0011513599715935,-0.0010455789705427,0.0010455873002888,-0.0010455913938706,0.0010455746681531,-4.7756196009228e-09,6.1740350774076e-09,2.4656055538428e-08,-2.3463061747746e-08,-0.0014454291972901,0.0014454304211173,-0.0015327348462554,0.0015327482350287,-0.0015327503480885,0.0015327321759794,-0.001532731322928,0.0015327518750186,-0.0015327468475609,0.0015327357958778,-0.0013430890629248,0.0013431411466001,-0.0013431356571221,0.0013430932133798,-0.0013431273419442,0.0013431019185086,-0.0013431166453194,0.0013431128929754,-4.3299429701795e-09,8.4603919786174e-09,-0.001047523538422,0.0010475276110585,-2.1316659982317e-08,2.6297418660464e-08,-0.0011513723176522,0.0011513560326243,-0.0011513565364299,0.0011513718535767,-0.0011513680419925,0.0011513602990216,-0.0011513522704751,0.0011513760995558,-0.001045566817845,0.0010455993680839,-0.001045579332412,0.0010455868715875,0.61395112226757,128566,2924,0.0043558795635581,0.0060037974958675,0.0043558795634448,38.029646833071,6.4237174664567e-05,6.4237174664567e-05,6.4237174664567e-05,2829428.8378573,0.014824985657279
10819200,0.89321337615727,0.014670747487958,0.0044556749060536,0.0057593976759634,0.004455674905941,-0.0010544405691586,0.0010544400482094,6.2894318442001e-09,-6.8101159408496e-09,5.1106240048565e-09,-5.8116512549258e-09,-0.0011596135948014,0.0011596210319043,-0.0011596180224247,0.0011596167430738,-0.0011596170856261,0.0011596174400364,-0.0011596214536446,0.0011596130601596,-0.0010523001888283,0.0010523088770208,-0.0010523129290787,0.0010522959259939,-4.7387240964669e-09,6.1291242542848e-09,2.4256298552318e-08,-2.3070850490707e-08,-0.001456390762821,0.0014563919791086,-0.0015449738852065,0.0015449870327283,-0.001544989131264,0.0015449712392761,-0.0015449703880638,0.0015449906452436,-0.0015449856571363,0.0015449748317809,-0.0013528074545332,0.0013528587270457,-0.0013528532823723,0.0013528115804391,-0.0013528451665598,0.001352820079525,-0.0013528345504146,0.0013528309711968,-4.5562269673496e-09,8.5521923288296e-09,-0.0010544383404941,0.0010544422768174,-2.0996760727961e-08,2.583268430941e-08,-0.0011596254300525,0.0011596091650447,-0.0011596099087657,0.0011596247261049,-0.0011596210480207,0.0011596135380184,-0.0011596055370709,0.0011596290779245,-0.0010522882562921,0.0010523207237448,-0.0010523010812952,0.0010523079165502,0.60386753611881,128566,2924,0.0043845800580732,0.0060491770879466,0.0043845800579601,37.973759621568,6.3790076972541e-05,6.3790076972541e-05,6.3790076972541e-05,2831703.7888858,0.014929313152583
11019200,0.90049431194756,0.014765080965969,0.0044832906748524,0.0057984996163764,0.0044832906747399,-0.0010607812030245,0.0010607806900762,6.4536997286864e-09,-6.9665026623083e-09,5.0971200633504e-09,-5.789660273147e-09,-0.0011672124246338,0.0011672199648702,-0.001167216958249,0.0011672155681642,-0.0011672159036544,0.0011672163843627,-0.001167220378233,0.0011672118973789,-0.001058428429678,0.0010584374510387,-0.0010584414828677,0.0010584241855517,-4.7241272252149e-09,6.1083109690575e-09,2.4033008503734e-08,-2.285352990629e-08,-0.0014664951788776,0.0014664963892129,-0.0015562877627516,0.0015563007715933,-0.0015563028679059,0.0015562851259538,-0.0015562842770651,0.0015563043718213,-0.0015562994047111,0.0015562887069711,-0.0013617393297295,0.0013617901517638,-0.0013617847320795,0.0013617434452355,-0.0013617767340567,0.0013617518216122,-0.0013617661519313,0.00136176267788,-4.7628229537082e-09,8.6667402219802e-09,-0.0010607790250218,0.0010607828680223,-2.0827542235999e-08,2.5564307238966e-08,-0.0011672243377944,0.0011672080192151,-0.0011672089615072,0.0011672234352965,-0.00116721984881,0.0011672124992565,-0.0011672044827385,0.0011672278942636,-0.0010584166241,0.001058449170038,-0.0010584297637583,0.0010584360480747,0.59320719533981,128566,2924,0.0044108969212632,0.006091006015492,0.00441089692115,37.918478118579,6.3347824948631e-05,6.3347824948631e-05,6.3347824948631e-05,2837696.3878715,0.015025207864181
11219200,0.9072782052125,0.014852910587294,0.0045090220632159,0.0058348664609743,0.0045090220631035,-0.0010666075226039,0.0010666070089422,6.613884896463e-09,-7.1273955239695e-09,5.1057014385905e-09,-5.7989724974884e-09,-0.0011741862791814,0.0011741939317751,-0.00117419091952,0.0011741894277044,-0.0011741897642235,0.0011741903452006,-0.0011741943456094,0.0011741857510327,-0.001064065751027,0.0010640750800734,-0.0010640791183196,0.001064061499889,-4.7347881605306e-09,6.115385546934e-09,2.4042235834551e-08,-2.2866365150005e-08,-0.0014758042968191,0.0014758055035826,-0.0015667250659069,0.0015667380734157,-0.0015667401803625,0.001566722420709,-0.001566721574363,0.0015667416792472,-0.0015667367108801,0.0015667260080116,-0.0013699793824897,0.0013700302281603,-0.001370024808522,0.0013699835026913,-0.0013700168144361,0.001369991873419,-0.0013700062146311,0.0013700027471671,-4.9336434807161e-09,8.8165817203159e-09,-0.0010666053549746,0.0010666091765147,-2.0850700254655e-08,2.5564608484804e-08,-0.0011741983162688,0.0011741818619103,-0.0011741829319455,0.0011741972860291,-0.0011741937204018,0.0011741864488286,-0.0011741783462661,0.0011742018519414,-0.0010640539485009,0.001064086795612,-0.0010640674021988,0.0010640733597878,0.59263236056072,128566,2924,0.0044350784405167,0.0061295410424411,0.0044350784404029,37.837718419669,6.2701747357353e-05,6.2701747357353e-05,6.2701747357353e-05,2842856.1052496,0.015113431327082
11419200,0.91355530209143,0.014934756300363,0.0045330370842029,0.0058686821320691,0.0045330370840907,-0.0010717618704955,0.0010717613484053,6.7742680964233e-09,-7.2960939202229e-09,5.1308187694001e-09,-5.8330014085756e-09,-0.0011803823779047,0.001180390151295,-0.0011803871281797,0.0011803855382194,-0.0011803858827188,0.001180386545366,-0.0011803905737798,0.0011803818415991,-0.0010690673684099,0.0010690769918834,-0.0010690810586957,0.0010690630901445,-4.7633952360747e-09,6.142802369663e-09,2.4262379490373e-08,-2.3087930450279e-08,-0.0014841606122787,0.0014841618176998,-0.0015761181978115,0.0015761313317801,-0.0015761334574247,0.0015761155313879,-0.0015761146878934,0.0015761349563325,-0.0015761299693414,0.0015761191376706,-0.0013773751471096,0.0013774264436127,-0.0013774210035338,0.0013773792815421,-0.0013774129037947,0.0013773877600674,-0.0013774022492731,0.0013773986890115,-5.0627699532686e-09,8.9999984948838e-09,-0.001071759671248,0.0010717635475959,-2.1045877179075e-08,2.5817659340851e-08,-0.001180394575215,0.0011803779217279,-0.001180379041823,0.0011803934949101,-0.0011803898748562,0.0011803826129798,-0.0011803743518636,0.0011803981650354,-0.001069055458983,0.0010690888148811,-0.0010690692188325,0.0010690750732712,0.59626237891607,128566,2924,0.004456471134337,0.0061641301359993,0.0044564711342231,37.630859077769,6.1046872622151e-05,6.1046872622151e-05,6.1046872622151e-05,2844314.3739806,0.015191992693441
11619200,0.91936368357683,0.015010870033095,0.0045553976859539,0.0059000746612992,0.0045553976858419,-0.001076507794225,0.0010765072641811,6.9269814596919e-09,-7.4566279977572e-09,5.1494620873025e-09,-5.860030074339e-09,-0.0011860839347735,0.0011860918203326,-0.0011860887904014,0.0011860871030556,-0.0011860874551481,0.0011860881992519,-0.0011860922508868,0.001186083391112,-0.0010736931671488,0.0010737030741721,-0.0010737071646867,0.0010736888665864,-4.787933207633e-09,6.1667141698798e-09,2.4484508853944e-08,-2.3310899592607e-08,-0.0014918545383549,0.0014918557429511,-0.0015847650910101,0.0015847783555348,-0.0015847804962085,0.0015847624058577,-0.0015847615654984,0.0015847819959759,-0.0015847769919765,0.0015847660288008,-0.0013841940567407,0.0013842458048169,-0.0013842403452972,0.0013841982021233,-0.001384232134675,0.001384206794226,-0.0013842214324677,0.0013842177719934,-5.1942245380058e-09,9.1968666993239e-09,-0.0010765055578487,0.0010765095005002,-2.1229459791929e-08,2.6071228917681e-08,-0.001186096282975,0.0011860794404938,-0.0011860806043114,0.0011860951589469,-0.0011860914734689,0.0011860842407706,-0.0011860758049757,0.0011860999383721,-0.0010736811339814,0.0010737150213742,-0.0010736952157442,0.0010737009583973,0.59873358833387,128566,2924,0.0044761686836446,0.0061959760105009,0.0044761686835305,37.420800432807,5.9366403462453e-05,5.9366403462453e-05,5.9366403462453e-05,2842904.0662929,0.015264331835283
11819200,0.92473970965288,0.015081803079195,0.0045762640747191,0.0059292749298685,0.0045762640746073,-0.0010808911193288,0.0010808905829684,7.0843495148455e-09,-7.6201934415435e-09,5.1616792751108e-09,-5.8788607433691e-09,-0.0011913420497965,0.0011913500464802,-0.0011913470131116,0.0011913452228704,-0.0011913455808083,0.0011913464152904,-0.0011913504836653,0.0011913415003626,-0.0010779833237948,0.0010779935285891,-0.0010779976365047,0.001077979007737,-4.8038476637514e-09,6.1818148732696e-09,2.466583739207e-08,-2.3493187866414e-08,-0.0014989500340918,0.0014989512377624,-0.0015927377041912,0.0015927510778479,-0.001592753228013,0.0015927350061051,-0.0015927341686408,0.0015927547285176,-0.0015927497134583,0.0015927386397363,-0.0013904889129729,0.0013905410271264,-0.0013905355543268,0.0013904930637508,-0.0013905272473522,0.0013905017548053,-0.0013905165148822,0.0013905127636477,-5.3234745726678e-09,9.3882044163831e-09,-0.0010808888482732,0.0010808928539676,-2.1377518775946e-08,2.6285651783183e-08,-0.0011913545364657,0.0011913375289123,-0.0011913387373802,0.0011913533677841,-0.0011913496200476,0.0011913424359477,-0.0011913338311253,0.0011913582540746,-0.0010779711919823,0.0010780055752624,-0.0010779855878444,0.0010779911985349,0.60218091953111,128566,2924,0.0044943612545181,0.0062253437981221,0.0044943612544055,37.210615065617,5.7684920524933e-05,5.7684920524933e-05,5.7684920524933e-05,2839511.3971354,0.015331102786587
12019200,0.92972436538328,0.015149667539751,0.004596301848869,0.0059570638421248,0.0045963018487573,-0.0010850798463973,0.0010850793091456,7.2443739979868e-09,-7.7810557944066e-09,5.1589191502487e-09,-5.8769965074379e-09,-0.0011963070602703,0.0011963151616087,-0.0011963121309532,0.0011963102313693,-0.0011963105900026,0.0011963115319936,-0.0011963155999109,0.0011963065103047,-0.0010821348216954,0.0010821453412429,-0.0010821494490085,0.0010821305069085,-4.8025349686768e-09,6.1784495791947e-09,2.4728829349532e-08,-2.3558208902713e-08,-0.0015056317952799,0.0015056329969462,-0.0016002132011804,0.0016002266169489,-0.0016002287669287,0.0016002105019115,-0.0016002096672182,0.0016002302659035,-0.0016002252536632,0.0016002141342626,-0.0013964630871552,0.0013965153231942,-0.0013965098521054,0.0013964672325198,-0.0013965015013624,0.0013964759687514,-0.0013964907733852,0.0013964869732378,-5.4688314752796e-09,9.5634672253992e-09,-0.0010850775596503,0.0010850815958364,-2.1425573334618e-08,2.6365526645135e-08,-0.0011963196590972,0.0011963025322982,-0.0011963038175327,0.0011963184136687,-0.0011963146358164,0.0011963075461462,-0.0011962988043265,0.0011963234068686,-0.0010821226544525,0.0010821574238011,-0.0010821373645221,0.0010821427330964,0.61929849960034,128566,2924,0.004511746021707,0.0062529984898476,0.0045117460215948,37.028214638378,5.6225717107022e-05,5.6225717107022e-05,5.6225717107022e-05,2831121.3377128,0.015394496413164
12219200,0.93436405583629,0.015214957301972,0.0046156471400515,0.0059836630219804,0.0046156471399398,-0.001089196805601,0.0010891962726876,7.4057448055999e-09,-7.9381122044484e-09,5.1436127885571e-09,-5.8570391817087e-09,-0.0012011326389089,0.0012011408390382,-0.0012011378156665,0.0012011358025979,-0.0012011361570192,0.0012011372210893,-0.0012011412731562,0.001201132093232,-0.0010862722445466,0.0010862830919352,-0.0010862871839232,0.0010862679458896,-4.7868371475874e-09,6.159508768294e-09,2.4663876838493e-08,-2.3496407425882e-08,-0.0015120732917992,0.0015120744903293,-0.001607362435003,0.0016073758174152,-0.001607377959735,0.0016073597446548,-0.0016073589122659,0.001607379454686,-0.0016073744576065,0.0016073633655473,-0.0014022773430163,0.001402329439802,-0.0014023239844045,0.0014022814747911,-0.0014023156518672,0.0014022901923304,-0.0014023049578252,0.0014023011623493,-5.6357564546688e-09,9.7196016157027e-09,-0.0010891945264205,0.0010891985518118,-2.1366864981353e-08,2.6294941983424e-08,-0.0012011453248123,0.0012011281226292,-0.0012011295260833,0.0012011439611946,-0.0012011401938665,0.0012011332441888,-0.0012011244052506,0.0012011490620229,-0.0010862601100129,0.0010862951419212,-0.0010862751363411,0.0010862801350063,0.63789980669405,128566,2924,0.0045288330702022,0.0062796578433769,0.00452883307009,36.914458704051,5.5315669632407e-05,5.5315669632407e-05,5.5315669632407e-05,2816743.1906603,0.015456277422774
12419200,0.93868315796615,0.015273740973764,0.0046330094202199,0.0060077221334359,0.0046330094201083,-0.0010929309405294,0.0010929304126028,7.5691971195399e-09,-8.0966181588672e-09,5.1285880331523e-09,-5.836670810125e-09,-0.0012055806063473,0.0012055889070503,-0.0012055858902737,0.0012055837630931,-0.0012055841128522,0.001205585300683,-0.0012055893361974,0.0012055800656119,-0.0010899863342866,0.0010899975133228,-0.0010900015886961,0.0010899820522268,-4.7706829763216e-09,6.1399097016203e-09,2.4568681386884e-08,-2.3404470371849e-08,-0.0015180185043256,0.0015180196996079,-0.0016139623314991,0.0016139756611069,-0.001613977795951,0.0016139596507431,-0.0016139588204135,0.0016139792862339,-0.0016139743051959,0.0016139632598724,-0.0014076043209899,0.0014076562187645,-0.0014076507804945,0.0014076084396795,-0.0014076424849315,0.0014076171191065,-0.001407631825509,0.0014076280536912,-5.8070503351352e-09,9.8677806519662e-09,-0.0010929286755033,0.0010929326775725,-2.128730046523e-08,2.619022617801e-08,-0.001205593376541,0.0012055761062229,-0.0012055776390275,0.001205591883598,-0.0012055881391529,0.001205581334277,-0.0012055724116006,0.0012055970910326,-0.0010899742510998,0.0010900095119414,-0.0010899895904412,0.001089994191998,0.61826606025254,128566,2924,0.004544331921973,0.0063042612745519,0.0045443319218605,36.802447974226,5.4419583793812e-05,5.4419583793812e-05,5.4419583793812e-05,2805485.4428351,0.015512749547994
12619200,0.9427040175375,0.015325513355896,0.0046482190936332,0.0060290751687412,0.0046482190935217,-0.0010962479842898,0.0010962474610293,7.7319373507059e-09,-8.2547551724344e-09,5.1157438811261e-09,-5.8189112436675e-09,-0.001209580306341,0.0012095887085928,-0.0012095856970619,0.0012095834574504,-0.0012095838027845,0.0012095851122228,-0.0012095891330365,0.0012095797702373,-0.0010932062796976,0.0010932177874616,-0.0010932218481505,0.0010932020123224,-4.7569552091072e-09,6.1229091748571e-09,2.4474411696464e-08,-2.3313307290112e-08,-0.0015233833722607,0.0015233845644479,-0.0016199634110868,0.0016199766869229,-0.0016199788158399,0.0016199607384674,-0.0016199599100032,0.0016199803016126,-0.001619975334861,0.0016199643375071,-0.0014123523920767,0.0014124040943728,-0.0014123986714707,0.0014123564995438,-0.0014123904154815,0.0014123651380855,-0.0014123797860027,0.0014123760422679,-5.9804285612699e-09,1.0014898074371e-08,-0.0010962457348452,0.0010962497104175,-2.1209542910141e-08,2.6084052628651e-08,-0.001209593163113,0.0012095758210266,-0.0012095774866288,0.001209591537393,-0.001209587818946,0.0012095811559168,-0.0012095721523237,0.0012095968517222,-0.0010931942474613,0.0010932297351593,-0.0010932099006875,0.0010932141012005,0.5873120172821,128566,2924,0.0045580990574541,0.006326462443498,0.0045580990573414,36.69050635719,5.3524050857519e-05,5.3524050857519e-05,5.3524050857519e-05,2804330.8183569,0.015563267888544
12819200,0.94641364262251,0.015373667903967,0.0046623862765052,0.0060488953510679,0.0046623862763936,-0.0010989757533803,0.0010989752276847,7.8979789143071e-09,-8.423167190177e-09,5.1225213693671e-09,-5.8281467481175e-09,-0.0012128835182154,0.0012128920352908,-0.0012128890210618,0.001212886672315,-0.0012128870207534,0.0012128884329494,-0.0012128924615919,0.0012128829804858,-0.0010958347288833,0.0010958465540985,-0.001095850622802,0.0010958304541957,-4.763228231706e-09,6.127828426989e-09,2.4504274352533e-08,-2.3344558168243e-08,-0.001527934582657,0.0015279357735168,-0.0016251168327172,0.0016251301248353,-0.0016251322588826,0.0016251141550276,-0.0016251133286858,0.0016251337425286,-0.0016251287731903,0.0016251177586594,-0.0014163509327495,0.0014164026950824,-0.0014163972691655,0.0014163550421956,-0.0014163890035188,0.0014163636912575,-0.0014163783602477,0.0014163746082384,-6.1270292918028e-09,1.0175111782707e-08,-0.0010989734958351,0.0010989774851726,-2.1241702487158e-08,2.6130372762217e-08,-0.0012128964895047,0.001212879033403,-0.001212880787775,0.0012128947750197,-0.001212891043519,0.0012128844700335,-0.0012128753502178,0.0012129001925507,-0.0010958226842636,0.001095858514395,-0.0010958386404179,0.0010958425778047,0.59134553047267,128566,2924,0.0045694200710945,0.006345296680954,0.00456942007098,36.407296212539,5.1258369700316e-05,5.1258369700316e-05,5.1258369700316e-05,2806708.2078315,0.015605398681063
13019200,0.94979330650236,0.015417689342188,0.0046753484941681,0.0060669923539631,0.0046753484940567,-0.0011009434220632,0.0011009428872928,8.0571077984315e-09,-8.5912768836442e-09,5.144532629486e-09,-5.8597243840306e-09,-0.0012153679833335,0.001215376619102,-0.0012153735964706,0.0012153711466984,-0.001215371504504,0.0012153729983757,-0.001215377053821,0.0012153674376226,-0.0010977213105109,0.0010977334273608,-0.0010977375234093,0.0010977170097892,-4.7887143591223e-09,6.1541695741086e-09,2.4666560392571e-08,-2.3506249935965e-08,-0.0015315526550415,0.0015315538465235,-0.0016292808870211,0.0016292942704943,-0.0016292964197259,0.0016292781913659,-0.0016292773668688,0.0016292979047967,-0.0016292929161944,0.0016292818132142,-0.0014194701825144,0.001419522278208,-0.0014195168310165,0.0014194743062556,-0.0014195084978331,0.0014194830254482,-0.0014194978012726,0.0014194939959162,-6.2557675460846e-09,1.0360375865892e-08,-0.0011009411314399,0.0011009451778589,-2.1377459830865e-08,2.6326261567406e-08,-0.0012153810930536,0.0012153634792222,-0.0012153652819436,0.0012153793302094,-0.0012153755431197,0.0012153690196836,-0.0012153597389889,0.0012153848530729,-0.0010977091740577,0.0010977454799957,-0.0010977254399247,0.001097729234028,0.59302696095707,128566,2924,0.0045775877545047,0.0063602679881922,0.0045775877543907,35.874952147464,4.6999617179711e-05,4.6999617179711e-05,4.6999617179711e-05,2806531.088731,0.015637201771865
13219200,0.95287585612044,0.015458011194568,0.0046872324242682,0.0060835463461425,0.0046872324241569,-0.0011026418067383,0.0011026412658208,8.2188835709581e-09,-8.7591046836412e-09,5.1576904891015e-09,-5.8793398214395e-09,-0.0012175303061885,0.0012175390588936,-0.0012175360318462,0.0012175334747178,-0.0012175338405479,0.0012175354251328,-0.001217539497744,0.0012175297569651,-0.0010993551553549,0.0010993675716017,-0.0010993716852782,0.0010993508385807,-4.8026176288575e-09,6.1680863624897e-09,2.4754973774603e-08,-2.3594795977473e-08,-0.0015347509260617,0.001534752117511,-0.0016329715938765,0.0016329850289882,-0.0016329871866472,0.001632968888217,-0.0016329680669752,0.0016329886703941,-0.0016329836715858,0.0016329725217197,-0.0014222203302823,0.0014222726018266,-0.0014222671428393,0.0014222244607168,-0.0014222587784739,0.0014222332130565,-0.0014222480473698,0.0014222442177533,-6.393186176889e-09,1.053455069687e-08,-0.0011026394943963,0.0011026435781059,-2.1453584798887e-08,2.6441529586999e-08,-0.0012175435387352,0.0012175257965952,-0.0012175276663606,0.0012175417089193,-0.0012175378871545,0.0012175314385828,-0.0012175220172563,0.001217547337806,-0.001099342963098,0.0010993796806537,-0.0010993595407506,0.0010993631232874,0.59512402967291,128566,2924,0.0045846380663358,0.0063735016635069,0.0045846380662224,35.336252358751,4.2690018870006e-05,4.2690018870006e-05,4.2690018870006e-05,2804726.3087424,0.015664970481175
13419200,0.95569154591501,0.015494244029125,0.0046978980483266,0.0060984479325827,0.0046978980482154,-0.0011040752351825,0.0011040746921786,8.3687945053224e-09,-8.9110326787986e-09,5.1589089803461e-09,-5.8827392329428e-09,-0.0012193973745001,0.001219406226254,-0.0012194031999053,0.0012194005430501,-0.0012194009087951,0.0012194025925283,-0.0012194066691583,0.001219396821898,-0.0011007193712242,0.0011007320850239,-0.00110073620286,0.0011007150513678,-4.8088521756317e-09,6.1739930912197e-09,2.4792190837529e-08,-2.3632408660373e-08,-0.0015375549643455,0.0015375561553343,-0.0016362261829251,0.0016362396363144,-0.0016362417980012,0.0016362234723273,-0.0016362226503754,0.0016362432834297,-0.0016362382807911,0.0016362271081973,-0.0014246078356584,0.001424660189746,-0.0014246547262362,0.0014246119684741,-0.0014246463402826,0.0014246207431639,-0.0014246356032215,0.0014246317547866,-6.555449236397e-09,1.0711603750978e-08,-0.0011040729141723,0.0011040770131314,-2.146963568772e-08,2.6473505053532e-08,-0.0012194107147312,0.0012193928566569,-0.0012193948242946,0.0012194087870306,-0.0012194049487889,0.001219398612951,-0.0012193890642323,0.0012194145267732,-0.0011007071492263,0.0011007442242639,-0.0011007240535917,0.0011007273403914,0.58608286846879,128566,2924,0.0045905889720595,0.0063851034504213,0.004590588971945,34.797300940412,3.8378407523293e-05,3.8378407523293e-05,3.8378407523293e-05,2803238.4826225,0.015688848881853
13619200,0.95828096251998,0.015527131616132,0.0047075710089275,0.0061119895983884,0.0047075710088164,-0.0011054734830964,0.0011054729434928,8.5499825039531e-09,-9.0888242257558e-09,5.1484948835503e-09,-5.868733915972e-09,-0.0012211858462542,0.0012211948146874,-0.0012211917931926,0.0012211890101242,-0.0012211893747775,0.0012211911867078,-0.001221195252032,0.0012211852996099,-0.0011020441649658,0.0011020572340577,-0.0011020613411958,0.0011020398574849,-4.7917747533352e-09,6.1541550590815e-09,2.4671681000787e-08,-2.3514491482485e-08,-0.0015401998478776,0.0015402010364259,-0.0016392904014643,0.001639303788918,-0.0016393059423188,0.0016392877021142,-0.0016392868836143,0.0016393074214182,-0.0016393024342406,0.0016392913280265,-0.0014268682529318,0.0014269203506254,-0.0014269149028664,0.0014268723728013,-0.0014269065780176,0.0014268810867875,-0.0014268958687039,0.0014268920680404,-6.7089919353318e-09,1.0840211319564e-08,-0.0011054711762717,0.0011054752502604,-2.139249818363e-08,2.6369531199206e-08,-0.0012211992730583,0.0012211813586493,-0.0012211834455195,0.0012211972261476,-0.0012211934148267,0.0012211872071933,-0.0012211775884014,0.0012212030629018,-0.0011020320213833,0.0011020692955963,-0.001102049209857,0.0011020521278281,0.57889842375964,128566,2924,0.0045963932219336,0.0063960470106351,0.0045963932218197,34.356469387197,3.4851755097575e-05,3.4851755097575e-05,3.4851755097575e-05,2803706.8778208,0.015711760781878
13819200,0.96067656002778,0.015557541289471,0.0047165195859222,0.0061245021177383,0.0047165195858107,-0.0011068704967387,0.0011068699652016,8.6974364267083e-09,-9.2282937211674e-09,5.1245786425353e-09,-5.8362187492292e-09,-0.0012229319580389,0.0012229410112862,-0.0012229379995871,0.0012229351106095,-0.0012229354665872,0.001222937402619,-0.0012229414414932,0.0012229314178733,-0.0011033744288934,0.0011033878100308,-0.0011033918898047,0.0011033701470029,-4.7713947880468e-09,6.1309694741499e-09,2.4505426361046e-08,-2.3350821797658e-08,-0.0015427340017616,0.0015427351875544,-0.0016422145858847,0.0016422278746827,-0.0016422300180058,0.0016422118997593,-0.001642211080935,0.0016422314934967,-0.0016422265254692,0.0016422155099784,-0.001429051902728,0.0014291036632939,-0.0014290982369326,0.0014290560087842,-0.0014290899852629,0.0014290646468643,-0.0014290793226559,0.0014290755814325,-6.9140897481498e-09,1.0989304484449e-08,-0.0011068682222779,0.0011068722396068,-2.1231141931305e-08,2.6147975961133e-08,-0.0012229454507744,0.0012229274885393,-0.0012229297485569,0.0012229432307659,-0.0012229394743108,0.0012229334555285,-0.0012229237753843,0.0012229491835734,-0.0011033623611248,0.0011033997949671,-0.0011033798916701,0.0011033822849162,0.57842146948332,128566,2924,0.004602191775125,0.0064065327364269,0.0046021917750142,34.004097800172,3.2032782401373e-05,3.2032782401373e-05,3.2032782401373e-05,2804864.9308035,0.015734195981775
14019200,0.96289514886746,0.015585701908757,0.0047248104119109,0.0061360810850466,0.0047248104117995,-0.0011081201046628,0.0011081195802826,8.8484966550231e-09,-9.3722604836307e-09,5.1053792245699e-09,-5.8094024312729e-09,-0.0012245024954423,0.001224511638153,-0.0012245086342263,0.0012245056396598,-0.0012245059877042,0.0012245080459051,-0.0012245120623564,0.0012245019608872,-0.0011045649413906,0.0011045786373398,-0.0011045826941928,0.0011045606808557,-4.7538334608274e-09,6.1105955669117e-09,2.4361439544274e-08,-2.3209451047084e-08,-0.0015450285448714,0.0015450297280146,-0.0016448693940956,0.0016448825971948,-0.0016448847320818,0.0016448667195262,-0.0016448659003216,0.0016448862042036,-0.0016448812531712,0.0016448703158538,-0.0014310252745208,0.0014310767434344,-0.0014310713366304,0.001431029369602,-0.0014310631469486,0.0014310379419786,-0.0014310525262177,0.0014310488356518,-7.1123326731851e-09,1.1137124330481e-08,-0.0011081178592658,0.0011081218256232,-2.1099116375066e-08,2.5961689958891e-08,-0.0012245160633379,0.0012244980400043,-0.0012245004650895,0.0012245136782424,-0.0012245099707172,0.0012245041231808,-0.0012244943782963,0.0012245197448051,-0.0011045529407279,0.0011045905545176,-0.0011045708061563,0.0011045727092529,0.57820995936359,128566,2924,0.0046073786187047,0.0064160267873758,0.004607378618592,33.653991651586,2.9231933212688e-05,2.9231933212688e-05,2.9231933212688e-05,2805410.4080664,0.015754381298571
14219200,0.96495168290033,0.015610840694771,0.0047321860873505,0.0061464685201811,0.0047321860872391,-0.0011091841943581,0.0011091836750962,9.0195720622574e-09,-9.5383179500138e-09,5.0940696341731e-09,-5.792707899397e-09,-0.0012258779160994,0.0012258871661314,-0.0012258841662278,0.0012258810558362,-0.0012258813986574,0.0012258835836186,-0.0012258875855415,0.001225877386087,-0.0011055551026396,0.0011055691441655,-0.0011055731863913,0.0011055508560481,-4.73781310665e-09,6.0918107574218e-09,2.423419160814e-08,-2.3084793877275e-08,-0.0015470608730031,0.0015470620535926,-0.0016472410586367,0.0016472541875681,-0.0016472563151293,0.0016472383945677,-0.0016472375757534,0.0016472577832408,-0.0016472528476995,0.0016472419789846,-0.0014327474005034,0.0014327986090051,-0.0014327932194914,0.0014327514847988,-0.0014327850866604,0.0014327599981746,-0.0014327745011606,0.001432770855782,-7.284257318485e-09,1.1269124224244e-08,-0.0011091819717677,0.0011091858976305,-2.1008922052794e-08,2.58284975842e-08,-0.0012258915713108,0.0012258734804926,-0.0012258760470676,0.0012258890446928,-0.0012258853765807,0.0012258796657907,-0.0012258698589987,0.0012258952126122,-0.0011055431834024,0.0011055809796613,-0.0011055613450798,0.0011055628378506,0.55856304948738,128566,2924,0.0046117956508431,0.0064244354705867,0.0046117956507311,33.303975128051,2.6431801024409e-05,2.6431801024409e-05,2.6431801024409e-05,2807198.6203364,0.015771900730442
14419200,0.96682806906619,0.01563402715254,0.0047390012552663,0.0061560246421189,0.0047390012551549,-0.0011095276357247,0.0011095271118794,9.1879914832958e-09,-9.7112759806032e-09,5.1077695246729e-09,-5.8111845707709e-09,-0.0012264643468328,0.0012264737180089,-0.0012264707123094,0.0012264674928057,-0.0012264678417903,0.0012264701231922,-0.0012264741403809,0.0012264638141823,-0.0011058168505469,0.0011058312054377,-0.0011058352632201,0.0011058125893056,-4.7506695855405e-09,6.1046976660297e-09,2.4360242756247e-08,-2.3210918675661e-08,-0.0015482365034573,0.001548237684048,-0.0016487360000176,0.0016487492059447,-0.001648751341324,0.0016487333265157,-0.0016487325104978,0.001648752808553,-0.0016487478633564,0.0016487369214245,-0.0014336539701721,0.0014337054292488,-0.0014337000286463,0.0014336580607661,-0.0014336918378315,0.0014336666347423,-0.001433681220611,0.0014336775226155,-7.4137450726697e-09,1.1439105318766e-08,-0.0011095253905079,0.0011095293570407,-2.1126512180966e-08,2.5989053937916e-08,-0.0012264781378904,0.0012264598967678,-0.0012264625234285,0.0012264755512008,-0.0012264718446508,0.0012264661805293,-0.0012264562333024,0.0012264818211103,-0.0011058048724504,0.001105843100112,-0.0011058233332083,0.0011058246593751,0.5638311731466,128566,2924,0.0046132225021026,0.0064292991261536,0.0046132225019919,32.648792194042,2.1190337552332e-05,2.1190337552332e-05,2.1190337552332e-05,2810045.7172193,0.015779743404068
14619200,0.96852703168704,0.015655134433051,0.0047452124698688,0.006164709493425,0.0047452124697575,-0.0011094159400487,0.001109415413188,9.3860902947667e-09,-9.9125034585459e-09,5.1181082254264e-09,-5.8248827289486e-09,-0.001226566658087,0.0012265761770044,-0.0012265731672242,0.0012265698101243,-0.0012265701723955,0.0012265725645051,-0.0012265765933257,0.0012265661350766,-0.0011056347251381,0.0011056494310043,-0.0011056535015899,0.001105630456832,-4.7519756669347e-09,6.1029010406801e-09,2.4527722251216e-08,-2.3381203284348e-08,-0.0015488549654418,0.0015488561442382,-0.0016496377310071,0.0016496510604513,-0.00164965319459,0.0016496350579615,-0.0016496342527857,0.0016496546529636,-0.0016496497050701,0.001649638662894,-0.0014340366642408,0.0014340884166218,-0.0014340830184859,0.001434040746303,-0.0014340747551364,0.0014340493965595,-0.0014340640985627,0.0014340603130462,-7.5081873181526e-09,1.1586050112591e-08,-0.001109413667152,0.0011094176862178,-2.1319503123167e-08,2.62403825234e-08,-0.0012265806069938,0.0012265621990596,-0.0012265648570265,0.0012265779905494,-0.0012265742428063,0.0012265685533986,-0.0012265584748668,0.0012265843525393,-0.0011056226916977,0.0011056613822572,-0.0011056414200253,0.0011056426748675,0.56645232641282,128566,2924,0.0046127614398422,0.0064318565223771,0.0046127614401281,31.824703351516,1.459762681213e-05,1.459762681213e-05,1.459762681213e-05,2809101.2288984,0.015781407654311
14819200,0.97006806179565,0.015674404769137,0.0047508905449211,0.006172623679416,0.0047508905447995,-0.001109174668335,0.0011091741400579,9.5757282598872e-09,-1.0103465330564e-08,5.1247587257527e-09,-5.8329583142451e-09,-0.0012265147092086,0.0012265243863966,-0.0012265213733249,0.0012265178643813,-0.0012265182560645,0.0012265207400025,-0.001226524775447,0.0012265142128677,-0.001105334782035,0.0011053497689009,-0.0011053538464471,0.0011053305064297,-4.7539818770581e-09,6.1065444623172e-09,2.4649027528541e-08,-2.3501151603303e-08,-0.0015492600047007,0.0015492611837381,-0.0016502945197793,0.0016503079539308,-0.0016503100906502,0.0016502918406966,-0.0016502910680143,0.0016503115201921,-0.001650306570555,0.0016502954760537,-0.0014342323873638,0.0014342842913089,-0.0014342788797817,0.0014342364663054,-0.0014342706343884,0.0014342451084924,-0.0014342598839622,0.00143425611867,-7.6231663924039e-09,1.1731283965576e-08,-0.0011091723790732,0.0011091764292068,-2.1445511404877e-08,2.6399382242186e-08,-0.001226528798164,0.0012265102679656,-0.0012265129823969,0.0012265261247227,-0.0012265223753928,0.0012265166814383,-0.0012265064842136,0.0012265326022299,-0.0011053226571079,0.0011053618129631,-0.0011053417240567,0.0011053427667828,0.56961684227241,128566,2924,0.0046117628188553,0.0064335306574776,0.0046117628186276,30.996253827828,7.9700306226237e-06,7.9700306226237e-06,7.9700306226237e-06,2806221.4122193,0.015781082240059
15019200,0.97144712064019,0.015691583945784,0.0047559533966239,0.0061796771526551,0.0047559533965047,-0.0011082914274525,0.0011082909025542,9.7098557927159e-09,-1.0234190781702e-08,5.111645810744e-09,-5.8161965096596e-09,-0.0012257943767501,0.0012258041438658,-0.0012258011373217,0.0012257975259122,-0.0012257979200436,0.0012258005006358,-0.0012258045234688,0.0012257938899573,-0.0011043913058792,0.0011044065505949,-0.0011044106156373,0.001104387044055,-4.7486198658639e-09,6.0999238718658e-09,2.4810090483648e-08,-2.3663444173083e-08,-0.001548914040696,0.0015489152185345,-0.0016501708977579,0.00165018444578,-0.0016501865777106,0.0016501682196139,-0.0016501674554191,0.0016501880024387,-0.0016501830565393,0.0016501718561152,-0.0014337024805699,0.0014337546797935,-0.0014337492680849,0.0014337065496331,-0.0014337409292853,0.0014337152902976,-0.0014337301733721,0.0014337263066914,-7.7960913921473e-09,1.193415637087e-08,-0.0011082891244436,0.0011082932054851,-2.1558939959712e-08,2.6546600746976e-08,-0.0012258085981249,0.0012257898933406,-0.0012257927008536,0.001225805831218,-0.0012258020581691,0.001225796424097,-0.0012257860729755,0.0012258124383766,-0.0011043790604957,0.0011044187156946,-0.0011043985099262,0.0011043992869642,0.56737758790945,128566,2924,0.0046081012100459,0.0064320962568235,0.0046081012098889,29.893662138052,-8.5070289558331e-07,-8.5070289558331e-07,-8.5070289558331e-07,2800095.7559267,0.015772188910353
15219200,0.97266295463404,0.015706052849621,0.0047602006602399,0.0061856515292589,0.0047602006601221,-0.0011066819171913,0.0011066813962935,9.8742793309415e-09,-1.0394689006556e-08,5.0961714936006e-09,-5.79638678948e-09,-0.0012243183867931,0.0012243282650725,-0.0012243252670485,0.0012243215292785,-0.0012243219291511,0.0012243246239262,-0.0012243286316508,0.0012243179149414,-0.0011027031198329,0.0011027186721786,-0.0011027227223682,0.0011026988746798,-4.7308671395504e-09,6.0788659568177e-09,2.4936897385785e-08,-2.3793282876599e-08,-0.0015477222799802,0.0015477234551746,-0.0016491774440296,0.0016491910976823,-0.0016491932172047,0.0016491747760498,-0.0016491740247367,0.0016491946311619,-0.0016491896984081,0.0016491784093491,-0.0014323461974055,0.001432398601415,-0.0014323932029326,0.0014323502463293,-0.0014323847874874,0.0014323590667874,-0.0014323740381221,0.0014323700735811,-7.9364049782444e-09,1.2109284406699e-08,-0.0011066795985033,0.0011066837149547,-2.168669547734e-08,2.6713359971719e-08,-0.0012243327433063,0.0012243138804341,-0.0012243167583969,0.0012243299063905,-0.0012243261086682,0.0012243205058039,-0.0012243100158266,0.0012243366283342,-0.0011026907952105,0.0011027309172051,-0.0011027105797657,0.0011027111530799,0.54391179481953,128566,2924,0.0046014266158659,0.0064271611341918,0.0046014266158161,28.488416812368,-1.2092665501056e-05,-1.2092665501056e-05,-1.2092665501056e-05,2792486.0537947,0.015753618543636
15419200,0.97373713387317,0.015720683459742,0.0047645578338859,0.0061915677920883,0.0047645578337676,-0.0011050324182201,0.0011050319004629,9.9925296459939e-09,-1.0509826297072e-08,5.0850792592365e-09,-5.7817570807605e-09,-0.0012227093112274,0.0012227192037491,-0.0012227162108648,0.0012227124482814,-0.0012227127852018,0.0012227156308096,-0.0012227196269687,0.0012227087821326,-0.0011010071172498,0.0011010230908556,-0.0011010271292986,0.0011010028824143,-4.7279672933152e-09,6.0755561920464e-09,2.4979570934843e-08,-2.3836353649346e-08,-0.0015463593642711,0.0015463605387284,-0.0016479842744111,0.001647997895103,-0.0016480000128501,0.0016479816060396,-0.0016479807963208,0.0016480014869271,-0.0016479965571733,0.0016479851765976,-0.0014308789513036,0.0014309316301256,-0.0014309262341037,0.0014308829987481,-0.0014309175928876,0.0014308920431923,-0.0014309070439925,0.0014309028539885,-8.141590116676e-09,1.2311066462664e-08,-0.0011050301026328,0.0011050342159868,-2.1665287695038e-08,2.6688679673996e-08,-0.0012227237663465,0.0012227047202971,-0.0012227077353398,0.0012227207920521,-0.0012227169378804,0.0012227115397157,-0.0012227009188816,0.0012227275880581,-0.0011009949031137,0.0011010352251223,-0.001101014904143,0.0011010152441071,0.61487579077668,128566,2924,0.0045945851033474,0.0064215191767069,0.0045945851032209,27.07547641862,-2.3396188651038e-05,-2.3396188651038e-05,-2.3396188651038e-05,2784218.5713301,0.015733989383431
15619200,0.97470538882798,0.015734155456823,0.0047685790345955,0.0061969973877498,0.0047685790344781,-0.0011038846919917,0.0011038841703742,1.0168222557873e-08,-1.0689347141499e-08,5.1000213126107e-09,-5.8009888177148e-09,-0.001221695462438,0.0012217055150431,-0.0012217025139659,0.0012216986063271,-0.0012216989819986,0.0012217018956863,-0.0012217059070216,0.0012216949641088,-0.001099875806525,0.0010998920085703,-0.0010998960618295,0.0010998715564712,-4.7419236386055e-09,6.0901422826867e-09,2.4701488673477e-08,-2.3557761416148e-08,-0.0015455820315337,0.0015455832065481,-0.0016473161476794,0.0016473296112563,-0.0016473317408686,0.0016473134734663,-0.0016473126952468,0.0016473331778651,-0.0016473282407542,0.0016473170884154,-0.001429999909087,0.0014300519444253,-0.0014300465438152,0.0014300039719719,-0.001430038207112,0.0014300127073765,-0.0014300275233346,0.0014300236533268,-8.3123099608975e-09,1.2425648647237e-08,-0.0011038824029184,0.0011038864593921,-2.144885468533e-08,2.641038713602e-08,-0.0012217099732419,0.0012216909752434,-0.0012216941416469,0.0012217068476389,-0.0012217030837659,0.0012216978555404,-0.001221687194688,0.0012217137740232,-0.0010998636246302,0.0010999041102126,-0.0010998840094878,0.0010998837455704,0.62694795686046,128566,2924,0.0045898274615358,0.0064182981175954,0.0045898274614262,25.966104808892,-3.2271161528864e-05,-3.2271161528864e-05,-3.2271161528864e-05,2765026.8958769,0.015721054900543
15819200,0.9756160467879,0.015747764270843,0.0047726667553781,0.0062024307602038,0.0047726667552609,-0.0011040098781402,0.0011040093470125,1.0336284212719e-08,-1.0866789980675e-08,5.1369370659627e-09,-5.8482684779418e-09,-0.0012219678138198,0.0012219779731017,-0.0012219749519806,0.0012219709748206,-0.0012219713335682,0.0012219743519633,-0.0012219784004341,0.0012219672785079,-0.0011000591987862,0.0011000757851172,-0.0011000798751604,0.0011000549111783,-4.780803516146e-09,6.1322380983354e-09,2.4127194268836e-08,-2.2980641510941e-08,-0.0015461422205683,0.0015461433984469,-0.0016479594793349,0.0016479725123977,-0.0016479746720311,0.0016479567872606,-0.0016479559731923,0.0016479761335561,-0.001647971172931,0.0016479604019685,-0.0014304753042741,0.0014305263233164,-0.0014305209053695,0.0014304794093375,-0.0014305129063384,0.0014304877962716,-0.0014305022282085,0.0014304987377208,-8.5188742790895e-09,1.2514506528456e-08,-0.0011040076439856,0.0011040115811101,-2.0989682976181e-08,2.5820939976127e-08,-0.0012219823240929,0.0012219634323943,-0.0012219668138532,0.0012219789833919,-0.0012219753089628,0.0012219704381268,-0.0012219597950665,0.0012219859815051,-0.0011000473379924,0.0011000875651213,-0.0011000679291306,0.0011000669945142,0.66919698558685,128566,2924,0.0045903502990641,0.0064206132337885,0.0045903502989509,25.548842669353,-3.5609258645172e-05,-3.5609258645172e-05,-3.5609258645172e-05,2749259.3785709,0.015724470715828
16019200,0.97647407966315,0.015760555292201,0.0047765063735319,0.0062075425452536,0.004776506373415,-0.0011041108930043,0.0011041103582744,1.047149573364e-08,-1.1005530903563e-08,5.1515815054069e-09,-5.8668572222449e-09,-0.0012222744696158,0.0012222847346489,-0.0012222817046249,0.0012222776367966,-0.0012222780062713,0.0012222810956046,-0.0012222851580793,0.0012222739361514,-0.0011002384411442,0.0011002552617348,-0.0011002593643377,0.001100234137044,-4.8000985007563e-09,6.1530102144086e-09,2.3787420152231e-08,-2.2639575631328e-08,-0.0015467403428427,0.0015467415219708,-0.0016486098726052,0.0016486226747797,-0.0016486248501171,0.0016486071719555,-0.0016486063595453,0.0016486263031008,-0.0016486213319077,0.0016486108063936,-0.0014309893390634,0.001431039688691,-0.0014310342645467,0.0014309934673566,-0.0014310265254606,0.0014310015867503,-0.0014310157925976,0.0014310125850539,-8.7469567558006e-09,1.2653399465282e-08,-0.0011041087023176,0.0011041125489046,-2.063581683149e-08,2.5368070039569e-08,-0.0012222890004549,0.0012222701720235,-0.0012222737633494,0.0012222854497503,-0.0012222818698602,0.0012222772931358,-0.0012222666163949,0.0012222925760265,-0.0011002266847736,0.0011002669353035,-0.0011002476547899,0.0011002459859874,0.66742791352742,128566,2924,0.0045907741435607,0.0064230836048902,0.0045907741434482,25.148991846902,-3.8808065224784e-05,-3.8808065224784e-05,-3.8808065224784e-05,2729978.1957132,0.015727844368617
16219200,0.97728315352676,0.015772563350905,0.0047801087257412,0.0062123458995388,0.0047801087256246,-0.0011041489583076,0.0011041484236959,1.0630155474021e-08,-1.1164058394733e-08,5.1516224733226e-09,-5.8667776734398e-09,-0.0012225074583105,0.0012225178305652,-0.0012225147999513,0.001222510625143,-0.0012225109962954,0.0012225141898848,-0.0012225182521576,0.0012225069262199,-0.0011003457895857,0.0011003629168117,-0.0011003670183801,0.0011003414847774,-4.8004872754089e-09,6.1530808184282e-09,2.3634231882557e-08,-2.2486700831666e-08,-0.0015472652182955,0.0015472663971316,-0.0016491761460036,0.0016491888479166,-0.0016491910254272,0.0016491734467596,-0.0016491726340568,0.0016491924750443,-0.0016491875057902,0.0016491770826792,-0.0014314387818053,0.0014314888254775,-0.0014314834058421,0.0014314429141863,-0.0014314757697247,0.0014314509265845,-0.0014314650319667,0.0014314619307041,-8.9253963458914e-09,1.2798692799236e-08,-0.0011041467845566,0.0011041505973898,-2.0500967155879e-08,2.519604398972e-08,-0.0012225220613101,0.0012225031953287,-0.0012225069273436,0.0012225183699868,-0.0012225148241635,0.0012225104229677,-0.001222499670868,0.0012225256057569,-0.0011003340928275,0.0011003745299068,-0.0011003553839479,0.001100353259498,0.66425603804333,128566,2924,0.0045909365097907,0.0064252510736479,0.0045909365096771,24.74982278998,-4.2001417680161e-05,-4.2001417680161e-05,-4.2001417680161e-05,2713878.5616067,0.015730378823395
16419200,0.97804939671355,0.015782749142411,0.0047831337376924,0.0062164816671423,0.0047831337375759,-0.001104198220807,0.0011041976889624,1.0768058703088e-08,-1.1299220728072e-08,5.1414402490829e-09,-5.8536002658829e-09,-0.0012227542637259,0.0012227647229244,-0.0012227616969668,0.0012227574251375,-0.0012227577945679,0.0012227610894453,-0.0012227651405682,0.0012227537342394,-0.0011004317762336,0.0011004491802381,-0.001100453269069,0.0011004274795102,-4.7909177476338e-09,6.1425238571126e-09,2.3710535846641e-08,-2.2563890836447e-08,-0.0015477873137252,0.0015477884914533,-0.001649743688557,0.0016497564463355,-0.0016497586174015,0.001649740993115,-0.0016497401831809,0.001649760065968,-0.0016497551041808,0.0016497446231343,-0.001431873816552,0.0014319240018808,-0.0014319185900852,0.0014318779416229,-0.0014319108918267,0.0014318860150552,-0.0014319001742948,0.0014318970029802,-9.1108585309192e-09,1.2981064159892e-08,-0.0011041960499909,0.0011041998597205,-2.0489638011447e-08,2.518152163305e-08,-0.001222768968393,0.0012227499856424,-0.0012227538428829,0.0012227651515086,-0.0012227616096215,0.0012227573349554,-0.0012227464636443,0.0012227725101033,-0.0011004200421444,0.0011004608284186,-0.0011004416943674,0.0011004391967667,0.59981696793823,128566,2924,0.0045911448043264,0.0064274072779867,0.0045911448042106,24.412276352984,-4.4701789176131e-05,-4.4701789176131e-05,-4.4701789176131e-05,2703019.4779592,0.015732995352363
16619200,0.97877911965323,0.015794265536102,0.0047866060259784,0.0062210534842618,0.0047866060258622,-0.0011044525734409,0.0011044520451333,1.0915912361698e-08,-1.1443581595162e-08,5.1274460540133e-09,-5.8357389704156e-09,-0.0012230828049453,0.0012230933526898,-0.0012230903344947,0.0012230859600546,-0.0012230863239334,0.0012230897318482,-0.0012230937692792,0.001223082277818,-0.0011007200417025,0.0011007377501474,-0.001100741825827,0.0011007157597977,-4.7782634583901e-09,6.1282121847949e-09,2.3864428729672e-08,-2.2719309422575e-08,-0.0015483901893867,0.0015483913657468,-0.0016504086540865,0.0016504215191395,-0.0016504236811791,0.0016504059652751,-0.0016504051556613,0.0016504251316167,-0.001650420178593,0.0016504095842704,-0.00143243071969,0.0014324812043902,-0.0014324758001105,0.0014324348316039,-0.001432467978876,0.0014324430300595,-0.0014324572930646,0.0014324539855925,-9.2695170535397e-09,1.3171167707072e-08,-0.0011044503883967,0.0011044542301187,-2.0615166391641e-08,2.5341503258146e-08,-0.0012230976449862,0.0012230784807665,-0.0012230824229108,0.0012230937434606,-0.0012230901681781,0.0012230859481971,-0.0012230749291133,0.0012231012166335,-0.0011007082282754,0.0011007494785509,-0.001100730217595,0.0011007275096653,0.70235630962829,128566,2924,0.0045922014863738,0.0064299011144439,0.0045922014862566,24.15832243806,-4.6733420495522e-05,-4.6733420495522e-05,-4.6733420495522e-05,2700131.8931771,0.015737675303853
16819200,0.97947446164886,0.01580529073929,0.0047899288733847,0.0062254329926365,0.0047899288732689,-0.0011046830511211,0.0011046825262122,1.1089780360712e-08,-1.1614101871836e-08,5.1143700603086e-09,-5.8189569213309e-09,-0.0012235158484911,0.0012235265026585,-0.0012235234918194,0.0012235189977464,-0.0012235193569997,0.0012235228929155,-0.0012235269173821,0.0012235153243952,-0.001101046143614,0.0011010642054012,-0.0011010682686968,0.0011010418758758,-4.7630263049335e-09,6.1111260699993e-09,2.403830890187e-08,-2.2894868913823e-08,-0.0015491055367765,0.0015491067114807,-0.0016511314586795,0.0016511444483337,-0.0016511465996991,0.0016511287772813,-0.0016511279697614,0.001651148051016,-0.0016511431084714,0.0016511323844924,-0.0014330905498002,0.0014331413675633,-0.0014331359716924,0.0014330946452336,-0.0014331280150655,0.00143310298287,-0.0014331173631044,0.0014331139028952,-9.392415330374e-09,1.334483296896e-08,-0.0011046808420925,0.0011046847351845,-2.0811849894625e-08,2.5593989434868e-08,-0.0012235308411041,0.0012235114789269,-0.0012235154705481,0.0012235268901775,-0.0012235232637113,0.0012235190470092,-0.0012235078778754,0.0012235344622423,-0.0011010342645904,0.0011010760003168,-0.0011010565414165,0.0011010537438462,0.70571570796858,128566,2924,0.0045931623833308,0.006432856451391,0.0045931623832189,23.906476910807,-4.8748184713545e-05,-4.8748184713545e-05,-4.8748184713545e-05,2683901.7581135,0.015742632401041
17019200,0.98013733857007,0.015815593686831,0.00479302779925,0.0062295380884465,0.0047930277991343,-0.0011048567320826,0.0011048562099538,1.1269826272554e-08,-1.1791439960502e-08,5.1029789198038e-09,-5.8045959665777e-09,-0.001223890359415,0.001223901127766,-0.0012238981233179,0.0012238935035522,-0.0012238938606983,0.001223897525699,-0.001223901539113,0.0012238898396118,-0.0011013074854909,0.0011013259048526,-0.0011013299579893,0.0011013032299395,-4.7492829142552e-09,6.0957339321009e-09,2.4227927889022e-08,-2.308599057807e-08,-0.0015497663101449,0.0015497674833313,-0.0016517921998114,0.0016518053245539,-0.0016518074659338,0.0016517895245946,-0.0016517887213329,0.0016518089164888,-0.0016518039831342,0.0016517931230788,-0.0014336988345236,0.0014337500121099,-0.00143374462301,0.0014337029143294,-0.001433736528187,0.0014337113941171,-0.0014337259015245,0.0014337222881073,-9.5112390039346e-09,1.3509565952588e-08,-0.0011048545011591,0.0011048584408247,-2.0992030661461e-08,2.5824917918113e-08,-0.0012239055017046,0.0012238859550015,-0.0012238899958608,0.0012239015015277,-0.0012238978306372,0.0012238936168204,-0.0012238823073493,0.0012239091694525,-0.001101295554273,0.0011013377530675,-0.0011013181121876,0.0011013152152863,0.69245975030718,128566,2924,0.0045938875338239,0.0064355858778992,0.0045938875337197,23.654713908492,-5.0762288732061e-05,-5.0762288732061e-05,-5.0762288732061e-05,2670183.9318137,0.015746880990404
17219200,0.98075433860568,0.015824923612556,0.0047958268387138,0.0062332699352437,0.0047958268385984,-0.001104210552676,0.001104210035734,1.1425908358411e-08,-1.1942378159744e-08,5.0826418015043e-09,-5.7784806607941e-09,-0.0012234083922905,0.0012234192508584,-0.0012234162576709,0.0012234115269393,-0.0012234118768808,0.0012234156662509,-0.001223419659475,0.0012234078763088,-0.0011007168175925,0.0011007355628628,-0.0011007395962008,0.0011007125830928,-4.7273531759584e-09,6.0714330255946e-09,2.4541463180381e-08,-2.340166004529e-08,-0.0015495246652375,0.0015495258362389,-0.0016515549952829,0.0016515683388392,-0.0016515704639828,0.0016515523297749,-0.0016515515299204,0.0016515719170634,-0.0016515669979841,0.0016515559109843,-0.0014334133231211,0.0014334651063733,-0.0014334597277208,0.0014334173785631,-0.0014334513958336,0.0014334261019582,-0.0014334408191313,0.0014334369443956,-9.6445643942553e-09,1.3709979448494e-08,-0.0011042082902979,0.0011042122980558,-2.1261913084032e-08,2.6169143708259e-08,-0.0012234237052926,0.0012234039082775,-0.0012234079939158,0.001223419660292,-0.0012234159212823,0.0012234116831437,-0.0012234001958558,0.0012234274378002,-0.0011007047534847,0.0011007475445962,-0.0011007276333229,0.0011007246848958,0.67475986259477,128566,2924,0.0045912110166922,0.0064345807850004,0.0045912110165803,22.995458572799,-5.6036331417609e-05,-5.6036331417609e-05,-5.6036331417609e-05,2657361.0969746,0.015740425079921
17419200,0.98131744782715,0.015833070975212,0.0047982618606716,0.0062365472539845,0.0047982618605563,-0.0011028577373708,0.0011028572240831,1.1635628481118e-08,-1.2148546692126e-08,5.0672539526182e-09,-5.7591097517974e-09,-0.0012221744525996,0.0012221854490049,-0.0012221824655068,0.001222177581246,-0.0012221779333983,0.0012221818686934,-0.001222185848948,0.0012221739499566,-0.0010993862702217,0.0010994054164623,-0.0010994094407187,0.0010993820570673,-4.70615867373e-09,6.0474356439334e-09,2.4667052363306e-08,-2.3529783000928e-08,-0.0015484759256155,0.001548477094367,-0.0016505167269294,0.0016505301762566,-0.0016505322872655,0.0016505140744662,-0.001650513283729,0.0016505337320658,-0.0016505288284577,0.0016505176476536,-0.0014323286900567,0.0014323806819423,-0.0014323753195745,0.0014323327251576,-0.0014323668974228,0.0014323415391456,-0.0014323563419761,0.0014323523575196,-9.7026256425644e-09,1.3876612080931e-08,-0.0011028554221396,0.0011028595392865,-2.1683369701057e-08,2.6709867529714e-08,-0.0012221899747582,0.0012221698991449,-0.0012221739533535,0.0012221859618621,-0.0012221821229433,0.0012221777418556,-0.001222166072654,0.0012221938220113,-0.0010993740756613,0.001099417534518,-0.0010993971971108,0.0010993944332825,0.64747797137616,128566,2924,0.0045856022832004,0.006430236022363,0.0045856022831487,21.992801600774,-6.4057587193812e-05,-6.4057587193812e-05,-6.4057587193812e-05,2645520.9362289,0.015724619495669
17619200,0.98183177390332,0.015840223047473,0.0048003927028715,0.0062394376418451,0.004800392702756,-0.0011014323442799,0.00110143183467,1.1604492071716e-08,-1.2113790574017e-08,5.0548201969628e-09,-5.7426045477847e-09,-0.001220821054604,0.0012208319881138,-0.0012208290079342,0.0012208241751396,-0.0012208244902426,0.00122082845576,-0.0012208324172958,0.0012208205140708,-0.001097957564231,0.0010979767681246,-0.0010979807638918,0.0010979533487742,-4.713260017083e-09,6.0551961695017e-09,2.5424457283164e-08,-2.4286589483539e-08,-0.0015472738134347,0.0015472749825416,-0.0016493352589653,0.0016493491585673,-0.0016493512646389,0.0016493325912881,-0.0016493317733135,0.0016493527561401,-0.0016493478396204,0.0016493361330779,-0.0014310950669643,0.0014311486682218,-0.001431143284725,0.0014310990930232,-0.0014311342750313,0.0014311085106077,-0.0014311238198194,0.0014311192351033,-1.0111528351625e-08,1.4174204498122e-08,-0.0011014300862171,0.0011014340926771,-2.127895325282e-08,2.6186735049585e-08,-0.0012208365844398,0.0012208164279202,-0.0012208208246974,0.0012208322286804,-0.0012208284623644,0.0012208245417371,-0.0012208127479352,0.0012208402852964,-0.001097945307178,0.0010979889344344,-0.0010979690107014,0.0010979652499053,0.62390232704675,128566,2924,0.0045796912363596,0.0064252578685423,0.0045796912362482,20.981440651467,-7.2148474788261e-05,-7.2148474788261e-05,-7.2148474788261e-05,2637671.6425688,0.015707555780041
17819200,0.9823027429282,0.015846541440451,0.0048022700021227,0.0062420014363201,0.0048022700020079,-0.0011000028678799,0.0011000023549851,1.1796596888292e-08,-1.2309073123989e-08,5.0660957985468e-09,-5.7575128848747e-09,-0.0012194277444657,0.0012194388111401,-0.0012194358269313,0.0012194308713582,-0.0012194311882771,0.0012194352707773,-0.0012194392450561,0.0012194272013976,-0.0010965040910928,0.0010965236641624,-0.001096527672238,0.001096499864106,-4.7200143547426e-09,6.0622271115348e-09,2.5228427966078e-08,-2.4090379041457e-08,-0.0015460001438015,0.0015460013130657,-0.0016480930379598,0.0016481068049025,-0.001648108917933,0.001648090368111,-0.0016480895470664,0.0016481104074276,-0.0016481054883068,0.0016480939138726,-0.001429793821639,0.0014298470452329,-0.0014298416627391,0.0014297978585443,-0.0014298327821226,0.0014298071374451,-0.0014298223185418,0.0014298178757341,-1.0224149154613e-08,1.4314756981495e-08,-0.0011000005942556,0.0011000046285577,-2.1380860582327e-08,2.6318508521297e-08,-0.0012194434066257,0.001219423119977,-0.0012194275745073,0.0012194389928639,-0.0012194351985952,0.0012194313190599,-0.0012194194127483,0.0012194471342373,-0.0010964918438954,0.0010965358203466,-0.0010965157937849,0.0010965118900709,0.60341627509169,128566,2924,0.004573762206124,0.0064199847145179,0.0045737622060219,19.991708270361,-8.0066333837112e-05,-8.0066333837112e-05,-8.0066333837112e-05,2633202.7812348,0.015690155547857
18019200,0.98273498271385,0.015852334221236,0.00480399231752,0.0062443495863109,0.0048039923174054,-0.0010985799863847,0.0010985794688195,1.2063603035158e-08,-1.2580703783734e-08,5.0839992076339e-09,-5.7804618049186e-09,-0.0012180083205384,0.0012180196068327,-0.0012180166146287,0.00121801145711,-0.0012180118108216,0.0012180160187645,-0.0012180200131905,0.0012180078081031,-0.0010950448087334,0.0010950647910503,-0.0010950688236752,0.0010950405703499,-4.7314307345683e-09,6.074293933137e-09,2.4814561366301e-08,-2.367597175455e-08,-0.0015446714774236,0.0015446726473466,-0.0016468040533779,0.0016468175802673,-0.0016468197054097,0.001646801381658,-0.0016468005886864,0.0016468211574111,-0.0016468162340229,0.0016468049687212,-0.0014284431006136,0.0014284954145695,-0.0014284900311186,0.001428447153018,-0.0014284815363605,0.0014284560400348,-0.0014284709444356,0.001428466901492,-1.0264946974205e-08,1.4375912249181e-08,-0.0010985777004601,0.0010985817547029,-2.1456285769786e-08,2.641490918511e-08,-0.0012180241096347,0.0012180037896172,-0.0012180082606029,0.0012180196795657,-0.0012180158988026,0.0012180119913563,-0.0012180000287078,0.0012180278909568,-0.0010950326332985,0.0010950768817766,-0.0010950567834259,0.0010950527516799,0.60265702513491,128566,2924,0.0045678597135176,0.0064144848980524,0.0045678597134376,19.020291470229,-8.783766823817e-05,-8.783766823817e-05,-8.783766823817e-05,2631010.2056647,0.015672578718891
18219200,0.98313209687535,0.015857760308693,0.0048056097142202,0.0062465408803675,0.0048056097141055,-0.0010971402623488,0.0010971397419729,1.2119593046094e-08,-1.2639461913611e-08,5.0947516976619e-09,-5.7943053285966e-09,-0.0012165646235571,0.0012165759040166,-0.001216572905081,0.0012165677643251,-0.0012165680708239,0.0012165723592557,-0.0012165763628707,0.0012165640554408,-0.0010935712297997,0.001093591463537,-0.001093595503758,0.0010935669770238,-4.7489433032184e-09,6.0933789048689e-09,2.4793774708966e-08,-2.3653807022726e-08,-0.0015432946360799,0.0015432958073246,-0.0016454641782565,0.0016454776251873,-0.00164547976045,0.0016454614947888,-0.0016454606494291,0.001645481265627,-0.0016454763294992,0.0016454650430549,-0.0014270483238509,0.0014271007697042,-0.0014270953749417,0.0014270523923956,-0.001427086758043,0.0014270613980414,-0.0014270762903616,0.0014270721419394,-1.0569775304815e-08,1.4596917871807e-08,-0.0010971380172015,0.0010971419870688,-2.1130447110875e-08,2.5997623456152e-08,-0.0012165804416397,0.0012165600565266,-0.0012165647837053,0.0012165757552197,-0.0012165720059605,0.0012165684830743,-0.001216556429718,0.0012165840887377,-0.001093559158673,0.0010936034466858,-0.0010935836735297,0.001093578951773,0.6133875033845,128566,2924,0.0045618872818404,0.0064087857662244,0.0045618872817385,18.049337646878,-9.5605298824977e-05,-9.5605298824977e-05,-9.5605298824977e-05,2628031.5093283,0.015654657655926
18419200,0.98350652528866,0.01586291333853,0.0048071477195044,0.0062486178996358,0.0048071477193898,-0.0010964261318979,0.0010964256052352,1.2382057780454e-08,-1.2908130796099e-08,5.1189393646e-09,-5.825321072087e-09,-0.0012158677898162,0.001215879310402,-0.0012158762992972,0.0012158709424318,-0.0012158713078805,0.0012158756931661,-0.0012158797225267,0.0012158672695984,-0.001092842253109,0.0010928628243525,-0.0010928668919851,0.0010928379790708,-4.7687822569167e-09,6.1150559782962e-09,2.4260344940586e-08,-2.3118748166878e-08,-0.00154268012357,0.0015426812964555,-0.0016448788893845,0.0016448920299593,-0.0016448941837762,0.0016448762001278,-0.0016448754009856,0.0016448956313212,-0.0016448906851826,0.0016448798154671,-0.0014264127733921,0.0014264640195526,-0.001426458619395,0.0014264168672941,-0.0014264505382163,0.0014264253292979,-0.0014264398641981,0.0014264362757944,-1.0643764622198e-08,1.4632658683108e-08,-0.0010964239032268,0.0010964278338566,-2.0984233771298e-08,2.5807970577736e-08,-0.0012158836813398,0.0012158633893416,-0.0012158681933771,0.0012158789180562,-0.0012158752600767,0.0012158718013013,-0.0012158597468884,0.0012158873439566,-0.0010928302963035,0.0010928746960836,-0.0010928550769931,0.0010928499356733,0.61738402230599,128566,2924,0.0045589251383914,0.0064062417683529,0.0045589251382929,17.476270411158,-0.00010018983671073,-0.00010018983671073,-0.00010018983671073,2625978.187219,0.015646056650715
18619200,0.98386714963277,0.015867828213845,0.0048086139243725,0.0062506003652145,0.004808613924258,-0.0010963095413217,0.001096309010639,1.2533269870236e-08,-1.3063289089868e-08,5.1346738725043e-09,-5.84542865552e-09,-0.001215786379763,0.0012157980179125,-0.0012157949976077,0.0012157895389789,-0.0012157899161976,0.0012157943809318,-0.001215798425552,0.0012157858616092,-0.0010927202146313,0.0010927410480809,-0.0010927451311322,0.0010927159241018,-4.788132581954e-09,6.1366949525345e-09,2.3928726091843e-08,-2.2785059914531e-08,-0.0015426949137985,0.0015426960884674,-0.0016449219630506,0.0016449348788117,-0.0016449370482699,0.0016449192643615,-0.0016449184684503,0.0016449384866057,-0.0016449335291775,0.0016449229008414,-0.001426400754695,0.0014264513420387,-0.0014264459332266,0.0014264048723715,-0.0014264381140372,0.0014264130664442,-0.001426427379031,0.0014264240761336,-1.0851824032673e-08,1.4759219391439e-08,-0.001096307351865,0.001096311200038,-2.0668911119835e-08,2.5402707509817e-08,-0.0012158023025027,0.0012157820643458,-0.0012157870599919,0.0012157973470288,-0.0012157937771881,0.0012157905802497,-0.0012157784950842,0.0012158058913639,-0.0010927083734263,0.0010927528036344,-0.0010927335036619,0.0010927276938868,0.61178639207905,128566,2924,0.0045584418918546,0.0064063024884346,0.0045584418917393,17.231005537776,-0.00010215195569779,-0.00010215195569779,-0.00010215195569779,2625924.4131573,0.015645136921958
18819200,0.98421476501844,0.015872881476289,0.0048101303699238,0.0062526207365556,0.0048101303698095,-0.0010962145886283,0.0010962140575198,1.268506823761e-08,-1.3215519900351e-08,5.1359181493804e-09,-5.8471781069578e-09,-0.0012157166716182,0.0012157284119428,-0.0012157253905013,0.0012157198310157,-0.0012157202089975,0.0012157247737794,-0.0012157288200824,0.0012157161532205,-0.001092622442678,0.0010926435733637,-0.001092647657333,0.0010926181505911,-4.7909142763281e-09,6.1393728709613e-09,2.3761273544286e-08,-2.2617700710122e-08,-0.0015427154629401,0.0015427166377695,-0.0016449724636816,0.0016449852676112,-0.0016449874400849,0.0016449697661577,-0.0016449689674261,0.001644988877111,-0.001644983919183,0.001644973404419,-0.0014263993517402,0.0014264496123608,-0.0014264442057075,0.0014264034742799,-0.001426436497423,0.0014264115545041,-0.0014264257565394,0.0014264225686568,-1.104083332797e-08,1.4907171166438e-08,-0.0010962124198013,0.0010962162263063,-2.0507789657868e-08,2.5196007506784e-08,-0.0012157326607908,0.0012157123914755,-0.0012157175400347,0.0012157275529327,-0.00121572402333,0.0012157210195167,-0.0012157088628891,0.0012157362093924,-0.0010926106666927,0.0010926552632573,-0.0010926361261077,0.0010926298242666,0.64922936014823,128566,2924,0.0045580482483016,0.0064063873105514,0.0045580482482223,16.994026214061,-0.00010404779028751,-0.00010404779028751,-0.00010404779028751,2626157.5084306,0.015644423462311
19019200,0.98454994392975,0.015878061197767,0.0048116924072984,0.0062546763832842,0.004811692407184,-0.0010961250119067,0.0010961244818389,1.2845215688268e-08,-1.3374651405699e-08,5.1320309215755e-09,-5.8422546785416e-09,-0.0012156954958558,0.0012157073283108,-0.001215704308629,0.0012156986532605,-0.0012156990178177,0.0012157037055647,-0.001215707747752,0.0012156949659599,-0.0010925597751122,0.0010925812599982,-0.001092585339893,0.0010925554868115,-4.7853213520704e-09,6.1330774925161e-09,2.3685379187924e-08,-2.254244766458e-08,-0.0015427896472457,0.0015427908214304,-0.0016450545905291,0.0016450673353178,-0.0016450695053372,0.0016450518970354,-0.0016450510855089,0.0016450709534743,-0.0016450660008794,0.0016450555187814,-0.0014264526252333,0.0014265027711252,-0.0014264973706264,0.0014264567445432,-0.0014264896644359,0.0014264648214087,-0.0014264789740221,0.0014264757853492,-1.1208022524126e-08,1.5061685841898e-08,-0.0010961228500099,0.0010961266436851,-2.0451975141845e-08,2.5125968444182e-08,-0.0012157115761436,0.0012156912166226,-0.0012156964847635,0.0012157063486624,-0.0012157028190342,0.0012156999643206,-0.0012156877129396,0.0012157150998631,-0.0010925480646321,0.0010925928843535,-0.0010925738013021,0.0010925671679584,0.6871910013554,128566,2924,0.0045576781938397,0.0064066926421578,0.004557678193739,16.757370149895,-0.00010594103880084,-0.00010594103880084,-0.00010594103880084,2620658.8708792,0.015643982827799
19219200,0.98488360548702,0.015883375965532,0.0048132985098415,0.0062567789459636,0.0048132985097273,-0.0010969650018917,0.0010969644707428,1.3001955332204e-08,-1.3532444786807e-08,5.1371732696256e-09,-5.8484843037014e-09,-0.0012166609615157,0.0012166728952077,-0.0012166698727359,0.0012166641213775,-0.0012166644811448,0.0012166692750255,-0.0012166733218713,0.0012166604242022,-0.0010934654988992,0.0010934873052843,-0.0010934913897544,0.0010934612053857,-4.7899034233266e-09,6.1381302229233e-09,2.3604705414335e-08,-2.2461373563691e-08,-0.0015439035734151,0.0015439047479602,-0.0016461555848414,0.0016461682672053,-0.0016461704408103,0.0016461528891595,-0.001646152070341,0.0016461718948301,-0.0016461669395301,0.0016461565079354,-0.0014275394546135,0.0014275894638688,-0.001427584061055,0.0014275435785177,-0.00142757639471,0.0014275516150068,-0.0014275657134072,0.0014275625694052,-1.1380002859978e-08,1.5216220343742e-08,-0.0010969628482587,0.0010969666243016,-2.0370174145927e-08,2.502454608012e-08,-0.0012166771281138,0.0012166566970551,-0.0012166620911836,0.0012166717747485,-0.0012166682558787,0.0012166655598321,-0.001216653216723,0.0012166806287089,-0.001093453837369,0.0010934988807463,-0.0010934798751455,0.0010934728630569,0.70677986995183,128566,2924,0.0045611654090749,0.0064113003850495,0.0045611654089248,17.022132637787,-0.0001038229388977,-0.0001038229388977,-0.0001038229388977,2614636.0217161,0.015655748319654
19419200,0.98522089767191,0.015888633712472,0.0048148838660509,0.0062588659804837,0.004814883865937,-0.0010982580704423,0.0010982575396113,1.3171363889588e-08,-1.3701541488595e-08,5.1369307184324e-09,-5.8478987586483e-09,-0.001218114826561,0.0012181268775573,-0.001218123855049,0.0012181179865586,-0.0012181183500891,0.0012181232530291,-0.0012181272996844,0.0012181142940746,-0.0010948368565703,0.0010948589822789,-0.0010948630674866,0.001094832565055,-4.7903715136738e-09,6.1383034982769e-09,2.3591143577228e-08,-2.2448071289302e-08,-0.0015455409150005,0.0015455420893488,-0.0016477731959072,0.0016477858735517,-0.0016477880477611,0.00164777050018,-0.0016477696855758,0.0016477894970313,-0.0016477845418494,0.0016477741234621,-0.0014291449367451,0.0014291949064157,-0.0014291895042211,0.0014291490614057,-0.0014291818596108,0.0014291570753865,-0.0014291711644956,0.0014291680432349,-1.1525586882519e-08,1.5373403537875e-08,-0.0010982559111924,0.0010982596988092,-2.039787348932e-08,2.5064588975925e-08,-0.0012181311057172,0.0012181105668989,-0.0012181160504151,0.0012181256628929,-0.0012181221369902,0.0012181195261948,-0.0012181070706687,0.0012181346220322,-0.001094825183673,0.0010948705701113,-0.0010948515309206,0.0010948442432368,0.69264757123076,128566,2924,0.004566532600703,0.00641807390024,0.0045665326005996,17.538363660153,-9.9693090718778e-05,-9.9693090718778e-05,-9.9693090718778e-05,2610303.500808,0.015673533190856
19619200,0.98556169895789,0.01589381276297,0.0048164415220944,0.0062609297188945,0.0048164415219806,-0.0010995503928783,0.0010995498636339,1.3308721109163e-08,-1.3837277094104e-08,5.1325100983414e-09,-5.8418633772603e-09,-0.0012195510236152,0.0012195631494299,-0.0012195601287099,0.0012195541818085,-0.0012195545287089,0.0012195595425578,-0.0012195635850281,0.0012195504784355,-0.0010961928258122,0.0010962152679005,-0.0010962193488818,0.0010961885405582,-4.7800012352434e-09,6.1269735728101e-09,2.3747739137812e-08,-2.2605527219013e-08,-0.0015471691828624,0.0015471703563434,-0.0016493918997746,0.0016494046722553,-0.0016494068386469,0.0016493892088572,-0.0016493883818237,0.0016494083031949,-0.0016494033543777,0.0016493928099902,-0.0014307404956227,0.0014307908091396,-0.0014307854107938,0.0014307446086993,-0.0014307776089915,0.0014307527845586,-0.0014307669777737,0.0014307636873818,-1.1705075506177e-08,1.5562097604526e-08,-0.0010995482295112,0.0010995520269844,-2.0442429914798e-08,2.5120439881813e-08,-0.001219567421639,0.0012195467200273,-0.0012195523167996,0.0012195618656106,-0.0012195583157136,0.0012195558164041,-0.0012195432290138,0.0012195709323244,-0.0010961811314465,0.0010962268772582,-0.0010962077960868,0.0010962002340222,0.67638952942248,128566,2924,0.0045718960746133,0.0064248104376805,0.0045718960745849,18.061019234471,-9.5511846124235e-05,-9.5511846124235e-05,-9.5511846124235e-05,2609532.0424478,0.015691272775723
19819200,0.98590573848644,0.015898886790124,0.0048179631331245,0.0062629605239892,0.0048179631330102,-0.0011008326766589,0.0011008321507828,1.3504161262452e-08,-1.4029409542677e-08,5.120128029482e-09,-5.8259054090594e-09,-0.0012209567289963,0.0012209689979191,-0.001220965984279,0.0012209598823105,-0.0012209602452395,0.0012209653808107,-0.0012209694108332,0.0012209562080047,-0.0010975234623474,0.0010975462369194,-0.0010975503065414,0.0010975191907295,-4.7732532224494e-09,6.1194170543625e-09,2.3827062477009e-08,-2.2685610395233e-08,-0.0015487700063329,0.0015487711790265,-0.0016509943879656,0.0016510072371162,-0.0016510093989556,0.0016509917002064,-0.00165099089476,0.0016510108433229,-0.001651005899283,0.0016509953166787,-0.0014323071724429,0.0014323575779057,-0.0014323521833383,0.0014323112776727,-0.0014323443791182,0.0014323194569269,-0.0014323337038222,0.0014323304044114,-1.1807530105376e-08,1.5713348440224e-08,-0.0011008304903067,0.0011008343370879,-2.063012667138e-08,2.5361527297548e-08,-0.0012209732780832,0.0012209524185337,-0.0012209580516505,0.0012209676856415,-0.0012209641075217,0.0012209615796179,-0.0012209488592446,0.0012209768573007,-0.0010975116856313,0.0010975579305683,-0.001097538657692,0.0010975309790496,0.6578689396253,128566,2924,0.0045772172526595,0.0064314340651111,0.0045772172525665,18.583925982906,-9.1328592136749e-05,-9.1328592136749e-05,-9.1328592136749e-05,2611681.6653352,0.015708811569176
20019200,0.98624349493179,0.015904053007743,0.0048195167039914,0.0062650195998744,0.0048195167038773,-0.0011013092663969,0.0011013087467878,1.364887633005e-08,-1.4167907060532e-08,5.0964253632844e-09,-5.7952381233357e-09,-0.0012215156705145,0.0012215280106932,-0.0012215250099134,0.0012215188127801,-0.0012215191579308,0.0012215244234053,-0.001221528429374,0.0012215151447458,-0.0010980274505078,0.0010980505598665,-0.0010980546058426,0.0010980232034473,-4.7450672642758e-09,6.0883873927091e-09,2.4228108919374e-08,-2.3089217932477e-08,-0.0015494883968324,0.0015494895669439,-0.001651724539548,0.0016517376593554,-0.0016517397999788,0.0016517218644817,-0.0016517210540163,0.0016517412571136,-0.0016517363310883,0.0016517254496413,-0.0014329999076204,0.0014330511135919,-0.0014330457320932,0.0014330039816311,-0.0014330375989381,0.0014330124987817,-0.0014330270135553,0.001433023354119,-1.1950238864487e-08,1.5928501998144e-08,-0.0011013070463798,0.0011013109667546,-2.0920003163616e-08,2.5731815295258e-08,-0.0012215323948808,0.0012215112569493,-0.0012215169374466,0.0012215267550554,-0.0012215230938956,0.0012215205485653,-0.0012215076372092,0.0012215360345568,-0.0010980155373316,0.0010980623904654,-0.0010980428264389,0.0010980351219299,0.68048383098746,128566,2924,0.0045791955747739,0.0064344059314431,0.0045791955746744,18.671493957697,-9.0628048338427e-05,-9.0628048338427e-05,-9.0628048338427e-05,2612594.7810598,0.015715849805002
20219200,0.98657256198261,0.015909233638316,0.0048210778743976,0.0062670778896354,0.0048210778742835,-0.0011015593589856,0.0011015588434491,1.3813182789823e-08,-1.4328186468405e-08,5.0804665024067e-09,-5.7748166150223e-09,-0.0012218623206922,0.0012218747595548,-0.0012218717679135,0.0012218654559482,-0.0012218657950751,0.0012218711861533,-0.0012218751764139,0.0012218617981628,-0.0010983178812991,0.0010983413288569,-0.0010983453595841,0.0010983136509485,-4.7270119445004e-09,6.0685175137203e-09,2.4520549725567e-08,-2.338330301832e-08,-0.0015499885491752,0.001549989717596,-0.0016522237075361,0.0016522370299497,-0.0016522391568716,0.0016522210402321,-0.0016522202329692,0.0016522406163581,-0.0016522357016229,0.001652224611344,-0.0014334765834996,0.0014335283557046,-0.0014335229819192,0.0014334806368087,-0.0014335146309213,0.0014334893771969,-0.0014335040876465,0.0014335001901468,-1.2073295825464e-08,1.6121876959351e-08,-0.0011015571053384,0.0011015610970334,-2.120444250519e-08,2.6094116843636e-08,-0.0012218792207754,0.0012218578311606,-0.0012218635475202,0.0012218735450894,-0.0012218698129057,0.0012218672297511,-0.0012218541432241,0.0012218829286694,-0.0010983058428215,0.0010983532856623,-0.0010983334372571,0.0010983257116489,0.69908658965868,128566,2924,0.004580234984149,0.0064364737500563,0.0045802349840231,18.638413138957,-9.089269488834e-05,-9.089269488834e-05,-9.089269488834e-05,2609466.2509642,0.015720062843113
20419200,0.98689311251714,0.015914286983562,0.0048226004342283,0.0062690861152196,0.0048226004341144,-0.001101791756282,0.0011017912418092,1.3975668656695e-08,-1.4489633348454e-08,5.075795846717e-09,-5.7689771440612e-09,-0.0012222082135115,0.0012222207554998,-0.0012222177668528,0.0012222113469536,-0.0012222116821416,0.0012222171881459,-0.0012222211742864,0.0012222076900986,-0.0010985996951183,0.0010986234716441,-0.0010986274989339,0.0010985954703959,-4.7209325922205e-09,6.0616382192309e-09,2.4675114687949e-08,-2.3538588923501e-08,-0.0015504916532722,0.0015504928210179,-0.0016527162578838,0.0016527296837354,-0.0016527318054874,0.0016527135928835,-0.0016527127851165,0.0016527332682681,-0.0016527283568598,0.0016527171571636,-0.001433956432439,0.0014340085108999,-0.0014340031390855,0.0014339604775207,-0.0014339946728936,0.0014339693356931,-0.0014339841491176,0.0014339801283945,-1.2212405038415e-08,1.6299839645803e-08,-0.0011017894834882,0.0011017935145508,-2.1368669378466e-08,2.6301582225018e-08,-0.0012222252621061,0.0012222036791984,-0.001222209462936,0.0012222195191143,-0.0012222157461262,0.0012222131859216,-0.001222199955403,0.0012222290059073,-0.0010985875890257,0.0010986354969927,-0.0010986154867971,0.0010986076197857,0.69998400193029,128566,2924,0.0045812014698228,0.0064385531808886,0.0045812014697193,18.602182003594,-9.1182543971245e-05,-9.1182543971245e-05,-9.1182543971245e-05,2604618.6664368,0.015724139918255
20619200,0.98720537786936,0.015918688127951,0.0048239133708713,0.0062708613863217,0.0048239133707576,-0.0011019869110717,0.0011019863966781,1.4140651845256e-08,-1.4654531313214e-08,5.0752047141305e-09,-5.7682703214777e-09,-0.0012225212573803,0.0012225339164581,-0.0012225309283487,0.0012225243906497,-0.0012225247331716,0.0012225303421477,-0.001222534327812,0.001222520741601,-0.0010988307450743,0.0010988548228361,-0.0010988588496492,0.0010988265208801,-4.7224247880467e-09,6.0631411046129e-09,2.477044289862e-08,-2.3633921382984e-08,-0.0015509575321251,0.0015509586998701,-0.0016531747695351,0.0016531882647144,-0.0016531903864934,0.0016531721025741,-0.0016531713032578,0.0016531918427926,-0.0016531869293928,0.0016531756753081,-0.001434392560004,0.001434444804769,-0.0014344394297465,0.0014343966038743,-0.0014344309263749,0.0014344055012725,-0.0014344203777606,0.0014344163186103,-1.2362214838446e-08,1.6461143304734e-08,-0.0011019846324435,0.001101988675255,-2.1429322098096e-08,2.6375398406805e-08,-0.0012225384294913,0.0012225167168306,-0.0012225225929218,0.0012225325941427,-0.0012225288172831,0.0012225263197696,-0.001222512974225,0.0012225421921083,-0.0010988185981552,0.0010988668890397,-0.0010988468228405,0.0010988386849254,0.63099124112928,128566,2924,0.0045820133278556,0.0064404785497907,0.004582013327754,18.565827227164,-9.1473382182687e-05,-9.1473382182687e-05,-9.1473382182687e-05,2601082.488158,0.01572774654324
20819200,0.98749504556912,0.015923091255356,0.0048252360488501,0.0062726191577696,0.0048252360487364,-0.0011007225163531,0.0011007220066803,1.4314997851074e-08,-1.4824211388679e-08,5.0572212287655e-09,-5.745085862747e-09,-0.0012212559919839,0.0012212687585475,-0.0012212657804627,0.0012212591171111,-0.0012212594563892,0.0012212651961157,-0.0012212691638464,0.0012212554833427,-0.0010975445704011,0.0010975689972582,-0.0010975730066094,0.0010975403650064,-4.7000197262118e-09,6.0386073826895e-09,2.5015014724824e-08,-2.3880443556606e-08,-0.001549763881342,0.0015497650469685,-0.0016520056778769,0.0016520193499162,-0.001652021456065,0.0016520030211576,-0.0016520022286648,0.0016520229103294,-0.001652018012325,0.0016520065801181,-0.0014331914315799,0.0014332441342005,-0.001433238769783,0.0014331954516985,-0.0014332300851535,0.0014332045362817,-0.0014332195761193,0.0014332153133311,-1.2477918217257e-08,1.6642330698953e-08,-0.0011007202068653,0.0011007243160857,-2.1691243185057e-08,2.6709765817174e-08,-0.0012212733331545,0.0012212513907909,-0.0012212573010207,0.001221267463461,-0.0012212636239085,0.0012212610908987,-0.001221247581179,0.001221277162556,-0.0010975323189084,0.0010975811691544,-0.0010975608399,0.0010975526683875,0.67642717393159,128566,2924,0.004576768379662,0.0064355377212057,0.0045767683794952,17.743325008002,-9.8053399935986e-05,-9.8053399935986e-05,-9.8053399935986e-05,2599002.574747,0.015712072419479
21019200,0.9877624925033,0.015927023896342,0.0048264142773714,0.0062741953417127,0.004826414277258,-0.001099272124411,0.0010992716184322,1.4388598455756e-08,-1.489420038034e-08,5.0436257886593e-09,-5.7275604283134e-09,-0.0012198472848942,0.0012198600724847,-0.0012198571005348,0.0012198504037468,-0.0012198507207818,0.0012198565436642,-0.001219860494271,0.0012198467583962,-0.0010960948463121,0.0010961194891592,-0.0010961234781811,0.0010960906483889,-4.7071243552879e-09,6.0480714093347e-09,2.5311483103742e-08,-2.4174558385012e-08,-0.0015484112726711,0.0015484124404375,-0.0016506528368308,0.0016506666784214,-0.0016506687838875,0.0016506501726255,-0.0016506493616575,0.0016506702657547,-0.0016506653567587,0.0016506537167841,-0.0014318290067607,0.0014318823578352,-0.0014318769835165,0.0014318330281417,-0.0014318680589892,0.0014318423567072,-0.0014318575956536,0.001431853088325,-1.2742551905288e-08,1.6874979184117e-08,-0.0010992698325302,0.0010992739102578,-2.15928706468e-08,2.6578357607054e-08,-0.0012198647073217,0.0012198426231811,-0.001219848730435,0.0012198586423095,-0.0012198548125014,0.001219852509744,-0.001219838867376,0.0012198684861695,-0.0010960825421766,0.0010961317094031,-0.0010961114874798,0.001096102782172,0.65601664803407,128566,2924,0.004570753168145,0.0064299373417493,0.0045707531680327,16.832822461303,-0.00010533742030957,-0.00010533742030957,-0.00010533742030957,2590100.8257431,0.015694165067747
21219200,0.98800959138768,0.015930680685857,0.0048275110351075,0.0062756586157541,0.0048275110349952,-0.0010978029630509,0.0010978024516704,1.4660099224135e-08,-1.5171011922502e-08,5.0627291012592e-09,-5.7524614830151e-09,-0.0012183864506765,0.0012183994580744,-0.0012183964778294,0.0012183895789711,-0.0012183899272345,0.0012183958839362,-0.0012183998579534,0.001218385948683,-0.0010946129079467,0.0010946379847812,-0.0010946420001698,0.001094608696907,-4.7029118585651e-09,6.0414137584861e-09,2.499544207252e-08,-2.3860933088226e-08,-0.0015469901725801,0.0015469913382515,-0.0016492394824232,0.0016492531477017,-0.0016492552558737,0.00164923682477,-0.0016492360392683,0.0016492567026045,-0.0016492518025256,0.0016492403931899,-0.0014304040760472,0.0014304567186893,-0.0014304513543639,0.0014304080987541,-0.0014304427081101,0.0014304171433416,-0.0014304321704538,0.0014304279481628,-1.2768497403799e-08,1.6941623943364e-08,-0.0010978006483562,0.0010978047663055,-2.1745434362142e-08,2.6774175432477e-08,-0.0012184040222584,0.0012183818604185,-0.0012183879591843,0.0012183979643546,-0.001218394123997,0.0012183917495897,-0.0012183780350587,0.0012184078678743,-0.001094600657994,0.00109465015517,-0.0010946297783966,0.0010946210550777,0.65967101810821,128566,2924,0.0045646592645639,0.0064240544045576,0.0045646592644449,15.919858603644,-0.00011264113117085,-0.00011264113117085,-0.00011264113117085,2583617.502101,0.015675810506823
21419200,0.98824136285611,0.015934134226265,0.0048285479112985,0.0062770384037807,0.0048285479111862,-0.0010967406113995,0.001096740095401,1.4756007130633e-08,-1.527144688892e-08,5.0805144698935e-09,-5.7753278966971e-09,-0.0012173388955225,0.0012173519575891,-0.0012173489669599,0.001217342031274,-0.0012173423648146,0.0012173483896462,-0.0012173523807681,0.0012173383675209,-0.0010935454505479,0.0010935707602993,-0.0010935747922707,0.0010935412200426,-4.7320247896556e-09,6.0732181760006e-09,2.4778249454252e-08,-2.3641362957884e-08,-0.0015459881780189,0.0015459893460359,-0.001648242482886,0.0016482559657313,-0.0016482580936985,0.0016482398091334,-0.0016482389993673,0.00164825956125,-0.0016482546406708,0.0016482433777667,-0.0014293968544854,0.001429449152143,-0.001429443769443,0.00142940090431,-0.0014294352431931,0.0014294098245586,-0.0014294247066079,0.0014294206305524,-1.3036451705312e-08,1.7118319621194e-08,-0.0010967383405106,0.001096742366259,-2.1398824846531e-08,2.6327561367921e-08,-0.0012173564919213,0.0012173343337877,-0.0012173406703431,0.0012173501955586,-0.0012173464255237,0.0012173443906045,-0.0012173306187045,0.0012173602267544,-0.0010935333042022,0.0010935828251279,-0.0010935628014317,0.0010935533485496,0.66373453851591,128566,2924,0.0045602529277288,0.0064199062128936,0.0045602529276707,15.231135866453,-0.00011815091306838,-0.00011815091306838,-0.00011815091306838,2578312.7620455,0.015662646342281
21619200,0.9884592335799,0.015937410087182,0.0048295324836602,0.0062783451199742,0.0048295324835479,-0.0010957157500599,0.0010957152297476,1.4904855140131e-08,-1.5424596338449e-08,5.0986187889219e-09,-5.7981787314433e-09,-0.0012163331975365,0.0012163463641259,-0.0012163433642116,0.0012163363432155,-0.0012163366777084,0.0012163427908875,-0.0012163467969366,0.001216332659941,-0.0010925171458275,0.0010925427492632,-0.0010925467945832,0.0010925128926794,-4.7505164342191e-09,6.096081389251e-09,2.4466936799817e-08,-2.3325925102588e-08,-0.0015450204208403,0.0015450215925011,-0.0016472782460398,0.0016472915069757,-0.0016472936477423,0.0016472755637562,-0.0016472747439299,0.0016472951223285,-0.0016472901880879,0.0016472791417876,-0.001428424299581,0.0014284760130506,-0.001428470623157,0.0014284283719036,-0.0014284623086035,0.0014284370730745,-0.0014284517488699,0.0014284479044674,-1.3242949191902e-08,1.7250858319653e-08,-0.0010957135141675,0.0010957174655187,-2.1118845052192e-08,2.5966449021931e-08,-0.0012163508346024,0.0012163286996786,-0.0012163352226074,0.0012163443541836,-0.0012163406501795,0.0012163388754395,-0.0012163250645474,0.0012163544935724,-0.0010925051309561,0.0010925546819463,-0.0010925349422638,0.0010925248883391,0.66920855247913,128566,2924,0.0045560021673369,0.0064158996277703,0.0045560021670848,14.566765891065,-0.00012346587287148,-0.00012346587287148,-0.00012346587287148,2572809.5641107,0.015649942337039
21819200,0.98866416475277,0.015940445689377,0.0048304439281762,0.0062795578331355,0.0048304439280652,-0.0010946799383801,0.001094679414813,1.5029580215851e-08,-1.5552481180044e-08,5.1101211060947e-09,-5.8132322510392e-09,-0.0012153209292702,0.0012153341656555,-0.0012153311584116,0.0012153240784883,-0.0012153243948516,0.0012153306006236,-0.0012153346211302,0.0012153203673879,-0.0010914788116776,0.001091504711054,-0.0010915087707754,0.0010914745496089,-4.7654432153927e-09,6.1099522200949e-09,2.4219871986418e-08,-2.3080002615057e-08,-0.0015440384549182,0.0015440396259649,-0.0016462970579438,0.0016463101255959,-0.0016463122791776,0.0016462943697283,-0.0016462935258643,0.0016463137701015,-0.001646308829419,0.0016462979363516,-0.0014274375628927,0.0014274888633858,-0.0014274834673829,0.0014274416517284,-0.0014274752697465,0.0014274502323438,-0.0014274647417055,0.0014274610327798,-1.346747344832e-08,1.7414739856933e-08,-0.0010946777318253,0.0010946816213136,-2.0877030204117e-08,2.5657286405007e-08,-0.0012153386149306,0.0012153164509567,-0.0012153231633112,0.0012153319434267,-0.0012153282804622,0.0012153267759042,-0.0012153128949101,0.0012153421911653,-0.0010914669057428,0.0010915165338835,-0.0010914970389976,0.0010914864211885,0.6598885475631,128566,2924,0.0045517060737304,0.0064118340574498,0.004551706073623,13.90307935039,-0.00012877536519688,-0.00012877536519688,-0.00012877536519688,2566785.2989418,0.015637086642781
22019200,0.98886875919181,0.015943427244485,0.0048313382586128,0.0062807507273709,0.0048313382585017,-0.0010953345031686,0.0010953339709467,1.5229486415346e-08,-1.5760945785424e-08,5.1445576458174e-09,-5.8571140783619e-09,-0.0012160121572577,0.0012160255695157,-0.0012160225436313,0.0012160153227648,-0.0012160156708411,0.0012160219553902,-0.0012160260100671,0.0012160116088561,-0.0010921493533499,0.0010921755511737,-0.0010921796446423,0.001092145056265,-4.800072763719e-09,6.1479286125304e-09,2.3717669091196e-08,-2.2574819480055e-08,-0.0015448262112481,0.0015448273853362,-0.0016470898319092,0.0016471025694223,-0.001647104749226,0.0016470871281408,-0.0016470862989997,0.0016471062157617,-0.0016471012531944,0.0016470907417568,-0.0014282103385252,0.0014282606096635,-0.001428255197671,0.0014282144650064,-0.0014282474377678,0.0014282225982157,-0.0014282367714856,0.0014282335377578,-1.3635856574302e-08,1.7480491365473e-08,-0.0010953323442974,0.0010953361297653,-2.046933168385e-08,2.5135854300006e-08,-0.0012160298546023,0.0012160078419543,-0.0012160147340864,0.0012160230033352,-0.0012160194643504,0.0012160182225419,-0.0012160043647126,0.0012160333520873,-0.0010921376532101,0.001092187167639,-0.0010921680828036,0.0010921567587762,0.64982378668017,128566,2924,0.0045544218310255,0.0064150943528259,0.0045544218309206,14.15319367639,-0.00012677445058888,-0.00012677445058888,-0.00012677445058888,2569220.1753985,0.015645914639662
22219200,0.98907421499776,0.015946397043154,0.0048322283511678,0.0062819403409296,0.0048322283510567,-0.0010961695452526,0.0010961690105888,1.5395713481848e-08,-1.5929578472642e-08,5.1547090245931e-09,-5.8699688456576e-09,-0.001216885633372,0.0012168991609746,-0.0012168961289767,0.0012168888032781,-0.0012168891520459,0.0012168955395268,-0.0012168996050651,0.0012168850808498,-0.0010929932604418,0.0010930197800248,-0.0010930238845683,0.0010929889546196,-4.8083022145503e-09,6.1566303349341e-09,2.3427291467033e-08,-2.2284056545016e-08,-0.0015457985697374,0.0015457997442893,-0.0016480783933111,0.0016480909327435,-0.0016480931209745,0.0016480756876873,-0.0016480748533475,0.0016480945861409,-0.0016480896209448,0.0016480793053684,-0.0014291630274994,0.0014292127384929,-0.00142920732621,0.0014291671671863,-0.0014291997597917,0.0014291751019834,-0.0014291890807462,0.00142918605436,-1.3812635726822e-08,1.7611446749875e-08,-0.0010961674084696,0.0010961711473262,-2.0282980137821e-08,2.4898292537545e-08,-0.0012169033923719,0.0012168813708757,-0.0012168884109531,0.0012168963929079,-0.0012168928979959,0.0012168918555952,-0.0012168779400626,0.0012169068426425,-0.0010929816657964,0.0010930312915378,-0.0010930123933505,0.0010930005853615,0.64497435130241,128566,2924,0.0045578859780736,0.0064191190300517,0.0045578859779835,14.499460876457,-0.00012400431298835,-0.00012400431298835,-0.00012400431298835,2574161.4264317,0.01565703931757
22419200,0.98928047244092,0.015949510133296,0.00483316473916,0.0062831806550869,0.0048331647390488,-0.0010970167216156,0.0010970161891413,1.5566525995651e-08,-1.6098232513813e-08,5.1469216103793e-09,-5.8598003145933e-09,-0.0012177660086305,0.001217779651958,-0.0012177766238628,0.001217769174828,-0.0012177695283407,0.0012177760305251,-0.0012177800873993,0.0012177654647389,-0.0010938495634243,0.001093876404147,-0.0010938805002667,0.0010938452652089,-4.800958193258e-09,6.1490611891074e-09,2.3406203518314e-08,-2.2263122756058e-08,-0.0015467780934932,0.0015467792677882,-0.0016490777556986,0.0016490902926073,-0.0016490924763829,0.0016490750548423,-0.0016490742270783,0.0016490939346859,-0.0016490889747773,0.0016490786740991,-0.0014301218772915,0.0014301715222516,-0.0014301661162509,0.0014301260118788,-0.0014301585728673,0.0014301339230876,-0.0014301478889629,0.0014301448797035,-1.3967655212225e-08,1.7759536025154e-08,-0.0010970145894191,0.0010970183212893,-2.0250892247084e-08,2.4858359556424e-08,-0.0012177838642802,0.0012177617653246,-0.0012177689133261,0.0012177767570881,-0.0012177732752835,0.0012177723446768,-0.0012177583350658,0.0012177873146183,-0.0010938379866209,0.001093887897927,-0.0010938690299084,0.0010938568755194,0.67139353818459,128566,2924,0.0045614003766454,0.0064231734994166,0.0045614003765489,14.848436585621,-0.00012121250731503,-0.00012121250731503,-0.00012121250731503,2579278.8758448,0.015668296339507
22619200,0.98948729006744,0.015952667907635,0.0048341151903344,0.0062844375270776,0.0048341151902232,-0.0010978451213632,0.0010978445930949,1.5707146732234e-08,-1.6234691185635e-08,5.131257513085e-09,-5.8395224531857e-09,-0.0012186612102082,0.0012186749266356,-0.0012186719067322,0.0012186643689817,-0.0012186647065076,0.0012186713286873,-0.0012186753698343,0.0012186606591206,-0.0010947038737777,0.0010947310359403,-0.0010947351165359,0.0010946995920133,-4.7814610072954e-09,6.1274554149137e-09,2.356126476177e-08,-2.2420096541499e-08,-0.0015477785256514,0.001547779698068,-0.0016500856511434,0.0016500982908974,-0.0016501004613401,0.0016500829604707,-0.0016500821241978,0.0016501019306483,-0.0016500969846732,0.0016500865543483,-0.001431098570493,0.001431148540506,-0.0014311431464349,0.0014311026862861,-0.001431135441938,0.001431110761947,-0.0014311248323337,0.0014311216435154,-1.4132494861678e-08,1.7960189592642e-08,-0.0010978429731362,0.0010978467412662,-2.0381729960552e-08,2.5028458792868e-08,-0.0012186792015501,0.0012186569047071,-0.0012186641389064,0.0012186720080923,-0.0012186684792711,0.0012186676173913,-0.0012186534503771,0.0012186826757327,-0.0010946922282428,0.0010947425987922,-0.0010947235953239,0.0010947112526859,0.67880267573016,128566,2924,0.0045648377908809,0.0064273133860058,0.0045648377907697,15.1866236631,-0.0001185070106952,-0.0001185070106952,-0.0001185070106952,2580870.6745199,0.015679484622949
22819200,0.98969166591337,0.015955778765263,0.0048350510119707,0.0062856767414323,0.0048350510118596,-0.0010982573201491,0.0010982567991249,1.5885241418646e-08,-1.6405648366335e-08,5.1035669546431e-09,-5.8039673388995e-09,-0.0012191421271694,0.0012191559519507,-0.0012191529470089,0.0012191452733809,-0.0012191456091412,0.0012191523697658,-0.0012191563831629,0.0012191415899448,-0.0010951395878665,0.0010951671027544,-0.0010951711562891,0.0010951353351055,-4.7530968157432e-09,6.096507453588e-09,2.392117283212e-08,-2.2782274537916e-08,-0.0015483520137743,0.0015483531838969,-0.0016506633403825,0.0016506762414873,-0.0016506783909909,0.0016506606634231,-0.001650659838806,0.0016506798554673,-0.0016506749277375,0.0016506642433863,-0.0014316503250889,0.0014317009651012,-0.001431695585806,0.001431654411376,-0.0014316876274621,0.0014316627475503,-0.0014316770590173,0.001431673586876,-1.4235417345268e-08,1.815088387218e-08,-0.0010982551310894,0.0010982589881239,-2.0720910645521e-08,2.5464520352504e-08,-0.0012191603044498,0.0012191377452208,-0.001219144990634,0.0012191531002178,-0.0012191494902611,0.0012191485501443,-0.0012191341984333,0.0012191638716219,-0.001095127794924,0.001095178814345,-0.0010951594664156,0.0010951471634651,0.67691802735271,128566,2924,0.0045665489276977,0.0064296857284447,0.0045665489275756,15.303371283578,-0.00011757302973137,-0.00011757302973137,-0.00011757302973137,2580065.8094182,0.015685371096935
23019200,0.9898935255933,0.01595863463246,0.0048359045970709,0.0062868254384295,0.0048359045969599,-0.0010986430263696,0.0010986425103159,1.606060429799e-08,-1.6576090759527e-08,5.0841034514088e-09,-5.7790766644689e-09,-0.0012195931187981,0.0012196070552511,-0.0012196040612141,0.0012195962561615,-0.0012195965927854,0.0012196034818992,-0.0012196074758344,0.0012195925932538,-0.0010955428878914,0.0010955707420759,-0.0010955747769382,0.0010955386554444,-4.7323863689625e-09,6.0736363494022e-09,2.4267189025856e-08,-2.3130259368865e-08,-0.001548895487109,0.0015488966552313,-0.0016512124185451,0.0016512255670867,-0.0016512277006407,0.0016512097503748,-0.0016512089372933,0.0016512291602384,-0.0016512242451635,0.0016512133219092,-0.00143217027694,0.0014322215629275,-0.0014322161920511,0.0014321743387539,-0.0014322080015648,0.0014321829138881,-0.0014321974567426,0.0014321937284491,-1.4344951098308e-08,1.8338183942681e-08,-0.0010986408004105,0.0010986447362172,-2.1027253099852e-08,2.5856835299873e-08,-0.0012196114763079,0.0012195886693823,-0.0012195959367804,0.0012196042497688,-0.0012196005693878,0.0012195995669522,-0.0012195850393515,0.001219615126564,-0.0010955309557701,0.0010955825935825,-0.0010955629366556,0.0010955506332535,0.63260002816866,128566,2924,0.0045681500376036,0.0064319339388775,0.0045681500374879,15.414611882382,-0.00011668310494095,-0.00011668310494095,-0.00011668310494095,2579843.342499,0.01569090795609
23219200,0.99009286682518,0.015961583100454,0.0048367894816197,0.0062880041373252,0.0048367894815088,-0.0010990321420049,0.0010990316293234,1.6222115508573e-08,-1.6734275550691e-08,5.0713220544673e-09,-5.7625396830741e-09,-0.0012199885257096,0.0012200025638058,-0.0012199995769574,0.0012199916573939,-0.0012199919918199,0.0012199989989118,-0.0012200029801061,0.0012199880054189,-0.0010959254645158,0.0010959536401497,-0.0010959576625487,0.0010959212455862,-4.7184235782221e-09,6.0581733273751e-09,2.4562190429237e-08,-2.3426614227016e-08,-0.0015493755739371,0.0015493767407068,-0.0016517194531879,0.0016517328063278,-0.001651734928451,0.0016517167903478,-0.0016517159829497,0.0016517363881301,-0.0016517314810657,0.001651720353455,-0.0014326327949782,0.0014326846458396,-0.001432679279325,0.0014326368391528,-0.0014326708849516,0.0014326456243808,-0.0014326603636928,0.0014326564139247,-1.4476078940098e-08,1.8530029830853e-08,-0.0010990298869287,0.0010990338843442,-2.1267849295273e-08,2.6164765470239e-08,-0.0012200070485462,0.0012199840133614,-0.0012199913283342,0.0012199997744486,-0.0012199960355352,0.0012199950171121,-0.0012199803217111,0.0012200107603924,-0.0010959134118879,0.0010959656126546,-0.0010959457136081,0.0010959333314974,0.65900009816515,128566,2924,0.0045697638257192,0.0064339216190428,0.0045697638256087,15.525638276522,-0.00011579489378783,-0.00011579489378783,-0.00011579489378783,2584650.0132727,0.015696204641444
23419200,0.99029053769482,0.015964475230021,0.0048376565504254,0.0062891621292812,0.0048376565503145,-0.0010995454926035,0.0010995449791961,1.6374602677455e-08,-1.6887466024502e-08,5.073294082499e-09,-5.7653668962341e-09,-0.0012205452522974,0.0012205593944872,-0.0012205564069222,0.0012205483848309,-0.0012205487209408,0.0012205558265869,-0.0012205598099539,0.0012205447322926,-0.0010964497349917,0.0010964782041156,-0.0010964822288387,0.0010964455138212,-4.7215966241701e-09,6.0609944680147e-09,2.4683337357046e-08,-2.3548150483167e-08,-0.0015500234094565,0.0015500245758735,-0.0016523824012566,0.001652395832975,-0.0016523979561111,0.0016523797348362,-0.0016523789301521,0.0016523994154585,-0.0016523945052348,0.0016523833011102,-0.0014332578965274,0.0014333099842761,-0.0014333046124935,0.0014332619396411,-0.001433296147724,0.0014332707975444,-0.0014332856176865,0.0014332815970497,-1.4638645384678e-08,1.8704402351589e-08,-0.0010995432311673,0.0010995472405826,-2.1321209780206e-08,2.6231553057193e-08,-0.0012205638971879,0.0012205407221614,-0.0012205481375924,0.0012205565218944,-0.0012205527729889,0.0012205518367072,-0.0012205370173603,0.0012205676213285,-0.0010964376361118,0.0010964902222749,-0.0010964702715183,0.0010964576078614,0.65256368247088,128566,2924,0.0045718938585958,0.006436602550269,0.004571893858498,15.704230648188,-0.00011436615481449,-0.00011436615481449,-0.00011436615481449,2586408.8690235,0.015703255073413
23619200,0.99049071417263,0.015967472563978,0.0048385569229458,0.0062903587181978,0.0048385569228347,-0.0011006853422668,0.0011006848223643,1.6612290618228e-08,-1.7131618072889e-08,5.0980058058853e-09,-5.7972148287134e-09,-0.0012217301470003,0.0012217444647479,-0.0012217414654725,0.001221733292939,-0.0012217336371956,0.0012217408749016,-0.0012217448856286,0.0012217296257611,-0.0010976077291452,0.0010976366374021,-0.0010976406920582,0.0010976034882351,-4.7400417210968e-09,6.0812255137349e-09,2.4254618169064e-08,-2.3117781983511e-08,-0.0015513261977904,0.0015513273661288,-0.0016537038583766,0.0016537170014393,-0.0016537191399349,0.0016537011874433,-0.0016537003780383,0.0016537205941938,-0.0016537156735438,0.0016537047694258,-0.0014345348792129,0.0014345861265354,-0.0014345807518596,0.0014345389456528,-0.0014345725962609,0.0014345474839126,-0.0014345620178048,0.0014345583292729,-1.4711333330016e-08,1.8792861440217e-08,-0.0011006830700165,0.0011006870945945,-2.137338753427e-08,2.6299937720934e-08,-0.0012217489169602,0.0012217256681624,-0.0012217331231531,0.001221741503386,-0.0012217377416129,0.0012217368339529,-0.0012217219458205,0.0012217526598656,-0.0010975957428262,0.0010976485481547,-0.0010976285439716,0.0010976157680631,0.66669033882674,128566,2924,0.004576622567227,0.0064419946887577,0.0045766225671907,16.218444106732,-0.00011025244714614,-0.00011025244714614,-0.00011025244714614,2591505.4611757,0.015718338377485
23819200,0.99069336944759,0.015970673744487,0.0048395224171334,0.0062916289103312,0.0048395224170222,-0.00110185028989,0.0011018497668426,1.6735251595702e-08,-1.7257689644213e-08,5.1104094549421e-09,-5.8130704583936e-09,-0.0012229608611025,0.001222975267133,-0.0012229722594838,0.001222964011277,-0.0012229643582049,0.0012229716682426,-0.0012229756912024,0.0012229603339016,-0.0010988026133398,0.0010988317561117,-0.001098835821373,0.0010987983584435,-4.7589640687379e-09,6.1030368867653e-09,2.4207621035912e-08,-2.306805120687e-08,-0.0015526818790338,0.0015526830498358,-0.0016550723352902,0.0016550854324789,-0.0016550875828636,0.0016550696530011,-0.0016550688400848,0.0016550890401584,-0.0016550841046115,0.0016550732470073,-0.0014358635125107,0.0014359146878471,-0.0014359092962412,0.0014358675971486,-0.0014359011944653,0.0014358760830427,-0.0014358905796683,0.0014358869642891,-1.4947741910664e-08,1.8950407462854e-08,-0.0011018480558683,0.0011018520008987,-2.1073560823712e-08,2.5914052493625e-08,-0.0012229796672422,0.0012229564323557,-0.0012229640963583,0.0012229720445962,-0.0012229683594813,0.0012229677304416,-0.0012229527891943,0.0012229833301554,-0.001098790703635,0.0010988435873985,-0.0010988238881278,0.001098810424771,0.70079154353651,128566,2924,0.0045814558961693,0.0064476050931778,0.0045814558962486,16.741022133628,-0.00010607182293098,-0.00010607182293098,-0.00010607182293098,2594914.0363216,0.015733856565499
24019200,0.99089836353014,0.015973950010335,0.0048405109449355,0.0062929281205759,0.0048405109448237,-0.0011030138713161,0.0011030133463935,1.6863398243094e-08,-1.7387665551193e-08,5.1189757590654e-09,-5.823698023023e-09,-0.0012242327080016,0.0012242472035113,-0.0012242441909632,0.0012242358622607,-0.0012242362107812,0.001224243600273,-0.0012242476293419,0.0012242321764054,-0.0011000175505256,0.0011000469415863,-0.0011000510110962,0.0011000132829023,-4.7719125885225e-09,6.1164719247459e-09,2.4133303453263e-08,-2.2993465408062e-08,-0.0015540928193287,0.0015540939904392,-0.0016564792499315,0.0016564922874858,-0.0016564944465758,0.0016564765590972,-0.0016564757448678,0.0016564959053808,-0.0016564909612963,0.0016564801610001,-0.0014372450277184,0.0014372960689197,-0.0014372906692814,0.0014372491215231,-0.0014372826296727,0.0014372575449891,-0.0014372719946857,0.0014372684495639,-1.5170218875315e-08,1.9112780328433e-08,-0.0011030116665149,0.0011030155511487,-2.0847352056646e-08,2.5621984649102e-08,-0.0012242515666687,0.0012242283157003,-0.0012242361664941,0.0012242437567606,-0.0012242401295992,0.0012242397431821,-0.0012242247329302,0.0012242551694496,-0.0011000056926906,0.0011000587181646,-0.001100039249328,0.0011000251825511,0.70866200063143,128566,2924,0.0045862846642703,0.0064534427761111,0.0045862846641804,17.263925624284,-0.00010188859500573,-0.00010188859500573,-0.00010188859500573,2594669.1115472,0.015749597492728
24219200,0.9911043171138,0.01597709887633,0.0048414571486725,0.0062941845790966,0.0048414571485608,-0.0011039871115808,0.0011039865865142,1.7067350032249e-08,-1.7591743963619e-08,5.1198407435892e-09,-5.8246452160869e-09,-0.001225321456564,0.0012253360907123,-0.001225333078352,0.0012253246118553,-0.0012253249617436,0.0012253324845543,-0.0012253365155168,0.0012253209277288,-0.0011010402737971,0.0011010700578917,-0.0011010741307968,0.0011010360079519,-4.7644324605058e-09,6.1082628948791e-09,2.3967094952877e-08,-2.2827910830229e-08,-0.0015553233016057,0.0015553244720661,-0.0016577025065372,0.0016577154405495,-0.0016577175972639,0.0016576998224663,-0.0016576990087302,0.0016577190511508,-0.0016577141148864,0.0016577034210444,-0.0014384459084627,0.0014384966122587,-0.0014384912228606,0.0014384500006779,-0.0014384832837643,0.0014384583188082,-0.001438472658169,0.0014384692137376,-1.52773748851e-08,1.9240539583275e-08,-0.0011039848964657,0.0011039888015792,-2.0916074444754e-08,2.5712507159093e-08,-0.0012253404390835,0.0012253170797023,-0.0012253249883457,0.0012253325713249,-0.0012253289258816,0.001225328583257,-0.0012253134744898,0.0012253440642024,-0.0011010284585932,0.0011010817942901,-0.0011010622510669,0.0011010480230613,0.68010062813248,128566,2924,0.0045903240390437,0.0064585331691141,0.0045903240389448,17.691884280929,-9.846492575257e-05,-9.846492575257e-05,-9.846492575257e-05,2593756.4181404,0.015762976033402
24419200,0.99130807795294,0.015980210870908,0.0048423919869539,0.0062954268971122,0.0048423919868422,-0.0011045184008281,0.0011045178799251,1.7238791971128e-08,-1.7759066242345e-08,5.1040467593291e-09,-5.8043153211512e-09,-0.0012259224370996,0.0012259371772944,-0.0012259341731488,0.0012259255848271,-0.0012259259315312,0.0012259335818858,-0.0012259375971548,0.0012259219138539,-0.0011015963620843,0.0011016264899101,-0.0011016305481808,0.0011015921136687,-4.7490420694952e-09,6.0914171425053e-09,2.4060129645614e-08,-2.2922254517035e-08,-0.0015560469878731,0.0015560481569754,-0.0016584327330126,0.001658445740564,-0.0016584478871919,0.0016584300570971,-0.0016584292467708,0.001658449339216,-0.0016584444140985,0.0016584336461338,-0.0014391458898005,0.0014391967620579,-0.0014391913816976,0.0014391499672283,-0.0014391833655477,0.0014391583658036,-0.0014391727671711,0.001439169231606,-1.5413834414362e-08,1.940793240784e-08,-0.0011045161721493,0.0011045201085471,-2.1039588396134e-08,2.5870068186975e-08,-0.0012259415542227,0.0012259180319923,-0.001225926011458,0.0012259336155866,-0.0012259299407999,0.0012259296358738,-0.001225914394942,0.0012259452111629,-0.0011015845069572,0.0011016382677475,-0.0011016186008737,0.0011016041949466,0.67934589115017,128566,2924,0.0045925291256168,0.006461527085368,0.0045925291255037,17.884597838812,-9.6923217289501e-05,-9.6923217289501e-05,-9.6923217289501e-05,2594607.3382823,0.015770497715965
24619200,0.99150953379925,0.015983434381478,0.0048433638917657,0.0062967065980582,0.004843363891654,-0.0011050432237564,0.0011050427062167,1.7331898649743e-08,-1.7848842017156e-08,5.0910385660054e-09,-5.7876308759084e-09,-0.0012265082106346,0.0012265230015005,-0.0012265200034371,0.0012265113514097,-0.0012265116916407,0.0012265194203026,-0.0012265234213316,0.0012265076859009,-0.0011021477535958,0.0011021780852636,-0.0011021821277058,0.0011021435156145,-4.7399533706193e-09,6.0813187625333e-09,2.4311812782573e-08,-2.3174849096739e-08,-0.0015567554191794,0.0015567565874062,-0.0016591474649898,0.0016591606400556,-0.0016591627781093,0.0016591447916042,-0.0016591439808896,0.0016591642361975,-0.0016591593153778,0.0016591483702408,-0.0014398332100766,0.00143988458238,-0.0014398792036072,0.0014398372745821,-0.0014398710024129,0.001439845864316,-0.0014398604347045,0.0014398566993341,-1.5648685631116e-08,1.9632815961478e-08,-0.0011050410015794,0.0011050449283424,-2.1012306664278e-08,2.5832846488858e-08,-0.0012265274259966,0.0012265037575232,-0.0012265118997305,0.0012265193246292,-0.0012265156555969,0.0012265155184479,-0.0012265001342628,0.0012265310692167,-0.0011021357955599,0.0011021899633502,-0.0011021703279375,0.0011021554519358,0.70944457775832,128566,2924,0.0045947072807753,0.0064644580431434,0.0045947072806736,18.071431872335,-9.5428545021322e-05,-9.5428545021322e-05,-9.5428545021322e-05,2595294.9703339,0.015777900598364
24819200,0.99170864834855,0.015986386637842,0.0048442480017036,0.0062978906345463,0.004844248001592,-0.0011055510895458,0.0011055505736819,1.7546142183033e-08,-1.8061405157099e-08,5.084565175888e-09,-5.7791808864027e-09,-0.0012271156739421,0.0012271306075164,-0.0012271276136948,0.0012271188121617,-0.0012271191538282,0.00122712702756,-0.0012271310229044,0.0012271151553641,-0.0011026935895416,0.0011027243356035,-0.0011027283728878,0.0011026893595795,-4.7302445518642e-09,6.0706765990558e-09,2.4311245502903e-08,-2.3175107319262e-08,-0.0015574900999684,0.0015574912673563,-0.0016598760261412,0.0016598892094234,-0.0016598913420062,0.0016598733591272,-0.0016598725526126,0.0016598927950271,-0.0016598878819373,0.0016598769345357,-0.0014405415035726,0.0014405928564955,-0.0014405874865082,0.0014405455616605,-0.0014405792817252,0.0014405541528205,-0.0014405687233653,0.0014405649785824,-1.5736181280708e-08,1.9761116044031e-08,-0.001105548847673,0.0011055528155048,-2.1170868780726e-08,2.6035964373313e-08,-0.0012271350346831,0.0012271112190102,-0.0012271193928199,0.001227126901764,-0.0012271231962127,0.0012271230480377,-0.0012271075517403,0.001227138721956,-0.0011026816482246,0.001102736198302,-0.0011027164021336,0.0011027014655727,0.66112226850929,128566,2924,0.0045968159751378,0.0064674964729973,0.004596815975039,18.258036971572,-9.3935704227424e-05,-9.3935704227424e-05,-9.3935704227424e-05,2593220.2134409,0.015785272498074
25019200,0.99190765669106,0.015989301929423,0.0048451201741482,0.0062990615812381,0.0048451201740367,-0.0011063985191267,0.0011063980019009,1.7674033237758e-08,-1.8190659611984e-08,5.0897673311422e-09,-5.7860262723397e-09,-0.0012280068571133,0.0012280218772175,-0.0012280188803408,0.0012280099978134,-0.0012280103390668,0.001228018295134,-0.0012280222954183,0.0012280063351181,-0.0011035540894494,0.0011035850869254,-0.0011035891290704,0.0011035498537227,-4.7374839525878e-09,6.0785384110593e-09,2.4311950079319e-08,-2.3175272354397e-08,-0.0015585156900949,0.001558516858033,-0.0016609190363878,0.0016609322144994,-0.0016609343512458,0.001660916364628,-0.0016609155559067,0.0016609358070355,-0.0016609308883277,0.0016609199433184,-0.0014415420933597,0.0014415934584703,-0.0014415880819522,0.001441546156016,-0.0014415798822406,0.0014415547436921,-0.0014415693143764,0.0014415655789371,-1.5940296689591e-08,1.9942559060152e-08,-0.0011063962879203,0.0011064002330593,-2.1091669481975e-08,2.5932369754031e-08,-0.0012280263072582,0.0012280023990292,-0.0012280107238306,0.0012280180233217,-0.0012280143382929,0.0012280143584961,-0.0012279987560575,0.0012280299701746,-0.0011035421290652,0.0011035969682645,-0.0011035772555068,0.0011035618628875,0.65362536764812,128566,2924,0.0046003316163531,0.0064717409665891,0.0046003316162584,18.629333796411,-9.0965329628713e-05,-9.0965329628713e-05,-9.0965329628713e-05,2598271.8138969,0.015796726559065
25219200,0.99210976382984,0.015992364635441,0.0048460390962471,0.0063002864430584,0.0048460390961356,-0.0011077558960339,0.0011077553751967,1.7800449234916e-08,-1.8320636042281e-08,5.1038174061059e-09,-5.804054390946e-09,-0.0012294071528483,0.0012294222627874,-0.0012294192580915,0.0012294102999874,-0.0012294106424377,0.001229418673076,-0.0012294226868296,0.0012294066237174,-0.0011049288995633,0.0011049601431195,-0.0011049641977097,0.001104924648072,-4.7560192093484e-09,6.098777777937e-09,2.4211795759906e-08,-2.307359486028e-08,-0.0015600673028105,0.0015600684723298,-0.0016624945445989,0.0016625076412909,-0.0016625097900381,0.0016624918626652,-0.0016624910485603,0.0016625112498051,-0.0016625063175203,0.0016624954513621,-0.0014430650637535,0.0014431162543786,-0.0014431108665563,0.0014430691436677,-0.0014431027475516,0.0014430776475864,-0.0014430921515451,0.0014430885131047,-1.6159725239376e-08,2.0109711924941e-08,-0.0011077536894069,0.001107757581786,-2.0890853472472e-08,2.5674332096908e-08,-0.0012294266633384,0.0012294027235764,-0.0012294112287699,0.0012294181990713,-0.0012294145627139,0.001229414814589,-0.0012293991353911,0.0012294302715604,-0.0011049169785042,0.0011049719833703,-0.001104952474419,0.0011049365086139,0.67454672871201,128566,2924,0.0046059623127545,0.0064781630076044,0.0046059623126813,19.269923533951,-8.5840611728393e-05,-8.5840611728393e-05,-8.5840611728393e-05,2606031.680652,0.015814689706448
25419200,0.99231485452899,0.015995736300088,0.004847057022798,0.0063016222546032,0.0048470570226866,-0.0011091420825961,0.0011091415593584,1.7995340895791e-08,-1.8517891613776e-08,5.1135047660626e-09,-5.8163446985443e-09,-0.0012308636014208,0.0012308788501961,-0.0012308758406431,0.0012308667534848,-0.0012308671014118,0.0012308752494901,-0.0012308792733235,0.0012308630735655,-0.0011063504175633,0.0011063820258174,-0.0011063860907121,0.0011063461570837,-4.7635513237769e-09,6.107081061748e-09,2.4037614876189e-08,-2.2898743047942e-08,-0.0015616818737596,0.0015616830439133,-0.001664123980111,0.0016641369605166,-0.0016641391160227,0.0016641212954771,-0.0016641204824832,0.0016641405709123,-0.00166413563479,0.0016641248929038,-0.0014446500491256,0.0014447008922535,-0.0014446955022168,0.0014446541388608,-0.0014446875154037,0.0014446625066889,-0.0014446768940455,0.0014446733980927,-1.6290396928778e-08,2.0229872938983e-08,-0.0011091398801695,0.0011091437617372,-2.0846454112784e-08,2.5617805465756e-08,-0.001230883209555,0.0012308592133775,-0.0012308678127129,0.001230874651056,-0.0012308710285274,0.0012308713847471,-0.001230855632014,0.0012308868107837,-0.0011063385736997,0.0011063937895681,-0.0011063743248713,0.0011063580596251,0.7278918918873,128566,2924,0.0046117132587754,0.006484844691831,0.0046117132586809,19.917270316551,-8.066183746759e-05,-8.066183746759e-05,-8.066183746759e-05,2611090.2366222,0.015833161844118
25619200,0.99252271332021,0.015999174677494,0.004848094826476,0.0063029850246536,0.0048480948263645,-0.001110523752189,0.0011105232280592,1.8146317501357e-08,-1.8669750570005e-08,5.1174482410627e-09,-5.8213652599343e-09,-0.0012323823384953,0.0012323976895767,-0.0012323946775939,0.0012323854924353,-0.0012323858407142,0.0012323940864752,-0.0012323981139349,0.0012323818089271,-0.001107800206283,0.0011078321086839,-0.001107836177173,0.0011077959417638,-4.7685762164463e-09,6.1125223614024e-09,2.3982937348668e-08,-2.2843702293223e-08,-0.0015633777204093,0.001563378890927,-0.001665808300737,0.0016658212417769,-0.0016658234008554,0.0016658056134017,-0.0016658047989643,0.0016658248563271,-0.0016658199169406,0.0016658092137452,-0.0014463122155193,0.0014463629566193,-0.0014463575632656,0.0014463163096692,-0.0014463496173515,0.001446324636618,-0.0014463389873218,0.0014463355365736,-1.6469609964723e-08,2.0390787401535e-08,-0.0011105215585659,0.001110525421634,-2.0770340233834e-08,2.5521515203521e-08,-0.0012324020351573,0.0012323779639571,-0.001232386694851,0.0012323933450564,-0.0012323897399464,0.0012323902494761,-0.0012323744012924,0.0012324056176307,-0.0011077883813383,0.0011078438532794,-0.0011078244641164,0.0011078077917149,0.73243472979007,128566,2924,0.0046174471990222,0.0064918605125491,0.0046174471989266,20.564870618121,-7.5481035055036e-05,-7.5481035055036e-05,-7.5481035055036e-05,2610657.4016352,0.015851940664071
25819200,0.99272795542715,0.016002477056824,0.0048490887817671,0.0063042994934007,0.0048490887816557,-0.0011111325604747,0.001111132039637,1.8342770858143e-08,-1.8862957684084e-08,5.1047631593039e-09,-5.8049678316292e-09,-0.0012331206106115,0.0012331360886317,-0.0012331330834943,0.001233123758564,-0.0012331241069819,0.0012331324922417,-0.0012331365066774,0.0012331200876715,-0.0011084651042361,0.0011084973911703,-0.0011085014463628,0.0011084608518379,-4.7426210744169e-09,6.0839964550257e-09,2.4206255882675e-08,-2.3069331395526e-08,-0.0015642724208897,0.0015642735891162,-0.0016666889670169,0.0016667020752327,-0.0016667042161184,0.0016666862931503,-0.0016666854862904,0.0016667056681726,-0.0016667007465764,0.0016666898784277,-0.0014471783137633,0.0014472294651403,-0.0014472240877844,0.0014471823828195,-0.0014472159722651,0.0014471908839087,-0.0014472053857407,0.0014472017390819,-1.6580725150096e-08,2.0532577692952e-08,-0.0011111303528654,0.0011111342472009,-2.0895769615993e-08,2.5681218880305e-08,-0.0012331404433674,0.0012331162274001,-0.0012331250120714,0.0012331316995944,-0.0012331280673311,0.0012331285937406,-0.0012331126310557,0.0012331440595727,-0.0011084532803045,0.0011085091340514,-0.0011084896206069,0.0011084728152669,0.71386317253546,128566,2924,0.0046199753305587,0.006495560199696,0.0046199753304692,20.804620188955,-7.3563038488363e-05,-7.3563038488363e-05,-7.3563038488363e-05,2607463.6981679,0.015860837532086
26019200,0.99292603447243,0.01600553505397,0.0048500057660495,0.0063055235219827,0.0048500057659381,-0.0011110417819267,0.0011110412680938,1.8506643963969e-08,-1.9019896715158e-08,5.0776984432484e-09,-5.770261838697e-09,-0.0012331181517494,0.0012331337226293,-0.0012331307324192,0.0012331212874358,-0.0012331216276832,0.0012331301473146,-0.0012331341352522,0.0012331176363985,-0.0011084050524912,0.0011084376812765,-0.001108441710814,0.0011084008291815,-4.7203323794389e-09,6.0595934838138e-09,2.4447762283409e-08,-2.331272171706e-08,-0.0015643949378113,0.0015643961041297,-0.0016668062075614,0.0016668194877747,-0.0016668216130744,0.0016668035448613,-0.0016668027415467,0.0016668230655637,-0.0016668181589452,0.0016668071142151,-0.0014472790692406,0.0014473306801444,-0.0014473253142178,0.0014472831152621,-0.001447317011893,0.0014472918086068,-0.0014473064708916,0.0014473026158596,-1.6701370029136e-08,2.0733526608552e-08,-0.0011110395372002,0.0011110435127714,-2.1211494777924e-08,2.6085357608275e-08,-0.0012331381651465,0.0012331136820533,-0.0012331224945954,0.0012331293935184,-0.0012331256815305,0.001233126156171,-0.0012331100065689,0.0012331418605395,-0.0011083930834,0.0011084495711166,-0.0011084297381509,0.001108412937693,0.68688289837212,128566,2924,0.0046196008100311,0.0064960647312067,0.0046196008099345,20.675915091921,-7.4592679264634e-05,-7.4592679264634e-05,-7.4592679264634e-05,2603795.7324546,0.015860590327127
26219200,0.9931171305456,0.016008663337042,0.0048509485242825,0.0063067662885888,0.0048509485241712,-0.001110938426949,0.0011109379161294,1.8659409755105e-08,-1.9169685457232e-08,5.0657518412604e-09,-5.75502747192e-09,-0.0012330570030417,0.0012330726679472,-0.0012330696843746,0.001233060133244,-0.0012330604693691,0.0012330691025397,-0.0012330730788429,0.0012330564903421,-0.0011083183900559,0.0011083513294748,-0.0011083553482072,0.0011083141798629,-4.711036294075e-09,6.049344369329e-09,2.4616761950879e-08,-2.3482578925921e-08,-0.001564449747217,0.00156445091266,-0.0016668671641108,0.001666880561675,-0.0016668826795767,0.0016668645052142,-0.0016668637036917,0.0016668841335861,-0.0016668792326293,0.0016668680672724,-0.0014473191099505,0.0014473710489129,-0.0014473656866567,0.0014473231449793,-0.0014473572601352,0.0014473319654341,-0.0014473467406232,0.0014473427510977,-1.6848563135561e-08,2.0926190395514e-08,-0.0011109361606867,0.0011109401823426,-2.1396706084552e-08,2.6321049850753e-08,-0.0012330771682033,0.0012330524761782,-0.0012330613571216,0.0012330683281537,-0.0012330645705747,0.0012330650643797,-0.0012330487565864,0.0012330809077448,-0.0011083063194518,0.0011083633220765,-0.0011083433044607,0.0011083263581948,0.72524659341691,128566,2924,0.0046191730813173,0.0064962904032074,0.0046191730812205,20.537903041867,-7.5696775665067e-05,-7.5696775665067e-05,-7.5696775665067e-05,2602718.9793188,0.015859950695225
26419200,0.99330152561718,0.016011769504643,0.0048518864808564,0.0063079965430412,0.0048518864807451,-0.0011108321105795,0.0011108316004434,1.8810482066477e-08,-1.932006590552e-08,5.0626512181404e-09,-5.7509985234133e-09,-0.0012330341977747,0.0012330499611632,-0.0012330469794789,0.0012330373262733,-0.0012330376616988,0.001233046398551,-0.0012330503716555,0.0012330336853151,-0.0011082506527241,0.0011082838910792,-0.0011082879062699,0.0011082464449652,-4.7059703828351e-09,6.0437275256844e-09,2.4774992382636e-08,-2.364131731122e-08,-0.0015645450932766,0.0015645462582285,-0.0016669508704742,0.0016669643756448,-0.0016669664887698,0.0016669482129563,-0.0016669474133149,0.0016669679441581,-0.0016669630455246,0.0016669517711469,-0.0014473986304602,0.0014474508774427,-0.0014474455159237,0.0014474026581441,-0.0014474369802994,0.0014474115910868,-0.0014474264716975,0.0014474223650691,-1.7012860968088e-08,2.110283789519e-08,-0.0011108298383089,0.0011108338726647,-2.146357564385e-08,2.6402157856725e-08,-0.0012330544876477,0.0012330296447776,-0.0012330386271018,0.001233045546227,-0.0012330417761805,0.0012330423468374,-0.0012330259132036,0.0012330582391858,-0.0011082385342156,0.0011082959310324,-0.0011082758523718,0.0011082586341564,0.745027537403,128566,2924,0.004618734156157,0.0064966825169127,0.0046187341560595,20.399527727564,-7.6803778179485e-05,-7.6803778179485e-05,-7.6803778179485e-05,2597751.0180239,0.015859458393606
26619200,0.99348353937473,0.016014806842429,0.00485280274258,0.0063092013573797,0.0048528027424688,-0.0011113978504159,0.0011113973334577,1.8975510530484e-08,-1.9491869453151e-08,5.0877521764704e-09,-5.7836905993988e-09,-0.0012337141110118,0.001233730001171,-0.0012337270060127,0.0012337172512012,-0.0012337175958196,0.0012337264174351,-0.0012337304154851,0.0012337135928855,-0.0011088744554296,0.0011089079923821,-0.0011089120312116,0.0011088702194863,-4.7215309810578e-09,6.0607586053966e-09,2.4654839684866e-08,-2.3519856135304e-08,-0.0015653793553054,0.0015653805215603,-0.0016677632638877,0.0016677766818155,-0.0016677788054344,0.0016677605979119,-0.00166775979801,0.0016677802593925,-0.0016677753497788,0.0016677641688335,-0.0014482129941772,0.0014482650095881,-0.0014482596383816,0.0014482170362668,-0.0014482512080494,0.001448225861939,-0.0014482406629085,0.0014482366743051,-1.7197729982342e-08,2.1223893719401e-08,-0.0011113956068947,0.0011113995769298,-2.1230982556409e-08,2.6099937668916e-08,-0.0012337344563716,0.0012337096284383,-0.001233718775728,0.0012337253499426,-0.0012337216447447,0.0012337224304614,-0.0012337059580002,0.001233738146551,-0.0011088624534957,0.0011089199132515,-0.0011089000767007,0.001108882311681,0.73848438298175,128566,2924,0.0046210834630294,0.0065001322638007,0.0046210834629322,20.629546803416,-7.4963625572668e-05,-7.4963625572668e-05,-7.4963625572668e-05,2594570.6355643,0.015867737732704
26819200,0.99366537027744,0.016017765207199,0.0048536930651113,0.0063103790770872,0.0048536930650001,-0.0011123343104531,0.0011123337895291,1.9126050190589e-08,-1.964629517072e-08,5.1042503300605e-09,-5.8045400760498e-09,-0.0012347645038034,0.0012347805022924,-0.0012347774984599,0.0012347676522612,-0.0012347679988119,0.0012347769075725,-0.0012347809223537,0.0012347639802407,-0.0011098662699574,0.001109900094465,-0.0011099041498089,0.0011098620183965,-4.7518991376844e-09,6.0940276335213e-09,2.42799611625e-08,-2.3142387824232e-08,-0.0015666019817697,0.0015666031506495,-0.0016689698843868,0.0016689830322877,-0.0016689851785652,0.0016689672040373,-0.0016689663959523,0.0016689866330986,-0.0016689817038591,0.0016689707947102,-0.0014494127182926,0.0014494640235393,-0.0014494586368964,0.0014494167924968,-0.0014494504837874,0.001449425332808,-0.0014494398812892,0.0014494362035962,-1.7389051607465e-08,2.1370574495301e-08,-0.0011123320876962,0.0011123360122369,-2.1046059882494e-08,2.5865060751918e-08,-0.0012347849131387,0.0012347600653577,-0.0012347693696318,0.0012347756497393,-0.0012347719870277,0.0012347729818214,-0.0012347564409415,0.0012347885573677,-0.0011098543399959,0.0011099119438252,-0.0011098922891668,0.0011098740162849,0.72121903438349,128566,2924,0.0046249702297673,0.0065051896954586,0.0046249702296699,21.06390082543,-7.1488793396558e-05,-7.1488793396558e-05,-7.1488793396558e-05,2594752.7539719,0.015880773989513
27019200,0.99384692119763,0.016020635530886,0.0048545545363086,0.0063115264583801,0.0048545545361974,-0.0011132779306562,0.0011132774030794,1.9303732679127e-08,-1.9830542945653e-08,5.1299321517522e-09,-5.8375097074972e-09,-0.001235801487271,0.0012358176235293,-0.0012358146048932,0.0012358046468058,-0.0012358050052576,0.0012358140047536,-0.0012358180443248,0.0012358009595698,-0.0011108507913665,0.0011108849324494,-0.0011108890112391,0.0011108465113501,-4.7550583405258e-09,6.0973502051366e-09,2.4195945530238e-08,-2.3058254395627e-08,-0.0015678054372889,0.001567806606279,-0.0016701698146211,0.0016701829106731,-0.0016701850594423,0.0016701671327337,-0.001670166328324,0.0016701865094292,-0.0016701815786093,0.001670170729407,-0.001450591754294,0.0014506428851449,-0.0014506374975479,0.0014505958325796,-0.0014506294160449,0.0014506043018494,-0.0014506187955808,0.0014506151908636,-1.7574152553615e-08,2.1466523144474e-08,-0.0011132757495063,0.0011132795841948,-2.0703765616407e-08,2.5425304364929e-08,-0.0012358219235726,0.0012357971578336,-0.0012358066436641,0.0012358124784499,-0.0012358089078613,0.0012358101636814,-0.0012357936171216,0.0012358254834832,-0.0011108390491923,0.0011108965907466,-0.0011108772860116,0.0011108583766282,0.70228504051445,128566,2924,0.0046288860436171,0.0065101685045887,0.004628886043551,21.503464606781,-6.7972283145748e-05,-6.7972283145748e-05,-6.7972283145748e-05,2597087.439373,0.015893789090851
27219200,0.99402803513421,0.016023409188994,0.0048553845031457,0.0063126401828143,0.0048553845030344,-0.001114223225656,0.0011142227001155,1.9438654120548e-08,-1.99634410681e-08,5.1237593413218e-09,-5.8292596926472e-09,-0.0012368154152638,0.0012368316328392,-0.0012368286178949,0.0012368185730918,-0.0012368189232923,0.0012368280239221,-0.0012368320579392,0.0012368148858114,-0.0011118219749742,0.0011118563999627,-0.0011118604737479,0.0011118177037101,-4.7795786416827e-09,6.1243602906441e-09,2.3828732049063e-08,-2.2688800147377e-08,-0.0015689740157601,0.0015689751870026,-0.001671348503249,0.0016713613336981,-0.0016713635017534,0.0016713458107496,-0.0016713449947719,0.0016713649551793,-0.0016713600092169,0.0016713494199205,-0.0014517345544773,0.0014517849950946,-0.0014517795966005,0.001451738660197,-0.00145177176887,0.0014517468662288,-0.0014517611128272,0.0014517577920587,-1.7756266796681e-08,2.1659566828575e-08,-0.0011142210403255,0.0011142248853993,-2.0721490984674e-08,2.5453340289146e-08,-0.0012368359600031,0.0012368110596251,-0.0012368206599938,0.0012368264004441,-0.0012368228140411,0.0012368241958363,-0.0012368075135827,0.0012368395257588,-0.0011118101857844,0.0011118681078319,-0.0011118487746541,0.0011118295407127,0.6819177087644,128566,2924,0.00463280813351,0.0065150037979152,0.004632808133418,21.943232176587,-6.4454142587305e-05,-6.4454142587305e-05,-6.4454142587305e-05,2601098.2146167,0.015906670809213
27419200,0.99420713285197,0.016026239422956,0.0048562336661532,0.0063137720907607,0.004856233666042,-0.0011149312763703,0.0011149307512701,1.9616821996679e-08,-2.0141172956346e-08,5.1223954355544e-09,-5.8272742276547e-09,-0.0012375610690112,0.0012375774082414,-0.0012375743933554,0.0012375642252881,-0.00123756457963,0.0012375737966836,-0.0012375778284549,0.0012375605429673,-0.0011125410065322,0.0011125757707232,-0.0011125798426124,0.0011125367363358,-4.7634152857563e-09,6.1065505784833e-09,2.3962560790216e-08,-2.2824115815047e-08,-0.0015698574700462,0.0015698586398435,-0.0016722536152476,0.0016722665505243,-0.0016722687070244,0.001672250931223,-0.0016722501219089,0.0016722701566305,-0.0016722652217324,0.0016722545325049,-0.0014525942690427,0.0014526449517761,-0.0014526395634176,0.0014525983594464,-0.0014526316378565,0.0014526066668735,-0.0014526210041113,0.0014526175693285,-1.7908593735284e-08,2.1794203066026e-08,-0.0011149291001076,0.0011149329274942,-2.065380205476e-08,2.536659069091e-08,-0.0012375817036728,0.0012375567444156,-0.0012375664578132,0.0012375720310742,-0.0012375684658655,0.0012375699724,-0.0012375532119632,0.0012375852557073,-0.0011125292751945,0.0011125874201364,-0.001112568155997,0.0011125485613764,0.70214876694637,128566,2924,0.0046357454365866,0.0065186598863132,0.0046357454365115,22.251690641786,-6.1986474865715e-05,-6.1986474865715e-05,-6.1986474865715e-05,2605886.3280559,0.015916353136232
27619200,0.99438368777866,0.016029072962444,0.0048570847712809,0.0063149034199931,0.0048570847711697,-0.0011155641796072,0.0011155636594365,1.9760751207641e-08,-2.0280211940708e-08,5.1039342522165e-09,-5.8034866068796e-09,-0.0012382526438188,0.0012382690640933,-0.0012382660592786,0.0012382557919173,-0.0012382561364418,0.0012382654707131,-0.0012382694845711,0.0012382521194379,-0.0011131964510315,0.0011132315231593,-0.001113235577529,0.0011131922010176,-4.7556222745921e-09,6.0980598571631e-09,2.3996429885539e-08,-2.285860982369e-08,-0.0015706828153458,0.0015706839844728,-0.0016730918553617,0.001673104812914,-0.0016731069646054,0.0016730891757795,-0.0016730883630085,0.0016731084177093,-0.0016731034888453,0.001673092767618,-0.0014533941436832,0.0014534448989808,-0.001453439515867,0.0014533982272198,-0.001453431545339,0.0014534065795556,-0.0014534209394372,0.0014534174539267,-1.8062433916837e-08,2.200023659448e-08,-0.0011155619795031,0.0011155658594917,-2.0848448962842e-08,2.5618163155609e-08,-0.0012382734295205,0.0012382482501388,-0.0012382580319012,0.0012382636885699,-0.001238260067663,0.0012382616023126,-0.001238244670274,0.0012382770291344,-0.001113184604334,0.0011132432895299,-0.0011132238252758,0.0011132040902359,0.71252805426666,128566,2924,0.004638371681286,0.0065220747073295,0.0046383716811892,22.518761855552,-5.9849905155587e-05,-5.9849905155587e-05,-5.9849905155587e-05,2607884.4825996,0.015925158984547
27819200,0.99455763027489,0.016031911730058,0.0048579384725565,0.006316034785056,0.0048579384724453,-0.0011161960709516,0.0011161955507482,1.9967517754002e-08,-2.0487046357565e-08,5.1032517512447e-09,-5.8027822275744e-09,-0.0012389526148414,0.0012389691823723,-0.0012389661774343,0.0012389557617805,-0.0012389561172222,0.0012389655800984,-0.001238969592043,0.0012389520990891,-0.0011138575511954,0.0011138930000676,-0.0011138970512794,0.0011138532985691,-4.7320762554363e-09,6.0721718994342e-09,2.4319398381426e-08,-2.3183691081563e-08,-0.0015715156197138,0.0015715167867218,-0.0016739325722489,0.0016739457687411,-0.0016739479023086,0.0016739299031309,-0.0016739291058378,0.0016739493471059,-0.0016739444328154,0.0016739334880121,-0.0014542006040243,0.0014542519486043,-0.0014542465766386,0.0014542046614861,-0.0014542383959168,0.001454213232282,-0.0014542278101762,0.0014542240857817,-1.8183167455447e-08,2.2108742854923e-08,-0.0011161938767136,0.0011161977449365,-2.081424846735e-08,2.5571807853602e-08,-0.0012389734996938,0.0012389482686812,-0.0012389581386381,0.0012389636705643,-0.0012389600713011,0.0012389616873222,-0.0012389446908447,0.0012389770970903,-0.0011138457849036,0.0011139046829309,-0.0011138852590395,0.0011138652308668,0.72383354735316,128566,2924,0.0046409940507214,0.0065255199880474,0.004640994050623,22.784756242028,-5.7721950063772e-05,-5.7721950063772e-05,-5.7721950063772e-05,2608573.5238069,0.015933988226784
28019200,0.99472890466557,0.016034757558866,0.0048587953498456,0.0063171668592862,0.0048587953497344,-0.0011168271991811,0.0011168266822748,2.0117946370732e-08,-2.0634162556457e-08,5.0908347956753e-09,-5.7866913642569e-09,-0.0012396624360846,0.0012396790938541,-0.0012396760961198,0.0012396655777478,-0.0012396659267841,0.0012396755038949,-0.0012396795037049,0.0012396619215983,-0.0011145248991023,0.0011145606590762,-0.001114564697695,0.0011145206593649,-4.7256404022825e-09,6.0651461598305e-09,2.4395432290936e-08,-2.3260238281922e-08,-0.0015723592252868,0.0015723603917657,-0.0016747787758517,0.0016747920212806,-0.001674794150442,0.0016747761098261,-0.0016747753108105,0.0016747955979618,-0.0016747906879779,0.0016747796876563,-0.001455017816594,0.0014550693116848,-0.0014550639428045,0.001455021867236,-0.0014550556980411,0.0014550305039302,-0.0014550451316674,0.0014550413363915,-1.8334414244778e-08,2.230278665415e-08,-0.0011168249849621,0.0011168288964425,-2.0979051819779e-08,2.5783553144032e-08,-0.0012396834664109,0.0012396580356311,-0.0012396679784549,0.0012396735644589,-0.0012396699202686,0.0012396715721137,-0.0012396544181006,0.0012396871035834,-0.0011145130389662,0.001114572435848,-0.0011145528442813,0.001114532652778,0.73612508027744,128566,2924,0.0046436135930305,0.0065290095476181,0.0046436135929287,23.050708286166,-5.5594333710672e-05,-5.5594333710672e-05,-5.5594333710672e-05,2608077.6677574,0.015942857040376
28219200,0.99489679691487,0.016037601168056,0.0048596526223667,0.0063182959234332,0.0048596526222556,-0.0011173311363969,0.0011173306219894,2.0265444088068e-08,-2.0779229261347e-08,5.0808858463607e-09,-5.7741028816499e-09,-0.0012402551728723,0.0012402719198828,-0.0012402689279908,0.0012402583104529,-0.001240258652972,0.0012402683406944,-0.0012402723313612,0.0012402546586172,-0.0011150702615234,0.0011151063272032,-0.0011151103581728,0.0011150660340112,-4.7254357787689e-09,6.0648916279592e-09,2.4428111587312e-08,-2.3292964856148e-08,-0.0015730857146715,0.0015730868811474,-0.0016755017212871,0.0016755149856183,-0.0016755171145985,0.0016754990556259,-0.0016754982533881,0.0016755185654215,-0.0016755136554035,0.0016755026300293,-0.0014557195384529,0.0014557711077593,-0.0014557657383512,0.0014557235882406,-0.0014557574616975,0.0014557322564978,-0.0014557469051175,0.0014557430788331,-1.8488714659161e-08,2.2498689872362e-08,-0.0011173289024504,0.0011173328558864,-2.1138746367868e-08,2.5988758442796e-08,-0.0012402763484325,0.0012402507172773,-0.0012402607358209,0.0012402663708489,-0.001240262682293,0.0012402643738633,-0.0012402470618966,0.0012402800236587,-0.0011150583071108,0.0011151182007791,-0.0011150984457939,0.0011150780838393,0.7494891550024,128566,2924,0.0046457058876852,0.0065320139402465,0.0046457058875874,23.250626126884,-5.3994990984926e-05,-5.3994990984926e-05,-5.3994990984926e-05,2606254.4990825,0.015950161919275
28419200,0.99506121440796,0.016040443490615,0.0048605105979332,0.00631942229486,0.0048605105978221,-0.0011178121461882,0.0011178116304394,2.0427454847104e-08,-2.0942576058161e-08,5.0852908393684e-09,-5.7799569501062e-09,-0.0012408356736144,0.0012408525322894,-0.0012408495379487,0.001240838812925,-0.0012408391581157,0.0012408489486751,-0.0012408529436016,0.0012408351585708,-0.0011155999656107,0.0011156363424446,-0.0011156403777988,0.0011155957328447,-4.7219320705695e-09,6.0610228438538e-09,2.4529282661429e-08,-2.3394477949934e-08,-0.001573805075454,0.0015738062415469,-0.0016762104836492,0.0016762238195644,-0.0016762259451197,0.0016762078186809,-0.0016762070192482,0.0016762273956537,-0.0016762224874222,0.0016762113916118,-0.0014564157121598,0.0014564674754141,-0.001456462106703,0.0014564197570366,-0.0014564537628988,0.0014564284943966,-0.0014564432114364,0.0014564393125895,-1.8649358807493e-08,2.2655452085997e-08,-0.0011178099134222,0.0011178138631543,-2.1136488045681e-08,2.5982887167177e-08,-0.0012408569576485,0.0012408312208754,-0.0012408413488925,0.0012408468704689,-0.0012408431868011,0.0012408449821021,-0.001240827568251,0.0012408606299381,-0.0011155880135999,0.0011156482131754,-0.0011156284657213,0.0011156077828659,0.76402415044949,128566,2924,0.0046477034021056,0.0065349883895087,0.0046477034020044,23.441264311887,-5.2469885504902e-05,-5.2469885504902e-05,-5.2469885504902e-05,2603497.9941868,0.015957244052239
28619200,0.99522216206773,0.016043244805565,0.0048613563141969,0.0063205321772826,0.0048613563140858,-0.0011182835546523,0.0011182830406337,2.0570460829601e-08,-2.1083837985679e-08,5.079263961263e-09,-5.7720743331501e-09,-0.0012414191436284,0.0012414360897038,-0.0012414330992941,0.0012414222809343,-0.0012414226191012,0.0012414325148981,-0.0012414365046983,0.0012414186271968,-0.0011161267355016,0.0011161634097927,-0.0011161674412096,0.0011161225118931,-4.7354955680374e-09,6.0759618383601e-09,2.4397362286094e-08,-2.3261313400784e-08,-0.0015745344473446,0.0015745356146941,-0.001676922278992,0.0016769355130125,-0.0016769376487384,0.0016769196076133,-0.0016769188009888,0.0016769391030987,-0.0016769341858734,0.0016769231860296,-0.0014571232862199,0.0014571748132246,-0.0014571694370169,0.0014571273452164,-0.0014571611826179,0.0014571359889074,-0.0014571506153132,0.0014571468232193,-1.8810841406606e-08,2.2852457162197e-08,-0.0011182813049809,0.0011182852902552,-2.1267427799679e-08,2.6152186061746e-08,-0.0012414405666212,0.0012414146402482,-0.0012414248529355,0.0012414303947962,-0.0012414266719466,0.0012414285254053,-0.0012414109569911,0.0012414442697509,-0.0011161146957026,0.0011161753711007,-0.0011161554861053,0.0011161346021251,0.76896077914891,128566,2924,0.0046496614234153,0.0065380038139198,0.0046496614233165,23.6316479584,-5.0946816332802e-05,-5.0946816332802e-05,-5.0946816332802e-05,2600005.662442,0.015964287850139
28819200,0.99537967006733,0.016045913041953,0.0048621598408945,0.0063215933602748,0.0048621598407834,-0.0011187462785308,0.0011187457613198,2.0745464333305e-08,-2.1262021007685e-08,5.0905649650453e-09,-5.7868532977217e-09,-0.0012419958751534,0.0012420129478189,-0.0012420099508827,0.001241999017091,-0.0012419993623598,0.0012420093612409,-0.0012420133619309,0.0012419953577348,-0.0011166438726649,0.0011166808720159,-0.0011166849142348,0.0011166396359135,-4.7331660132626e-09,6.0733950432445e-09,2.4477482975403e-08,-2.3341657759201e-08,-0.0015752613264408,0.0015752624935477,-0.0016776301556829,0.0016776434508041,-0.0016776455836693,0.0016776274846353,-0.0016776266826257,0.0016776470358424,-0.0016776421195436,0.0016776310643033,-0.0014578284442362,0.0014578801188227,-0.0014578747429218,0.0014578324994549,-0.0014578664430262,0.0014578411906449,-0.0014578558726031,0.0014578520290125,-1.897307427573e-08,2.2979788975991e-08,-0.0011187440447587,0.0011187479950422,-2.1150562230725e-08,2.5997806614796e-08,-0.0012420173794177,0.0012419914161839,-0.0012420017596275,0.0012420070768523,-0.0012420033914531,0.0012420053945099,-0.0012419877642964,0.0012420210511197,-0.0011166319122237,0.0011166927527791,-0.0011166729950352,0.0011166516915377,0.74978433321757,128566,2924,0.0046515834098742,0.0065410088495346,0.0046515834097757,23.824240816301,-4.9406073469592e-05,-4.9406073469592e-05,-4.9406073469592e-05,2596882.7434007,0.015971247918733
29019200,0.99553487332117,0.01604839766662,0.0048629043565273,0.0063225889536764,0.0048629043564163,-0.0011194300196663,0.0011194294994797,2.0916263764503e-08,-2.1435726185609e-08,5.1026492078597e-09,-5.8021617578822e-09,-0.0012427707372469,0.0012427879324655,-0.0012427849287733,0.0012427738845243,-0.0012427742344871,0.0012427843346708,-0.0012427883466666,0.0012427702172326,-0.0011173686014082,0.0011174059206122,-0.0011174099733024,0.0011173643507815,-4.7402763985746e-09,6.0813314753214e-09,2.4407927840735e-08,-2.3271394499872e-08,-0.0015761881185476,0.0015761892861031,-0.0016785498325445,0.0016785630763777,-0.0016785652150272,0.0016785471564047,-0.0016785463559776,0.0016785666649366,-0.0016785617443653,0.0016785507427634,-0.0014587312790351,0.0014587828159726,-0.0014587774344345,0.0014587353415167,-0.0014587691955297,0.0014587439721773,-0.0014587586058542,0.0014587548308771,-1.9139452520014e-08,2.3111753948408e-08,-0.0011194278016609,0.0011194317174191,-2.1024818044653e-08,2.5834424200304e-08,-0.0012427923199619,0.0012427663216396,-0.0012427767978328,0.0012427818836844,-0.0012427782342046,0.0012427803977437,-0.0012427627013859,0.0012427959588422,-0.0011173567158623,0.0011174177244977,-0.0011173980964396,0.0011173763662031,0.71130252204842,128566,2924,0.0046544213992158,0.0065448421742233,0.0046544213990834,24.139898917417,-4.6880808660661e-05,-4.6880808660661e-05,-4.6880808660661e-05,2596954.4502973,0.015980910304732
29219200,0.99568772611538,0.016050784955248,0.0048636181128201,0.0063235487297187,0.0048636181127091,-0.0011201217786936,0.0011201212585243,2.105060805358e-08,-2.1570065501876e-08,5.1028602360196e-09,-5.8023987473483e-09,-0.0012435063083997,0.0012435235898762,-0.0012435205865178,0.0012435094565705,-0.0012435098028499,0.0012435199955861,-0.0012435240085652,0.0012435057863201,-0.0011180748917326,0.0011181124841931,-0.0011181165378186,0.0011180706423114,-4.751536537938e-09,6.0934411444969e-09,2.4234456867566e-08,-2.309715016727e-08,-0.0015770615969561,0.0015770627655669,-0.0016794379140708,0.0016794510324808,-0.0016794531794767,0.0016794352342643,-0.0016794344264916,0.0016794546324195,-0.0016794497045244,0.0016794388251888,-0.0014595810047728,0.0014596322181253,-0.0014596268328309,0.0014595850794194,-0.0014596187104462,0.0014595935887837,-0.0014596081067988,0.0014596044604436,-1.9326345868701e-08,2.3299034104736e-08,-0.0011201195607249,0.0011201234764405,-2.1012643960739e-08,2.5821959453748e-08,-0.0012435279947955,0.0012435018759882,-0.0012435124773858,0.0012435174341834,-0.0012435137807394,0.0012435160804013,-0.0012434982594019,0.0012435316310382,-0.0011180629689647,0.0011181243265364,-0.0011181047056964,0.0011180826116253,0.69516965970931,128566,2924,0.0046572913154538,0.0065484565048082,0.0046572913153494,24.458627773367,-4.4330977813066e-05,-4.4330977813066e-05,-4.4330977813066e-05,2600728.7041029,0.015990414106734
29419200,0.99583815688946,0.016052972549204,0.0048642677849127,0.0063244369794893,0.0048642677848017,-0.001120812924318,0.0011208124020314,2.1243040025356e-08,-2.1764617634764e-08,5.1107008709182e-09,-5.8126651914801e-09,-0.0012442230751853,0.001244240493905,-0.0012442374860698,0.0012442262267992,-0.0012442265797653,0.0012442368893832,-0.0012442409098513,0.0012442225547863,-0.0011187675914587,0.0011188055429108,-0.0011188096043417,0.0011187633336529,-4.7496498189877e-09,6.0913535555655e-09,2.4241107583568e-08,-2.3103993936962e-08,-0.0015779005447719,0.0015779017131824,-0.0016803013768464,0.0016803145058359,-0.0016803166513653,0.001680298697891,-0.0016802978948849,0.0016803181002168,-0.0016803131734483,0.001680302291614,-0.001460393337113,0.0014604445505328,-0.0014604391663175,0.0014603974097134,-0.0014604310495007,0.0014604059144653,-0.0014604204381849,0.0014604167947465,-1.9472597449812e-08,2.3408665208848e-08,-0.0011208107236237,0.0011208146026742,-2.0874870262925e-08,2.5644588643458e-08,-0.001244244836263,0.0012442187048716,-0.0012442294273735,0.0012442341545143,-0.0012442305411271,0.0012442329902062,-0.001244215119873,0.0012442484407192,-0.0011187557872752,0.0011188172662655,-0.0011187977864505,0.0011187752890194,0.65089856610542,128566,2924,0.0046601580778207,0.0065519286555487,0.0046601580777184,24.777476565274,-4.1780187477808e-05,-4.1780187477808e-05,-4.1780187477808e-05,2605511.4991529,0.015999766829957
29619200,0.99598601606571,0.016055090452495,0.0048648960187059,0.0063252984151942,0.004864896018595,-0.0011214944925013,0.0011214939696174,2.1372620181117e-08,-2.1894746324616e-08,5.1050507892302e-09,-5.807370603932e-09,-0.0012448761455738,0.0012448936424651,-0.0012448906393406,0.0012448792932964,-0.0012448796423991,0.0012448900455318,-0.001244894063737,0.0012448756209368,-0.0011194241548305,0.0011194623751359,-0.0011194664342361,0.0011194199007929,-4.753943909218e-09,6.0960822259313e-09,2.414293788282e-08,-2.3005438774402e-08,-0.0015786552360421,0.0015786564048417,-0.0016811030370896,0.0016811160940666,-0.001681118243362,0.0016811003566576,-0.0016810995479851,0.0016811196955558,-0.0016811147666354,0.0016811039493725,-0.0014611230494986,0.0014611740843884,-0.0014611686990478,0.001461127127787,-0.001461160639305,0.001461135573144,-0.0014611500306314,0.0014611464502155,-1.9663592246699e-08,2.3600838505865e-08,-0.0011214922909455,0.00112149617112,-2.0923166994199e-08,2.5694894206883e-08,-0.0012448980275196,0.001244871732958,-0.0012448825822201,0.0012448872190444,-0.0012448836006066,0.0012448861501222,-0.0012448681511045,0.0012449016289351,-0.001119412286828,0.00111947416301,-0.001119454649744,0.0011194318221466,0.64191385323436,128566,2924,0.0046629836606015,0.0065550539471529,0.0046629836604958,25.087110667638,-3.9303114658893e-05,-3.9303114658893e-05,-3.9303114658893e-05,2613771.9422165,0.016008682390719
29819200,0.99613075760015,0.016057290939734,0.0048655526420392,0.0063261856557664,0.0048655526419283,-0.0011220814462726,0.0011220809232759,2.1542556758414e-08,-2.2064792999328e-08,5.1054058726271e-09,-5.8078603243832e-09,-0.00124542212381,0.0012454397357262,-0.0012454367324977,0.0012454252717459,-0.0012454256225757,0.0012454361369893,-0.0012454401554695,0.0012454216006597,-0.0011199826818564,0.0011200212303288,-0.0011200252900444,0.0011199784277143,-4.7524048739992e-09,6.0944135753192e-09,2.4208820677028e-08,-2.3071445263302e-08,-0.0015792878577147,0.0015792890263916,-0.0016817881392443,0.0016818012422294,-0.0016818033899253,0.0016817854590894,-0.0016817846528078,0.0016818048410882,-0.0016817999126093,0.0016817890522917,-0.0014617307311188,0.0014617818899289,-0.0014617765042464,0.0014617348066776,-0.0014617684048684,0.0014617432932211,-0.001461757794603,0.0014617541716987,-1.9808956063769e-08,2.3758343253676e-08,-0.0011220792385092,0.0011220831309863,-2.0947238999816e-08,2.5731893293337e-08,-0.0012454441171836,0.0012454177148474,-0.0012454286530118,0.0012454332198102,-0.0012454295908564,0.0012454322314127,-0.0012454141192541,0.0012454477323162,-0.0011199708112719,0.0011200330210366,-0.0011200134751192,0.0011199903792493,0.67837702800828,128566,2924,0.0046654166243219,0.0065576743308244,0.0046654166242166,25.339438648075,-3.7284490815402e-05,-3.7284490815402e-05,-3.7284490815402e-05,2621631.9039206,0.016016287050354
30019200,0.99627235211963,0.01605947811293,0.0048662062376238,0.0063270656377933,0.0048662062375129,-0.0011226687620201,0.0011226682395979,2.1707661803877e-08,-2.2229323332363e-08,5.1038328125617e-09,-5.8056623254717e-09,-0.0012460182392541,0.0012460359611575,-0.0012460329587724,0.00124602138665,-0.0012460217376588,0.0012460323629321,-0.0012460363796213,0.0012460177175659,-0.0011205673161373,0.0011206061868097,-0.0011206102448214,0.0011205630639223,-4.7499727133e-09,6.0917124770124e-09,2.426871253202e-08,-2.3131585318006e-08,-0.0015799682550092,0.0015799694234477,-0.0016825024780204,0.0016825156228199,-0.0016825177684502,0.0016824997987344,-0.001682498994045,0.0016825192191501,-0.0016825142919816,0.0016825033910154,-0.0014623818941852,0.0014624331664995,-0.0014624277814679,0.0014623859665104,-0.0014624196426888,0.001462394493659,-0.0014624090349759,0.0014624053693367,-1.9956920868987e-08,2.3923578742376e-08,-0.0011226665458108,0.001122670455753,-2.0989509641065e-08,2.5792635072434e-08,-0.0012460403479823,0.001246013825089,-0.0012460248504528,0.0012460293634198,-0.0012460257180569,0.0012460284452426,-0.0012460102114651,0.001246043981133,-0.001120555426493,0.0011206179966558,-0.001120598399419,0.0011205750458306,0.6887308943901,128566,2924,0.0046678525127156,0.0065604907059542,0.0046678525126078,25.590332032833,-3.5277343737335e-05,-3.5277343737335e-05,-3.5277343737335e-05,2624736.7811944,0.016024098119591
30219200,0.99641078572981,0.016061520216332,0.0048668139149525,0.0063278923865375,0.0048668139148417,-0.0011232514646007,0.0011232509432646,2.1860579578042e-08,-2.238113816e-08,5.100731828745e-09,-5.8013546031285e-09,-0.0012466254172451,0.0012466432377564,-0.0012466402370311,0.0012466285634733,-0.0012466289117054,0.0012466396436316,-0.0012466436569669,0.0012466248952103,-0.0011211525584136,0.0011211917356216,-0.0011211957904047,0.0011211483100775,-4.7479710030391e-09,6.0895161438736e-09,2.4308192946391e-08,-2.317123658551e-08,-0.0015806558640594,0.0015806570323227,-0.0016832188341817,0.0016832320047246,-0.0016832341487869,0.0016832161557426,-0.00168321534998,0.0016832356012203,-0.0016832306752642,0.0016832197450446,-0.0014630377321355,0.0014630890851073,-0.0014630837009203,0.0014630418021645,-0.0014630755293346,0.0014630503627132,-0.0014630649302442,0.001463061229481,-2.0116272432375e-08,2.4102323541927e-08,-0.0011232492391515,0.0011232531686595,-2.1043360416019e-08,2.5867289938911e-08,-0.0012466476441647,0.001246620983741,-0.0012466321025157,0.0012466365662138,-0.0012466329000009,0.0012466357181528,-0.001246617352443,0.0012466512950263,-0.0011211406280463,0.0011212035864838,-0.0011211839274745,0.0011211603092485,0.66008312047725,128566,2924,0.0046702696822424,0.0065633363873835,0.0046702696821346,25.841169278552,-3.3270645771583e-05,-3.3270645771583e-05,-3.3270645771583e-05,2626513.3839236,0.016031901412362
30419200,0.99654633936182,0.01606340586703,0.0048673719903248,0.0063286618864907,0.004867371990214,-0.0011239018832193,0.0011239013637251,2.2016658932363e-08,-2.2535410163198e-08,5.0956265358884e-09,-5.7943541207531e-09,-0.001247265756296,0.0012472836770861,-0.0012472806785576,0.0012472689004277,-0.001247269245665,0.0012472800880488,-0.0012472840955457,0.0012472652350613,-0.0011217876455244,0.0011218271356259,-0.0011218311847366,0.0011217834030793,-4.743048264543e-09,6.0841315455458e-09,2.4319285825688e-08,-2.3182749168691e-08,-0.0015813661009916,0.0015813672688107,-0.0016839718708808,0.0016839850508308,-0.0016839871918419,0.001683969195225,-0.0016839683889685,0.0016839886449742,-0.0016839837227724,0.001683972779986,-0.0014637166279147,0.0014637680026658,-0.0014637626220428,0.001463720693917,-0.0014637544329713,0.001463729272059,-0.0014637438475877,0.00146374012553,-2.0280283347827e-08,2.4270824676261e-08,-0.0011238996564037,0.0011239035904847,-2.1053352498298e-08,2.588212622947e-08,-0.0012472880911528,0.001247261315176,-0.0012472725402001,0.0012472769069038,-0.001247273235159,0.0012472761614523,-0.0012472576804529,0.0012472917454037,-0.0011217757042095,0.0011218389976174,-0.0011218193259178,0.0011217953979583,0.62526526851871,128566,2924,0.0046729667534595,0.0065662768919218,0.0046729667533478,26.129068849344,-3.0967449205247e-05,-3.0967449205247e-05,-3.0967449205247e-05,2631110.2044386,0.016040369182409
30619200,0.99667979750774,0.016065384971065,0.0048679616037358,0.006329461763704,0.0048679616036249,-0.0011247665084907,0.0011247659922776,2.2181845769037e-08,-2.2697345251228e-08,5.0872400341417e-09,-5.7825021351173e-09,-0.0012480757790564,0.0012480938061195,-0.0012480908109143,0.0012480789196104,-0.0012480792624105,0.001248090223047,-0.0012480942206215,0.0012480752617524,-0.0011226222311004,0.001122662049587,-0.0011226660886449,0.0011226179985125,-4.7335077726456e-09,6.0735972143036e-09,2.4264381773616e-08,-2.312873998434e-08,-0.0015822349578098,0.0015822361247417,-0.0016848999360633,0.0016849130865075,-0.0016849152222566,0.0016848972667879,-0.0016848964613568,0.0016849166732531,-0.0016849117590495,0.0016849008454738,-0.0014645571028616,0.0014646083611965,-0.0014646029892838,0.0014645611623058,-0.0014645948241063,0.0014645697159543,-0.0014645842562503,0.0014645805514019,-2.0447272559148e-08,2.4419750273023e-08,-0.0011247642924315,0.0011247682082832,-2.1003549734561e-08,2.5812982101821e-08,-0.0012480982085583,0.0012480713494373,-0.00124808269776,0.0012480869010731,-0.0012480832479796,0.0012480863003417,-0.001248067732003,0.001248101845586,-0.0011226103270467,0.0011226738742261,-0.0011226542599369,0.00112262996333,0.66318229714101,128566,2924,0.0046765511622583,0.0065698753588974,0.0046765511621516,26.523158492806,-2.7814732057553e-05,-2.7814732057553e-05,-2.7814732057553e-05,2638949.0648248,0.016051307755854
30819200,0.99681108229032,0.016067423763159,0.0048685715415651,0.0063302806801396,0.0048685715414543,-0.0011256423953998,0.0011256418814482,2.2346151650921e-08,-2.2859348634351e-08,5.0817744832447e-09,-5.7746459598239e-09,-0.0012489529830618,0.0012489711170874,-0.001248968124024,0.0012489561213249,-0.001248956462432,0.0012489675379347,-0.0012489715289364,0.0012489524684121,-0.0011234971382033,0.0011235372816056,-0.0011235413138901,0.0011234929123871,-4.7262967962889e-09,6.0655744239826e-09,2.4210235804915e-08,-2.3075337041528e-08,-0.001583171500158,0.0015831726663728,-0.0016858750048725,0.0016858881246623,-0.0016858902566535,0.0016858723404462,-0.0016858715355813,0.0016858917058573,-0.0016858867979336,0.0016858759144816,-0.001465461247626,0.0014655123932521,-0.0014655070281107,0.001465465302415,-0.0014654988890287,0.0014654738295136,-0.0014654883346632,0.0014654846511507,-2.0612649802084e-08,2.4571087850224e-08,-0.001125640187548,0.0011256440892448,-2.0968556231177e-08,2.5763027193656e-08,-0.0012489755114272,0.0012489485614718,-0.0012489600293811,0.0012489640843837,-0.0012489604457083,0.0012489636175411,-0.0012489449575495,0.0012489791349568,-0.0011234852618846,0.0011235490783442,-0.0011235295064259,0.001123504856142,0.6923632765096,128566,2924,0.0046801838263786,0.0065737520341387,0.0046801838262686,26.919916285162,-2.4640669718703e-05,-2.4640669718703e-05,-2.4640669718703e-05,2641699.6531,0.016062628559156
31019200,0.99694009826376,0.016069488798209,0.0048691908776084,0.0063311070431035,0.0048691908774976,-0.0011265182816369,0.0011265177689964,2.250673697369e-08,-2.301878926942e-08,5.0778208773188e-09,-5.7695014649847e-09,-0.0012498698671547,0.0012498881062505,-0.0012498851146426,0.0012498730038109,-0.0012498733433938,0.0012498845301387,-0.0012498885166633,0.0012498693538718,-0.0011243934513638,0.0011244339124293,-0.0011244379406974,0.0011243892297188,-4.7226557439911e-09,6.0615679298488e-09,2.4175264210038e-08,-2.3040694133551e-08,-0.0015841526241539,0.0015841537900333,-0.0016868774822107,0.0016868905811577,-0.0016868927112821,0.0016868748203615,-0.0016868740153758,0.0016868941599083,-0.0016868892551513,0.0016868783918036,-0.0014664092577447,0.0014664603323365,-0.0014664549706413,0.0014664133101421,-0.0014664468485819,0.0014664218193969,-0.0014664363022525,0.0014664326336219,-2.0780007719635e-08,2.472671391978e-08,-0.0011265160803499,0.001126519970233,-2.0936253087604e-08,2.5718227681768e-08,-0.0012498924949006,0.0012498654511529,-0.001249877038338,0.0012498809485542,-0.0012498773214891,0.0012498806149816,-0.0012498618589621,0.0012498961067343,-0.0011243815947637,0.0011244456899195,-0.001124426154938,0.0011244011512552,0.71215831587708,128566,2924,0.0046838175753093,0.0065778118212254,0.0046838175752095,27.31677867487,-2.1465770601037e-05,-2.1465770601037e-05,-2.1465770601037e-05,2641010.4675805,0.016074138685741
31219200,0.99706786145158,0.016071636637354,0.0048698375139559,0.0063319616095533,0.0048698375138451,-0.0011276807900428,0.0011276802791719,2.2668083458294e-08,-2.3178290834511e-08,5.0741244494737e-09,-5.7637844169307e-09,-0.0012510999770934,0.0012511183216938,-0.0012511153310054,0.0012511031116395,-0.0012511034500213,0.0012511147487118,-0.0012511187299607,0.0012510994647064,-0.0011255970986315,0.0011256378797161,-0.0011256419015399,0.0011255928804316,-4.7150728441141e-09,6.0534011689848e-09,2.4128625346882e-08,-2.2994556199622e-08,-0.0015854602035872,0.0015854613688473,-0.0016881923690862,0.0016882054417631,-0.0016882075674742,0.0016881897115914,-0.0016881889070434,0.0016882090151216,-0.0016882041166767,0.0016881932778442,-0.0014676848924477,0.0014677358702217,-0.0014677305157811,0.0014676889405422,-0.0014677224130675,0.0014676974296593,-0.0014677118829301,0.0014677082286186,-2.0958597498919e-08,2.48704832951e-08,-0.0011276786071948,0.0011276824619667,-2.083012805571e-08,2.5574762804083e-08,-0.0012511226869047,0.0012510955839657,-0.0012511073130403,0.0012511109985184,-0.001251107406107,0.0012511108551434,-0.0012510920264606,0.001251126263868,-0.0011255853027548,0.0011256495947715,-0.0011256301778996,0.0011256047415761,0.7454602906979,128566,2924,0.0046886408217461,0.0065832217888964,0.0046886408216401,27.866068895579,-1.7071448835371e-05,-1.7071448835371e-05,-1.7071448835371e-05,2638923.3397766,0.016089438704599
31419200,0.99719432778551,0.016073661631182,0.004870444498823,0.0063327726336465,0.0048704444987122,-0.0011288613347698,0.0011288608238782,2.2829747641432e-08,-2.3339963394705e-08,5.0748169081395e-09,-5.7645411195199e-09,-0.0012523936300708,0.0012524120827347,-0.0012524090909893,0.0012523967645281,-0.0012523971033572,0.0012524085092088,-0.0012524124905949,0.0012523931170945,-0.0011268380975566,0.0011268791943958,-0.0011268832154184,0.0011268338775666,-4.7105932070228e-09,6.0482690912957e-09,2.4161112406954e-08,-2.302763882697e-08,-0.0015868458897353,0.001586847054509,-0.0016895672696322,0.0016895803670964,-0.0016895824896136,0.0016895646147256,-0.0016895638108232,0.0016895839373701,-0.0016895790417953,0.0016895681774547,-0.0014690370227362,0.0014690880604091,-0.0014690827079151,0.0014690410655353,-0.0014690745798541,0.0014690495829386,-0.0014690640585432,0.001469060371527,-2.1134906222382e-08,2.501405235618e-08,-0.001128859168348,0.001128862990251,-2.0711588313076e-08,2.5420622487008e-08,-0.0012524164176508,0.0012523892666958,-0.0012524011347312,0.0012524045903408,-0.0012524010299806,0.0012524046446729,-0.0012523857413306,0.0012524199622945,-0.0011268263639867,0.0011268908455001,-0.0011268715529347,0.0011268456788867,0.71242629588059,128566,2924,0.0046935399062162,0.0065889535290906,0.0046935399061194,28.434126527775,-1.2526987777802e-05,-1.2526987777802e-05,-1.2526987777802e-05,2634326.7828726,0.0161052210099
31619200,0.99731931288086,0.01607556731212,0.0048710132337163,0.0063335408447984,0.0048710132336055,-0.0011300345585277,0.0011300340481839,2.2989489710307e-08,-2.3499226254732e-08,5.0708531796036e-09,-5.7601492027487e-09,-0.0012536355943239,0.0012536541514253,-0.0012536511627877,0.0012536387276815,-0.001253639064919,0.0012536505804072,-0.0012536545596636,0.0012536350834667,-0.001128048284083,0.0011280896960543,-0.0011280937167924,0.0011280440704417,-4.7173445848905e-09,6.0558683756722e-09,2.3971377547165e-08,-2.2837123583198e-08,-0.0015881774950291,0.0015881786605483,-0.0016909045068288,0.0016909174734943,-0.0016909196025389,0.0016909018502885,-0.0016909010435444,0.0016909210485215,-0.0016909161498857,0.0016909054181298,-0.0014703390144279,0.0014703896843875,-0.0014703843310065,0.0014703430671937,-0.0014703763324516,0.0014703514490726,-0.0014703657969582,0.0014703622527917,-2.128314731672e-08,2.51900325275e-08,-0.001130032378529,0.0011300362281275,-2.084264155449e-08,2.5582226234784e-08,-0.0012536585238475,0.0012536311944253,-0.0012536431433675,0.0012536466157102,-0.0012536430283671,0.0012536466802899,-0.0012536276418515,0.0012536620959944,-0.001128036487386,0.0011281014136911,-0.0011280819939652,0.001128055928718,0.68057766441311,128566,2924,0.0046984073385921,0.006594462933124,0.0046984073384824,29.002708228921,-7.9783341686312e-06,-7.9783341686312e-06,-7.9783341686312e-06,2634094.0325599,0.016120712237296
31819200,0.99744052408329,0.01607734973424,0.004871543438242,0.006334262857867,0.0048715434381311,-0.0011306287603435,0.0011306282421445,2.3149327270854e-08,-2.3666783318924e-08,5.091592910214e-09,-5.7889670970877e-09,-0.001254249957058,0.0012542686319447,-0.0012542656355245,0.0012542530996563,-0.0012542534444035,0.0012542650445602,-0.0012542690483678,0.0012542494389089,-0.001128646046456,0.0011286877543927,-0.001128691800613,0.0011286418099854,-4.7411334965085e-09,6.0818618934704e-09,2.4137069126812e-08,-2.3000864578199e-08,-0.0015888625450141,0.0015888637125228,-0.0016916138351506,0.001691626898287,-0.0016916290401946,0.001691611162663,-0.001691610355865,0.0016916304897702,-0.0016916255712278,0.0016916147472318,-0.0014709979332584,0.0014710489451416,-0.0014710435701787,0.0014710020014786,-0.0014710354983223,0.0014710104585357,-0.001471024913328,0.001471021311678,-2.1406911632101e-08,2.5381855956251e-08,-0.001130626542101,0.0011306304603322,-2.1031640899043e-08,2.5844100132822e-08,-0.0012542730391848,0.0012542455230765,-0.001254257509583,0.0012542610934736,-0.0012542574386002,0.0012542611139296,-0.0012542419026952,0.0012542766790912,-0.0011286341353188,0.0011286995877183,-0.0011286799515915,0.0011286537934967,0.65805652740387,128566,2924,0.0047008719903557,0.0065972979558569,0.0047008719902467,29.265397053625,-5.8768235709957e-06,-5.8768235709957e-06,-5.8768235709957e-06,2636317.1282793,0.016128601926694
32019200,0.99755636472647,0.016079220266252,0.0048721046510042,0.0063350109643547,0.0048721046508934,-0.0011307655196843,0.0011307649912039,2.3305473860771e-08,-2.3833112064326e-08,5.1184579127933e-09,-5.8267402673198e-09,-0.0012543656761895,0.001254384469803,-0.0012543814625653,0.0012543688304655,-0.0012543691852367,0.0012543808613161,-0.0012543848963348,0.0012543651479598,-0.0011287676089703,0.0011288096009521,-0.0011288136785263,0.0011287633408253,-4.7687268399037e-09,6.1121207617298e-09,2.4459129576851e-08,-2.332055713287e-08,-0.0015890320908272,0.0015890332607529,-0.001691819151242,0.0016918324095774,-0.0016918345648482,0.0016918164587266,-0.0016918156531616,0.0016918360204639,-0.0016918310770084,0.0016918200626991,-0.0014711479851953,0.0014711996489626,-0.0014711942453679,0.0014711520679721,-0.0014711860056644,0.0014711606983914,-0.0014711753640191,0.0014711716090463,-2.1528792582804e-08,2.5580288714766e-08,-0.0011307632576087,0.0011307672532298,-2.1208152150039e-08,2.6102294967563e-08,-0.0012543889054611,0.001254361214235,-0.0012543732312814,0.0012543769292009,-0.0012543731980204,0.0012543769117732,-0.0012543575175244,0.0012543926216115,-0.0011287555725748,0.0011288215592827,-0.0011288017027946,0.001128775451373,0.71766338500719,128566,2924,0.0047014385372352,0.0065980006087991,0.0047014385371367,29.280950486524,-5.7523961078104e-06,-5.7523961078104e-06,-5.7523961078104e-06,2639472.1104381,0.016130466516533
32219200,0.9976670279328,0.016081048639452,0.0048726541367048,0.0063357403661535,0.004872654136594,-0.0011308829391936,0.0011308824051239,2.3464816883047e-08,-2.3997996662926e-08,5.1338833773189e-09,-5.8481139558388e-09,-0.0012545369930163,0.0012545559014961,-0.001254552887735,0.0012545401541318,-0.0012545405145095,0.0012545522809734,-0.0012545563333384,0.001254536459201,-0.001128908829123,0.0011289511208559,-0.0011289552154012,0.0011289045425668,-4.781962338333e-09,6.1266147993587e-09,2.4671778585629e-08,-2.353208420104e-08,-0.0015892658780107,0.0015892670490444,-0.0016920567832872,0.0016920701733582,-0.0016920723344443,0.0016920540804179,-0.0016920532762095,0.0016920737934377,-0.0016920688375443,0.001692057693763,-0.0014713588860257,0.0014714109763511,-0.001471405558002,0.0014713629745535,-0.0014713972006648,0.0014713717263232,-0.0014713865318748,0.0014713826648498,-2.1666875007558e-08,2.5760738112497e-08,-0.0011308806528902,0.0011308846913727,-2.1302246085534e-08,2.6241571629446e-08,-0.0012545603505586,0.0012545325178188,-0.0012545445987377,0.0012545483103928,-0.0012545445370079,0.0012545483213714,-0.0012545287787772,0.0012545641089461,-0.0011288967263682,0.0011289631447156,-0.001128943168649,0.0011289167249638,0.73340851714013,128566,2924,0.0047019269950813,0.0065989665105751,0.0047019269949727,29.290196471082,-5.6784282313457e-06,-5.6784282313457e-06,-5.6784282313457e-06,2635999.0615902,0.016132441701475
32419200,0.99777274032127,0.016082840479466,0.0048731936473907,0.0063364531847957,0.0048731936472799,-0.0011309908709633,0.001130990335664,2.362175279377e-08,-2.4156142691309e-08,5.1367451216666e-09,-5.8522485426477e-09,-0.0012547151112931,0.0012547341256707,-0.001254731111172,0.0012547182738885,-0.0012547186349938,0.0012547305031425,-0.0012547345592247,0.0012547145763116,-0.001129050512387,0.0011290931096754,-0.001129097208078,0.0011290462226552,-4.7886263406935e-09,6.1338867795576e-09,2.474215373954e-08,-2.3601916556474e-08,-0.001589513309409,0.0015895144809847,-0.0016922983367333,0.0016923117678077,-0.0016923139323829,0.0016922956291663,-0.0016922948248669,0.0016923153928216,-0.0016923104311324,0.0016922992470015,-0.0014715860839317,0.0014716383171578,-0.001471632892351,0.0014715901763316,-0.0014716244986877,0.0014715989651504,-0.0014716138167806,0.0014716099169751,-2.1816119123314e-08,2.5939153527537e-08,-0.0011309885692891,0.0011309926372841,-2.1387641293063e-08,2.6358374095009e-08,-0.0012547385956288,0.0012547106155655,-0.0012547227766968,0.0012547264752537,-0.001254722672624,0.0012547265285691,-0.0012547068477372,0.0012547423828297,-0.001129038354479,0.0011291051890673,-0.0011290851169971,0.0011290584490371,0.7510942538134,128566,2924,0.0047023765676402,0.0065999882643941,0.0047023765675328,29.29919405435,-5.6064475651959e-06,-5.6064475651959e-06,-5.6064475651959e-06,2631489.8818128,0.016134394948301
32619200,0.99787346310904,0.016084415012559,0.0048736643741791,0.0063370862643118,0.0048736643740683,-0.0011309939736675,0.0011309934390355,2.3795727700213e-08,-2.4329467093793e-08,5.133851762781e-09,-5.8486011797192e-09,-0.0012548077601513,0.0012548268900983,-0.001254823876949,0.0012548109211262,-0.0012548112829965,0.0012548232685614,-0.0012548273217136,0.0012548072269102,-0.0011290925099659,0.0011291354465023,-0.0011291395417981,0.0011290882225956,-4.7769494684728e-09,6.1210393515671e-09,2.4758384102361e-08,-2.3619201801539e-08,-0.0015896807730159,0.0015896819435574,-0.0016924503134991,0.0016924637643734,-0.0016924659215478,0.0016924476129459,-0.0016924468108293,0.0016924673798672,-0.0016924624271017,0.0016924512236975,-0.0014717338726386,0.0014717861258496,-0.0014717807100522,0.0014717379554275,-0.001471772293322,0.0014717467678713,-0.0014717616318832,0.0014717576988392,-2.1968649503764e-08,2.6082013410672e-08,-0.0011309916771615,0.0011309957354866,-2.1361061633465e-08,2.6321459984382e-08,-0.0012548313449513,0.0012548032794258,-0.0012548155485042,0.0012548191167347,-0.0012548153247593,0.0012548192895939,-0.0012547995199206,0.0012548351238415,-0.0011290803906314,0.0011291474868873,-0.0011291274460077,0.0011291004541392,0.69653886234798,128566,2924,0.0047023918036442,0.0066006783874646,0.004702391803535,29.262954106514,-5.8963671478889e-06,-5.8963671478889e-06,-5.8963671478889e-06,2625836.8496088,0.016135128909486
32819200,0.99796932033307,0.016085793355847,0.0048740733214812,0.0063376467129953,0.0048740733213704,-0.0011309485501838,0.001130948021253,2.3928459929717e-08,-2.4456546624846e-08,5.1119930241883e-09,-5.8205572579712e-09,-0.001254779908772,0.0012547991115358,-0.001254796109408,0.0012547830589007,-0.0012547834122129,0.0012547955091101,-0.0012547995405923,0.0012547793786789,-0.0011290477638397,0.0011290909848772,-0.0011290950588285,0.0011290434995509,-4.7702579744227e-09,6.1137214952991e-09,2.4615327024244e-08,-2.3476698933139e-08,-0.0015897149651207,0.0015897161350777,-0.0016924958310444,0.0016925091884035,-0.0016925113432726,0.0016924931359784,-0.001692492330108,0.0016925128020647,-0.0016925078560861,0.0016924967394177,-0.0014717527871677,0.0014718047629611,-0.0014717993554121,0.0014717568681115,-0.0014717910128309,0.0014717656037643,-0.0014717803728178,0.0014717765127536,-2.2161971502066e-08,2.6271559594635e-08,-0.0011309462585286,0.0011309503128532,-2.1337221053484e-08,2.6293007298367e-08,-0.0012548035885077,0.0012547754059659,-0.0012547878065566,0.0012547912287355,-0.0012547874379513,0.0012547915466987,-0.0012547716530798,0.0012548073609361,-0.00112903561404,0.0011291030567775,-0.0011290830362294,0.0011290556568077,0.64446135275362,128566,2924,0.0047022038108993,0.0066008194024302,0.0047022038107897,29.20451688618,-6.363864910556e-06,-6.363864910556e-06,-6.363864910556e-06,2626108.9811035,0.01613489016213
33019200,0.99806055760059,0.016087217677428,0.0048744993497899,0.006338218977959,0.0048744993496792,-0.0011309138831489,0.0011309133565628,2.4109865760187e-08,-2.463564256591e-08,5.1021829237459e-09,-5.8080372565074e-09,-0.0012546915118443,0.0012547108313906,-0.001254707833998,0.0012546946562706,-0.0012546950095812,0.001254707234463,-0.001254711256047,0.0012546909854375,-0.0011289821118021,0.0011290256906172,-0.0011290297545718,0.0011289778568031,-4.7510143084212e-09,6.0926015020886e-09,2.4533505216844e-08,-2.3396561373816e-08,-0.0015896711634029,0.0015896723316615,-0.0016924905157004,0.0016925038335975,-0.001692505977553,0.0016924878331249,-0.0016924870297905,0.0016925074318494,-0.0016925025016166,0.0016924914247339,-0.0014716987965159,0.0014717505933362,-0.0014717452027592,0.0014717028642718,-0.0014717368909867,0.0014717115683489,-0.001471726285049,0.0014717224421502,-2.2317509249596e-08,2.6398230036473e-08,-0.0011309116072697,0.0011309156323899,-2.1219066751664e-08,2.6142958420759e-08,-0.0012547152657431,0.0012546870511895,-0.0012546995743795,0.0012547027833649,-0.001254699022972,0.0012547032841586,-0.0012546833249955,0.0012547190114298,-0.0011289700588652,0.0011290376653312,-0.0011290177622663,0.0011289899842141,0.695241350823,128566,2924,0.0047020585571537,0.0066006400558478,0.0047020585570503,29.145506813878,-6.8359454889751e-06,-6.8359454889751e-06,-6.8359454889751e-06,2631367.3148887,0.016134411143427
33219200,0.99814741045945,0.016088644339004,0.0048749279076634,0.006338788523788,0.0048749279075527,-0.001130879765157,0.0011308792416148,2.4266919289803e-08,-2.4789682427307e-08,5.0892670206929e-09,-5.791854337061e-09,-0.0012546709181245,0.0012546903342793,-0.0012546873432284,0.0012546740556659,-0.0012546744056298,0.0012546867473788,-0.0012546907563556,0.001254670394109,-0.0011289514385008,0.0011289953360534,-0.0011289993872665,0.0011289471960454,-4.7391463696844e-09,6.0796018066321e-09,2.4415071404445e-08,-2.3279135313219e-08,-0.0015896966836956,0.0015896978509342,-0.0016925286854713,0.0016925419323833,-0.0016925440703605,0.0016925260113165,-0.0016925252071367,0.0016925455228027,-0.0016925406030343,0.0016925295940868,-0.0014717101379946,0.0014717616955161,-0.00147175631677,0.001471714199068,-0.0014717480628569,0.0014717228433644,-0.0014717374828778,0.0014717336910661,-2.2494087627187e-08,2.6553246042223e-08,-0.0011308775017376,0.0011308815049793,-2.1128340759105e-08,2.6028233691611e-08,-0.0012546947522351,0.0012546664735967,-0.0012546791286119,0.0012546821380572,-0.0012546783984994,0.0012546828175978,-0.0012546627692731,0.001254698476106,-0.0011289394280675,0.0011290072681227,-0.0011289874546388,0.0011289592637678,0.72922790417225,128566,2924,0.004701917452897,0.0066007452979352,0.0047019174527877,29.086474142917,-7.3082068566638e-06,-7.3082068566638e-06,-7.3082068566638e-06,2630566.3456539,0.016134231408677
33419200,0.99823143851739,0.016090052010021,0.0048753513681427,0.0063393492738463,0.004875351368032,-0.0011313693408719,0.0011313688225222,2.4431814922119e-08,-2.4949411284071e-08,5.0896046644774e-09,-5.7870580724071e-09,-0.0012552229347598,0.0012552424630642,-0.0012552394676763,0.0012552260754641,-0.00125522642071,0.001255238877213,-0.0012552428794058,0.0012552224158332,-0.0011294739025561,0.0011295181241042,-0.0011295221681378,0.0011294696662232,-4.7361879975313e-09,6.0763414019411e-09,2.4192625219141e-08,-2.3056957331251e-08,-0.0015903187681147,0.0015903199350852,-0.0016931451428284,0.0016931582450183,-0.0016931603832015,0.0016931424725212,-0.0016931416667415,0.0016931618331659,-0.0016931569177798,0.0016931460533994,-0.0014723134715174,0.0014723645897338,-0.0014723592175014,0.0014723175343834,-0.0014723511029974,0.0014723260360404,-0.0014723405286925,0.001472336878295,-2.2702857776044e-08,2.6662811383194e-08,-0.001131367129989,0.0011313710333482,-2.0944218081397e-08,2.5740035439548e-08,-0.0012552468486506,0.0012552185220288,-0.0012552313820312,0.001255234029476,-0.001255230388995,0.0012552349719392,-0.0012552149164109,0.0012552504737908,-0.0011294620255925,0.0011295299222065,-0.0011295103643485,0.0011294816055827,0.74278652224302,128566,2924,0.0047039496075582,0.006603318002649,0.0047039496074446,29.311553150694,-5.5075747944445e-06,-5.5075747944445e-06,-5.5075747944445e-06,2628300.9243482,0.016140976734625
33619200,0.99831303293349,0.016091419415181,0.004875762607921,0.0063398941994498,0.0048757626078103,-0.0011319992686639,0.0011319987536093,2.4558293663913e-08,-2.5072622786189e-08,5.0782138922536e-09,-5.7721559571271e-09,-0.0012559330371008,0.0012559526390208,-0.0012559496495888,0.0012559361728536,-0.001255936509996,0.0012559490653939,-0.0012559530569969,0.0012559325184881,-0.0011301471535953,0.0011301916430017,-0.0011301956783098,0.0011301429326968,-4.7384193241305e-09,6.0787650176072e-09,2.3844878913023e-08,-2.2709011258882e-08,-0.0015911021654205,0.0015911033326114,-0.0016939149522228,0.0016939278188027,-0.0016939299624849,0.0016939122847847,-0.0016939114708507,0.0016939314126447,-0.0016939264992731,0.0016939158632544,-0.0014730787836537,0.0014731292332703,-0.0014731238670571,0.0014730828562071,-0.0014731159655338,0.0014730911374543,-0.0014731053973153,0.001473101972498,-2.2911320744606e-08,2.6847738734094e-08,-0.0011319970715127,0.0011320009507239,-2.0937583490432e-08,2.5709013702471e-08,-0.0012559570617613,0.0012559285877002,-0.0012559416029652,0.0012559440872968,-0.0012559404668856,0.0012559451729167,-0.0012559250100102,0.0012559606591215,-0.0011301352422132,0.0011302034788031,-0.0011301839548594,0.0011301547881264,0.74303041822898,128566,2924,0.0047065642297298,0.0066065577738523,0.004706564229659,29.613186971869,-3.0945042250508e-06,-3.0945042250508e-06,-3.0945042250508e-06,2625025.5196349,0.016149584096951
33819200,0.99839220460292,0.016092750444593,0.0048761629252689,0.0063404245941661,0.0048761629251582,-0.0011326246229572,0.0011326241072603,2.4738678416738e-08,-2.525364200813e-08,5.0825229144744e-09,-5.7771795991877e-09,-0.001256637125607,0.0012566568533883,-0.0012566538604081,0.0012566402627317,-0.0012566406041647,0.0012566532738329,-0.0012566572681794,0.0012566366079133,-0.0011308151125894,0.0011308599446739,-0.0011308639819635,0.0011308108859518,-4.730857537432e-09,6.0704455252326e-09,2.3876758380245e-08,-2.2741582857195e-08,-0.001591885126418,0.0015918862928703,-0.0016946831968139,0.001694696094978,-0.0016946982332422,0.001694680532946,-0.0016946797234362,0.0016946996805148,-0.0016946947726775,0.001694684108765,-0.0014738450456761,0.0014738955456688,-0.001473890184017,0.0014738491110316,-0.0014738822601332,0.0014738574170176,-0.0014738717004488,0.0014738682443912,-2.3079896402921e-08,2.6960846380986e-08,-0.0011326224533308,0.0011326262768352,-2.0746457184209e-08,2.5457788871074e-08,-0.0012566612119159,0.0012566327393468,-0.0012566459028253,0.0012566480891498,-0.0012566445260623,0.0012566494155272,-0.0012566292134231,0.0012566647572372,-0.0011308033318908,0.001130871648023,-0.0011308523277208,0.0011308226742668,0.74517768489131,128566,2924,0.0047091598217103,0.0066097957225549,0.004709159821608,29.916841995415,-6.6526403668342e-07,-6.6526403668342e-07,-6.6526403668342e-07,2622417.5305277,0.016158150878179
34019200,0.9984689578936,0.016094002037452,0.0048765383115281,0.0063409254145062,0.0048765383114174,-0.0011332410255551,0.0011332405100639,2.490594458371e-08,-2.5420716590099e-08,5.0809685914303e-09,-5.775449312635e-09,-0.0012573323245958,0.0012573521627853,-0.0012573491708561,0.0012573354610843,-0.0012573358018432,0.0012573485845705,-0.001257352577919,0.0012573318072443,-0.0011314733475563,0.0011315185087464,-0.0011315225448804,0.001131469122341,-4.7334463832857e-09,6.073371822895e-09,2.379838533584e-08,-2.2662901954314e-08,-0.0015926627054953,0.0015926638722717,-0.0016954453214515,0.0016954581646776,-0.0016954603052955,0.0016954426569948,-0.0016954418458979,0.001695461752363,-0.0016954568431594,0.001695446234504,-0.0014746065433643,0.0014746568915213,-0.0014746515294975,0.0014746106123502,-0.001474643658846,0.0014746188631648,-0.0014746330943735,0.0014746296955273,-2.3237212718742e-08,2.7112267092402e-08,-0.0011332388590182,0.001133242676547,-2.0742496297859e-08,2.5447767464187e-08,-0.0012573565183022,0.0012573279415648,-0.0012573412138633,0.0012573432868016,-0.0012573397293246,0.0012573447208371,-0.00125732442187,0.0012573600575485,-0.0011314615857432,0.0011315301933814,-0.0011315108833624,0.0011314809176432,0.72426544534112,128566,2924,0.004711718248167,0.006613011387945,0.00471171824806,30.220577123667,1.7646169893397e-06,1.7646169893397e-06,1.7646169893397e-06,2620185.2338626,0.016166619511102
34219200,0.99854458231037,0.016095201858338,0.0048768972967938,0.0063414072648614,0.004876897296683,-0.0011344346237404,0.0011344341119011,2.5068659356907e-08,-2.5579787044627e-08,5.0724767349261e-09,-5.763031818628e-09,-0.0012585823393152,0.001258602282024,-0.0012585992928888,0.0012585854718703,-0.0012585858102019,0.0012585987100206,-0.0012586026925651,0.0012585818257298,-0.0011327052846466,0.0011327507694728,-0.0011327547942383,0.0011327010690921,-4.7194464755615e-09,6.0579916285729e-09,2.3757801085426e-08,-2.2623556896219e-08,-0.0015940018827366,0.0015940030482792,-0.0016967770044796,0.0016967898314691,-0.0016967919637396,0.001696774348811,-0.0016967735391617,0.0016967934085764,-0.0016967885105757,0.0016967779170375,-0.0014759287467675,0.0014759790038908,-0.0014759736535012,0.0014759328053428,-0.001475965791738,0.0014759410478532,-0.0014759552539391,0.0014759518525171,-2.3416554256466e-08,2.7254595672232e-08,-0.0011344324776719,0.0011344362579174,-2.0628866960686e-08,2.529426421328e-08,-0.0012586066122659,0.0012585779810131,-0.0012585913972235,0.001258593236897,-0.0012585897166931,0.0012585948668889,-0.0012585744973633,0.0012586101154848,-0.0011326935887479,0.0011327623872804,-0.0011327432033772,0.0011327127946952,0.70594348092468,128566,2924,0.0047166698604872,0.0066185521794643,0.0047166698603832,30.831686751652,6.6534940132128e-06,6.6534940132128e-06,6.6534940132128e-06,2621293.2631821,0.016182314245007
34419200,0.99861908446958,0.0160963887991,0.0048772525420062,0.0063418837151986,0.0048772525418955,-0.0011356938316521,0.001135693322543,2.5246306237549e-08,-2.5754725171495e-08,5.064870063926e-09,-5.7525331042388e-09,-0.0012598776434204,0.0012598976991869,-0.0012598947141762,0.0012598807735184,-0.0012598811070301,0.001259894134206,-0.0012598981091063,0.0012598771322797,-0.0011339909192661,0.0011340367611326,-0.0011340407794762,0.0011339867145943,-4.7147643934194e-09,6.0528522671651e-09,2.3636514793815e-08,-2.2502681319179e-08,-0.0015953797579237,0.0015953809230379,-0.0016981588310837,0.0016981715791705,-0.0016981737104277,0.0016981561797887,-0.0016981553678101,0.0016981751542541,-0.0016981702615622,0.0016981597435519,-0.001477289311752,0.0014773393306698,-0.0014773339868904,0.0014772933699608,-0.0014773261919508,0.0014773015420699,-0.0014773156670764,0.0014773123335623,-2.3548482377818e-08,2.7413579308642e-08,-0.0011356916733918,0.001135695480751,-2.0749465612951e-08,2.5444422315342e-08,-0.0012599020538256,0.0012598732615352,-0.0012598867480432,0.0012598886080795,-0.0012598850601408,0.0012598902455834,-0.001259869752389,0.0012599055825118,-0.0011339792035751,0.0011340484009934,-0.0011340290998964,0.0011339985266791,0.70867957901754,128566,2924,0.0047218929027234,0.0066242539100539,0.0047218929026192,31.475448654584,1.1803589236673e-05,1.1803589236673e-05,1.1803589236673e-05,2624375.4277306,0.016198723965291
34619200,0.99869233002414,0.01609760420323,0.0048776175424895,0.0063423691183616,0.0048776175423788,-0.0011369578364525,0.0011369573271397,2.5392140599005e-08,-2.590075806227e-08,5.0665258729745e-09,-5.7544875877072e-09,-0.0012611809504362,0.0012612011062845,-0.001261198119357,0.0012611840806497,-0.0012611844171636,0.001261197538452,-0.0012612015135679,0.0012611804399047,-0.0011352840926636,0.0011353302137348,-0.001135334231461,0.0011352798847009,-4.7113933052862e-09,6.0491323212775e-09,2.3853089969063e-08,-2.2719573891142e-08,-0.0015967626233797,0.0015967637881743,-0.0016995454386365,0.0016995583352886,-0.0016995604617156,0.0016995427866716,-0.001699541979427,0.0016995619060844,-0.0016995570134445,0.0016995463498931,-0.001478653671492,0.0014787041087531,-0.0014786987623272,0.0014786577215006,-0.0014786908301732,0.0014786660369612,-0.0014786803071086,0.0014786768266194,-2.372952594733e-08,2.7584167568818e-08,-0.0011369556832575,0.0011369594802809,-2.0665388882555e-08,2.5348479002857e-08,-0.0012612054436432,0.0012611765849502,-0.0012611901988011,0.0012611918705877,-0.0012611883345123,0.0012611936844107,-0.0012611730840975,0.0012612089640085,-0.0011352723759769,0.0011353418525505,-0.0011353226219129,0.0011352916287211,0.73613738085365,128566,2924,0.0047271359005485,0.0066299761670918,0.0047271359004414,32.120140308405,1.696112246724e-05,1.696112246724e-05,1.696112246724e-05,2626964.6877537,0.016215195491525
34819200,0.99876531009582,0.016098825912133,0.0048779846072605,0.0063428566977223,0.0048779846071498,-0.0011387562496887,0.0011387557405226,2.5544763906747e-08,-2.6053262148185e-08,5.0712188684762e-09,-5.7590962578566e-09,-0.001263058779478,0.0012630790484306,-0.0012630760558747,0.0012630619106124,-0.00126306225808,0.0012630754698561,-0.0012630794445839,0.0012630582744066,-0.0011371392707759,0.0011371856639398,-0.0011371896757298,0.001137135050646,-4.6892582300858e-09,6.0248833722427e-09,2.4230044652945e-08,-2.3098434583973e-08,-0.0015987352558331,0.001598736418732,-0.0017015059213967,0.0017015190887444,-0.0017015211964665,0.001701503277842,-0.0017015024853361,0.0017015226357728,-0.0017015177551815,0.0017015068335783,-0.0014806031096047,0.0014806542440221,-0.0014806489051175,0.0014806071320131,-0.0014806407305602,0.0014806157025831,-0.0014806302288214,0.0014806264698892,-2.3944857099545e-08,2.7707422134636e-08,-0.0011387541425904,0.0011387578475633,-2.0280139505424e-08,2.4862824806907e-08,-0.0012630832800285,0.0012630545174493,-0.0012630683346167,0.0012630695038017,-0.0012630660661035,0.001263071721596,-0.0012630510987189,0.0012630867181638,-0.0011371277002985,0.0011371971473103,-0.0011371783015805,0.0011371465686335,0.74236046650923,128566,2924,0.0047345962939668,0.0066381378742808,0.0047345962938514,33.050430064951,2.440344051961e-05,2.440344051961e-05,2.440344051961e-05,2627800.7485607,0.016238654119672
35019200,0.99883817748681,0.016100008579907,0.0048783389018975,0.0063433307762222,0.0048783389017868,-0.0011407404930666,0.0011407399886848,2.5718675070961e-08,-2.622241013236e-08,5.0530350689347e-09,-5.7356881960745e-09,-0.0012651360934669,0.0012651564609174,-0.0012651534802128,0.0012651392182159,-0.0012651395514796,0.0012651529030038,-0.0012651568618832,0.0012651355888877,-0.0011391863422889,0.0011392331100924,-0.0011392371076373,0.0011391821451752,-4.6932048837535e-09,6.0292549600467e-09,2.3850626807135e-08,-2.2718614323809e-08,-0.0016009140798606,0.0016009152431336,-0.0017036693344312,0.0017036822324156,-0.0017036843480485,0.0017036666932202,-0.0017036658884906,0.001703685789631,-0.0017036809106319,0.0017036702450779,-0.0014827575836772,0.0014828079920249,-0.0014828026597938,0.0014827616196469,-0.0014827947119792,0.0014827699514864,-0.0014827842212358,0.0014827807080778,-2.4058088364902e-08,2.789493713232e-08,-0.0011407383511175,0.0011407421305822,-2.0600969991155e-08,2.5264936658172e-08,-0.0012651607817104,0.0012651317449266,-0.0012651455891156,0.0012651469783126,-0.001265143460886,0.0012651490561417,-0.0012651282600191,0.0012651642861187,-0.0011391746649044,0.0011392447047898,-0.0011392255404985,0.00113919385157,0.72136487511547,128566,2924,0.004742827597678,0.0066471524579632,0.0047428275975752,34.082319152487,3.2658553219893e-05,3.2658553219893e-05,3.2658553219893e-05,2628704.1211803,0.016264547207396
35219200,0.99891065431396,0.016101151184655,0.0048786802629274,0.0063437906589111,0.0048786802628168,-0.0011427289790922,0.0011427284740174,2.5878131672683e-08,-2.6382564847955e-08,5.0557429039162e-09,-5.7391823807413e-09,-0.0012671931795492,0.00126721365557,-0.0012672106730138,0.0012671963051888,-0.0012671966401339,0.001267210094815,-0.0012672140561929,0.0012671926746834,-0.0011412245004458,0.0011412715763647,-0.0011412755784059,0.0011412203023538,-4.6923281636544e-09,6.0283538699861e-09,2.3947351118567e-08,-2.2815357180852e-08,-0.001603068135468,0.0016030692987106,-0.0017058179365403,0.0017058309052913,-0.0017058330189245,0.0017058152948842,-0.0017058144921254,0.0017058344609109,-0.0017058295815593,0.0017058188467648,-0.0014848878741338,0.0014849384733928,-0.0014849331394475,0.0014848919069548,-0.0014849251289981,0.0014849003038936,-0.0014849146385246,0.001484911060144,-2.4217613154185e-08,2.8059620156673e-08,-0.0011427268341967,0.001142730618864,-2.0590393008216e-08,2.5259490029999e-08,-0.0012672179708986,0.0012671888359778,-0.0012672027830482,0.0012672040646743,-0.0012672005426726,0.0012672062545942,-0.0012671853451776,0.0012672214812347,-0.001141212818608,0.0011412831774278,-0.0011412640136781,0.0011412320045278,0.70214228547002,128566,2924,0.0047510756872073,0.006656065359167,0.0047510756871103,35.116867985211,4.0934943881686e-05,4.0934943881686e-05,4.0934943881686e-05,2631661.5448383,0.016290371117979
35419200,0.99898160662726,0.01610223442006,0.0048790029099938,0.0063442286001833,0.0048790029098831,-0.0011442994966903,0.001144298981361,2.6026157589085e-08,-2.6540728650233e-08,5.0830401772018e-09,-5.7772358359403e-09,-0.0012688037427198,0.0012688243331734,-0.0012688213395867,0.0012688068802289,-0.0012688072261322,0.0012688207499354,-0.001268824742987,0.0012688032288097,-0.001142824033485,0.0011428713731749,-0.0011428754075018,0.0011428198039598,-4.7192976825188e-09,6.0577590528544e-09,2.4196826590675e-08,-2.3062690394522e-08,-0.0016047611057465,0.0016047622712425,-0.0017075185840987,0.0017075317005714,-0.0017075338284417,0.0017075159236667,-0.0017075151225383,0.0017075352742989,-0.0017075303714112,0.0017075194952606,-0.0014865581322986,0.0014866092376127,-0.0014866038771164,0.0014865621811032,-0.0014865957474053,0.0014865707018795,-0.0014865851981274,0.0014865815165607,-2.4354653882071e-08,2.8260123478712e-08,-0.0011442973145414,0.0011443011634527,-2.0744167355162e-08,2.5480860377047e-08,-0.0012688286779388,0.0012687993701834,-0.0012688133664457,0.0012688147224532,-0.0012688111380197,0.0012688169003008,-0.0012687958148412,0.0012688322526414,-0.0011428122218403,0.0011428831042146,-0.0011428637519014,0.0011428315969059,0.68162296821614,128566,2924,0.0047575895170113,0.0066630709567325,0.0047575895168972,35.929250884963,4.7434007079706e-05,4.7434007079706e-05,4.7434007079706e-05,2635703.7241153,0.016310731508663
35619200,0.99905023116261,0.016103241634432,0.0048793018095753,0.0063446380153917,0.0048793018094646,-0.0011455549467695,0.001145554420997,2.6209713659555e-08,-2.6734614712909e-08,5.1046753335273e-09,-5.8099119034736e-09,-0.0012700677946999,0.0012700885120704,-0.0012700855124178,0.0012700709416738,-0.0012700712894452,0.0012700849177954,-0.0012700889405587,0.0012700672651937,-0.0011440898860504,0.0011441375896281,-0.0011441416541244,0.0011440856305887,-4.7689308087903e-09,6.1124006915899e-09,2.4292231013429e-08,-2.3153599864006e-08,-0.0016060928820796,0.0016060940519514,-0.0017088703552963,0.0017088834963706,-0.0017088856534026,0.0017088676640042,-0.0017088668526296,0.0017088871115753,-0.0017088821698027,0.0017088712640984,-0.0014878687223547,0.0014879200684717,-0.0014879146687435,0.0014878728087194,-0.0014879065250808,0.0014878813397895,-0.0014878958951743,0.0014878922392755,-2.4427145899493e-08,2.8453811904791e-08,-0.0011455526984123,0.0011455566692974,-2.1127285556811e-08,2.5994945094966e-08,-0.0012700929304421,0.0012700633501787,-0.0012700773151531,0.0012700790063155,-0.0012700752951436,0.0012700809756767,-0.0012700596819653,0.0012700966182537,-0.0011440779303447,0.0011441494671558,-0.001144129698404,0.001144097721278,0.65729898592695,128566,2924,0.00476279588411,0.0066685827446994,0.0047627958839971,36.57379918764,5.2590393501123e-05,5.2590393501123e-05,5.2590393501123e-05,2640825.6806175,0.016326915798213
35819200,0.99911641451085,0.01610427522169,0.0048796104023,0.0063450544172009,0.0048796104021894,-0.0011468121657962,0.0011468116278743,2.6307237094068e-08,-2.6844186248819e-08,5.1437049823546e-09,-5.8619505634341e-09,-0.0012712991024917,0.0012713199229405,-0.0012713169043844,0.0012713022665472,-0.0012713026434972,0.0012713162832396,-0.001271320345909,0.0012712985753802,-0.0011453437020837,0.001145391518899,-0.0011453956235138,0.0011453394028057,-4.7725451394926e-09,6.116384243601e-09,2.4738977302519e-08,-2.3600055672734e-08,-0.0016073794789016,0.0016073806491565,-0.0017101892890897,0.001710202738031,-0.001710204892063,0.0017101865904692,-0.0017101857998918,0.0017102063398668,-0.0017102013898109,0.0017101902090322,-0.0014891364670302,0.0014891886488538,-0.0014891832356951,0.0014891405460844,-0.0014891748575826,0.0014891493226535,-0.0014891641735268,0.001489160276045,-2.4640148572496e-08,2.8677347504868e-08,-0.0011468099057569,0.0011468138878567,-2.1042449123741e-08,2.5919964995152e-08,-0.0012713243230681,0.0012712946753879,-0.0012713087744549,0.0012713102648056,-0.0012713065581363,0.0012713124301566,-0.0012712909798143,0.0012713280378074,-0.0011453315837687,0.001145403556742,-0.0011453838273067,0.0011453513362939,0.69619234572764,128566,2924,0.0047680087382418,0.0066739086263224,0.0047680087381284,37.214030179176,5.7712241433407e-05,5.7712241433407e-05,5.7712241433407e-05,2647458.8003839,0.016342923865331
36019200,0.9991800714109,0.016105329981047,0.0048799269070009,0.0063454761671557,0.0048799269068903,-0.0011480720557868,0.0011480715168398,2.6527241672105e-08,-2.7065085771016e-08,5.1388039892163e-09,-5.8578062390404e-09,-0.0012725844340733,0.0012726053799746,-0.0012726023672397,0.0012725875959357,-0.0012725879549416,0.0012726017601686,-0.001272605823292,0.0012725838906055,-0.0011466262919884,0.0011466745928237,-0.0011466786988744,0.0011466219979769,-4.8040691013984e-09,6.1509930539727e-09,2.4601530695419e-08,-2.3459826563461e-08,-0.0016087200447677,0.0016087212178174,-0.0017115434873207,0.0017115568100094,-0.0017115589853208,0.0017115407720055,-0.0017115399596333,0.0017115604512635,-0.0017115554787788,0.0017115443953356,-0.0014904565628801,0.0014905085458009,-0.0014905031119149,0.0014904606709647,-0.0014904948143276,0.0014904693606046,-0.0014904841157917,0.0014904803287743,-2.4697203965787e-08,2.8823002551266e-08,-0.0011480697507393,0.0011480738218308,-2.1378699351233e-08,2.6352278964033e-08,-0.0012726098434229,0.0012725799454064,-0.0012725940248423,0.001272595804797,-0.0012725919934623,0.0012725977852976,-0.0012725761796212,0.0012726136286392,-0.0011466141732913,0.0011466866344628,-0.0011466665649302,0.0011466342659003,0.73586309285905,128566,2924,0.004773234158596,0.0066794559479648,0.0047732341584833,37.854089853133,6.2832718825061e-05,6.2832718825061e-05,6.2832718825061e-05,2649180.1669273,0.01635918410726
36219200,0.9992390620551,0.016106275443318,0.0048802097214853,0.0063458560004577,0.0048802097213747,-0.0011480587912951,0.0011480582444845,2.6661137785317e-08,-2.7206864612432e-08,5.1623651010287e-09,-5.8899663651588e-09,-0.0012726377713845,0.0012726588272292,-0.0012726558038735,0.0012726409443322,-0.0012726413183265,0.0012726551821801,-0.0012726592705827,0.0012726372271983,-0.0011466388102427,0.0011466873332765,-0.0011466914654089,0.0011466344897079,-4.8172550160483e-09,6.1653317681113e-09,2.4980794111358e-08,-2.3838083686083e-08,-0.0016088170952178,0.0016088182692848,-0.0017116392254585,0.0017116527978587,-0.0017116549771052,0.0017116364979661,-0.0017116356960438,0.0017116564409715,-0.0017116514544493,0.0017116401378505,-0.0014905322328606,0.0014905849500077,-0.0014905794975812,0.0014905363425904,-0.0014905709954777,0.0014905452438692,-0.0014905602506191,0.0014905562596547,-2.4846645759667e-08,2.9040757038614e-08,-0.0011480564477224,0.0011480605880013,-2.1525657881163e-08,2.6572048964649e-08,-0.0012726633201723,0.0012726332534565,-0.0012726473871,0.0012726492272873,-0.0012726453549553,0.0012726512084732,-0.0012726294121918,0.0012726671806892,-0.0011466265175303,0.0011466995487069,-0.0011466792901132,0.0011466467991126,0.71361054578524,128566,2924,0.0047731808131467,0.0066798554410311,0.0047731808130357,37.827178540175,6.2617428321398e-05,6.2617428321398e-05,6.2617428321398e-05,2645415.671469,0.016359483120302
36419200,0.99929287919041,0.016107126159618,0.0048804639114741,0.0063461983367801,0.0048804639113634,-0.0011474768451207,0.0011474763007222,2.6863303688181e-08,-2.7406613059454e-08,5.1534974015062e-09,-5.8785005615489e-09,-0.0012720735618386,0.0012720947371699,-0.0012720917190045,0.0012720767312619,-0.001272077091901,0.001272091109341,-0.0012720951891423,0.0012720730104288,-0.0011460605114927,0.0011461094682429,-0.0011461135921611,0.001146056201218,-4.8246081575325e-09,6.1734717493228e-09,2.5102967634747e-08,-2.3959542638419e-08,-0.001608271866236,0.0016082730409801,-0.001711099535348,0.0017111131723762,-0.0017111153549053,0.0017110968021085,-0.0017110959904189,0.0017111168310804,-0.0017111118376299,0.0017111004369871,-0.0014899752502311,0.0014900282421202,-0.0014900227818352,0.0014899793637144,-0.0014900141808941,0.0014899883640518,-0.0014900034514519,0.0014899993661013,-2.4942191895815e-08,2.9185939170853e-08,-0.0011474744776352,0.0011474786681522,-2.172956125229e-08,2.6830990601571e-08,-0.0012720992683489,0.0012720690064699,-0.0012720831711805,0.0012720851443698,-0.001272081212822,0.0012720870519047,-0.0012720651266078,0.0012721031676085,-0.0011460482324201,0.0011461216712827,-0.001146101209555,0.0011460687166869,0.70434019442423,128566,2924,0.0047707680342532,0.0066775982432892,0.0047707680341429,37.496751693062,5.9974013544499e-05,5.9974013544499e-05,5.9974013544499e-05,2641455.808392,0.016352284784506
36619200,0.99934201774791,0.016107858456105,0.0048806815853179,0.0063464952855799,0.0048806815852072,-0.0011468769205718,0.0011468763770934,2.6947188643395e-08,-2.7489626889591e-08,5.1485063092656e-09,-5.8724355783006e-09,-0.0012714728114295,0.0012714940582313,-0.0012714910424006,0.001271475977574,-0.0012714763567412,0.0012714904152309,-0.0012714944899767,0.001271472279288,-0.0011454563199962,0.0011455053881296,-0.0011455095068499,0.0011454520133685,-4.7946639980708e-09,6.1405742289077e-09,2.5135374930844e-08,-2.3994608568179e-08,-0.0016076833453776,0.0016076845174789,-0.0017105197828617,0.001710533479965,-0.001710535643731,0.0017105170673494,-0.0017105162774234,0.001710537098502,-0.0017105321279453,0.0017105206999524,-0.0014893773875144,0.0014894303679536,-0.0014894249296616,0.001489381475965,-0.0014894163216581,0.0014893904867186,-0.001489405598219,0.0014894014800333,-2.519246496088e-08,2.9411406998701e-08,-0.0011468745659563,0.0011468787316531,-2.164091135766e-08,2.6715530839328e-08,-0.001271498601844,0.0012714682432169,-0.0012714825911937,0.0012714842946464,-0.0012714804063543,0.0012714864285471,-0.0012714643688216,0.0012715024954734,-0.0011454438811458,0.0011455177499587,-0.001145497380783,0.0011454642732848,0.66675280325368,128566,2924,0.0047682802429856,0.0066751624665937,0.0047682802428746,37.158405213785,5.7267241710281e-05,5.7267241710281e-05,5.7267241710281e-05,2638375.7577667,0.016344752122176
36819200,0.99938694040254,0.016108509492174,0.0048808746789866,0.0063467601343112,0.004880874678876,-0.001146280210396,0.0011462796736949,2.7165944237805e-08,-2.7701677802039e-08,5.1218144738428e-09,-5.8383277116254e-09,-0.0012708249214114,0.0012708462845317,-0.00127084328211,0.001270828074017,-0.0012708284325065,0.0012708426754311,-0.00127084672385,0.0012708243821556,-0.0011448298628651,0.0011448794215549,-0.001144883513838,0.0011448255833607,-4.779925722962e-09,6.1244594906136e-09,2.4956883587455e-08,-2.3817337460689e-08,-0.0016070343026899,0.001607035473563,-0.0017098983757237,0.0017099119501164,-0.0017099141070319,0.0017098956712088,-0.0017098948663173,0.0017099155726361,-0.001709910615196,0.0017098992792992,-0.0014887225864833,0.0014887752469178,-0.0014887698239816,0.0014887266675674,-0.0014887612689025,0.0014887356221081,-0.0014887506162912,0.0014887465438592,-2.5306200799573e-08,2.9509524780634e-08,-0.0011462778671511,0.0011462820168856,-2.1571123165288e-08,2.6628093627558e-08,-0.001270850793717,0.001270820387519,-0.0012708348214531,0.0012708364005847,-0.0012708325139114,0.0012708386573666,-0.0012708165426845,0.0012708546579927,-0.0011448176205665,0.0011448915873485,-0.0011448712855254,0.0011448379450199,0.64957833156092,128566,2924,0.0047658044071998,0.0066724780019084,0.0047658044070923,36.819743470969,5.4557947767755e-05,5.4557947767755e-05,5.4557947767755e-05,2639052.9411982,0.016336989910154
37019200,0.99942922887239,0.016109163329126,0.0048810698898917,0.0063470235494531,0.0048810698897811,-0.0011466806396284,0.0011466801021172,2.7312078912847e-08,-2.7848613704751e-08,5.1236692426735e-09,-5.8410833747947e-09,-0.0012711681352012,0.0012711896011436,-0.0012711865966542,0.0012711712871881,-0.0012711716515321,0.0012711859857107,-0.0012711900361434,0.0012711675986332,-0.0011452067375263,0.0011452565685165,-0.0011452606622296,0.001145202454892,-4.7782769903297e-09,6.1226952646272e-09,2.4510631695968e-08,-2.3371193271794e-08,-0.0016074077596316,0.0016074089303948,-0.0017103070145371,0.0017103202999644,-0.001710322460436,0.0017103043155779,-0.0017103035104308,0.0017103239171069,-0.0017103189654926,0.0017103079267884,-0.001489085194303,0.0014891369648101,-0.0014891315529004,0.0014890892839285,-0.0014891232945266,0.0014890979339386,-0.0014891126328749,0.0014891088649885,-2.5531814313014e-08,2.9634116928039e-08,-0.0011466783471403,0.0011466823945502,-2.116830246389e-08,2.6113460440864e-08,-0.0012711940121975,0.001271163698104,-0.0012711783485625,0.0012711794025399,-0.0012711756200643,0.0012711820802503,-0.0012711599488957,0.0012711977808009,-0.0011451946554858,0.0011452685731419,-0.0011452486757699,0.0011452145755588,0.68961815050555,128566,2924,0.0047674636338682,0.006674025537645,0.0047674636337586,37.015975336431,5.6127802691445e-05,5.6127802691445e-05,5.6127802691445e-05,2645450.9319216,0.016341933949987
37219200,0.99946927775951,0.01610982487183,0.0048812685034771,0.006347287864986,0.0048812685033665,-0.0011473232834981,0.0011473227460581,2.7491559028596e-08,-2.8028022207316e-08,5.1225417999911e-09,-5.8398672707106e-09,-0.001271820291354,0.0012718418706776,-0.0012718388659784,0.0012718234417139,-0.0012718238009305,0.001271838260934,-0.0012718423106672,0.0012718197490271,-0.001145856283613,0.0011459064825113,-0.0011459105755537,0.0011458520019502,-4.7760147777328e-09,6.1201847727327e-09,2.4072318285377e-08,-2.2933106093763e-08,-0.0016081015016411,0.0016081026722068,-0.0017110174308589,0.0017110304234612,-0.0017110325873171,0.0017110147380452,-0.0017110139229514,0.0017110340445338,-0.0017110290992644,0.0017110183421287,-0.0014897609311954,0.0014898118556438,-0.0014898064549946,0.001489765028733,-0.0014897984584969,0.0014897734091268,-0.001489787817359,0.0014897843190253,-2.5713068298491e-08,2.9737391887239e-08,-0.0011473210306109,0.0011473249988913,-2.0846759514042e-08,2.5704971585535e-08,-0.0012718461921251,0.0012718159429463,-0.0012718307653945,0.0012718314104757,-0.001271827699615,0.0012718344254594,-0.0012718122762348,0.0012718498782137,-0.0011458444137124,0.0011459182750859,-0.0011458986969823,0.0011458640146258,0.73362542617033,128566,2924,0.0047701290424341,0.0066768964028738,0.0047701290423267,37.342533027512,5.8740264220098e-05,5.8740264220098e-05,5.8740264220098e-05,2648302.2186362,0.016350269863909
37419200,0.99950716196061,0.016110407514252,0.0048814422758561,0.0063475229626501,0.0048814422757455,-0.0011479601919868,0.0011479596561254,2.7599272469888e-08,-2.8134160548092e-08,5.1160139528333e-09,-5.831610236075e-09,-0.0012725275096746,0.0012725491713592,-0.0012725461687138,0.0012725306553923,-0.0012725310286632,0.0012725455518588,-0.0012725495942425,0.0012725269822459,-0.0011465273571836,0.001146577729605,-0.0011465818138049,0.0011465230796816,-4.7721633198628e-09,6.1159592410551e-09,2.3896687150905e-08,-2.2757805553427e-08,-0.0016088607050037,0.0016088618751997,-0.0017117711228776,0.0017117840165769,-0.0017117861795744,0.0017117684337603,-0.0017117676319388,0.0017117876204648,-0.0017117826798248,0.001711772049626,-0.0014904980263729,0.0014905485606343,-0.0014905431665258,0.001490502124248,-0.0014905353208337,0.001490510352254,-0.0014905246454663,0.0014905212963357,-2.5964538887564e-08,2.9915462868178e-08,-0.0011479579769698,0.0011479618710885,-2.0542255795657e-08,2.5319461247461e-08,-0.0012725534371181,0.0012725232156476,-0.0012725382538394,0.0012725384397122,-0.0012725348158908,0.0012725418269421,-0.0012725196070248,0.0012725570651619,-0.0011465154925873,0.0011465895145812,-0.0011465702387948,0.0011465347910999,0.6866555851271,128566,2924,0.0047727722330454,0.006680036101134,0.0047727722329382,37.672577895247,6.138062316198e-05,6.138062316198e-05,6.138062316198e-05,2646807.7747899,0.016358835341319
37619200,0.99954294971163,0.01611093863207,0.0048816001666113,0.0063477382989576,0.0048816001665007,-0.0011486061956145,0.0011486056659624,2.7788222630553e-08,-2.8316961765158e-08,5.112573410173e-09,-5.8219584228136e-09,-0.0012731777828921,0.0012731995640191,-0.0012731965594746,0.0012731809305396,-0.0012731812906822,0.0012731959552391,-0.0012731999875707,0.0012731772554009,-0.0011471780229264,0.0011472287896208,-0.0011472328639982,0.0011471737565396,-4.7650918763023e-09,6.1082009732413e-09,2.3694942270543e-08,-2.2556672594018e-08,-0.0016095446806653,0.0016095458502492,-0.0017124700268273,0.0017124827846104,-0.0017124849450302,0.0017124673438375,-0.0017124665341512,0.0017124863901402,-0.0017124814567853,0.0017124709480856,-0.0014911675691377,0.0014912177216315,-0.0014912123368702,0.0014911716651626,-0.001491204591432,0.0014911797887105,-0.0014911939498188,0.0014911907005023,-2.6168133116805e-08,2.998354324752e-08,-0.001148604051733,0.0011486078097893,-2.048868272416e-08,2.5128599103721e-08,-0.0012732038459774,0.0012731734727012,-0.0012731887370652,0.0012731886224219,-0.0012731851278124,0.0012731921809355,-0.0012731700065412,0.0012732073315612,-0.0011471663407138,0.001147240392955,-0.0011472213330181,0.0011471854231292,0.66415285370799,128566,2924,0.0047754513416468,0.0066828667066702,0.0047754513415378,38.002762205921,6.402209764737e-05,6.402209764737e-05,6.402209764737e-05,2649053.9197582,0.016367158210114
37819200,0.99957580029665,0.016111407163761,0.0048817389391154,0.0063479292856411,0.0048817389390048,-0.0011482655077943,0.0011482649765594,2.7955960955509e-08,-2.8486236097702e-08,5.1192285768457e-09,-5.8302739651913e-09,-0.001272800448057,0.0012728223424819,-0.0012728193356,0.0012728036000828,-0.0012728039588736,0.001272818731458,-0.0012728227705425,0.001272799917259,-0.0011468104408196,0.0011468615377299,-0.0011468656193534,0.0011468061686989,-4.7721903146264e-09,6.1159893196657e-09,2.4012590916595e-08,-2.2873707318825e-08,-0.0016091650233197,0.0016091661935232,-0.0017121195572439,0.0017121325178728,-0.0017121346793851,0.001712116866739,-0.0017121160573981,0.0017121361306523,-0.0017121311886044,0.0017121204737042,-0.0014907786972802,0.0014908294857443,-0.0014908240885418,0.0014907827919668,-0.0014908161418515,0.0014907911222538,-0.0014908054926687,0.0014908020413404,-2.6284864683568e-08,3.0172565491233e-08,-0.0011482633265161,0.0011482671577822,-2.0785469695345e-08,2.5505456514263e-08,-0.0012728266964283,0.001272796066904,-0.0012728113617681,0.0012728114423706,-0.0012728078739364,0.001272814879422,-0.0012727925315571,0.001272830251172,-0.0011467986301883,0.0011468732701797,-0.0011468539152347,0.0011468180077724,0.64016140811556,128566,2924,0.0047740374652617,0.0066812968184469,0.0047740374651514,37.804428522663,6.2435428181307e-05,6.2435428181307e-05,6.2435428181307e-05,2650534.2319122,0.016362687725432
38019200,0.99960590630229,0.016111855177894,0.0048818722448194,0.0063481106883654,0.0048818722447088,-0.001147844495173,0.0011478439646814,2.8106085821636e-08,-2.8635621360908e-08,5.1165808712018e-09,-5.8268497656217e-09,-0.0012723044162586,0.0012723264121312,-0.0012723234073038,0.0012723075678921,-0.0012723079282018,0.0012723228008065,-0.0012723268371697,0.0012723038892897,-0.0011463485876068,0.0011463999732571,-0.0011464040523005,0.0011463443183902,-4.7753288582754e-09,6.1195988868664e-09,2.4355100513044e-08,-2.3215780374728e-08,-0.0016086539865471,0.0016086551570634,-0.0017116467977612,0.0017116599845802,-0.0017116621442989,0.0017116441016236,-0.001711643298357,0.0017116635968181,-0.0017116586488056,0.0017116477135932,-0.0014902619012461,0.0014903133564008,-0.0014903079494285,0.0014902659908005,-0.0014902997952316,0.0014902745343714,-0.0014902891318355,0.0014902854684762,-2.6423620577748e-08,3.0377028994411e-08,-0.0011478422809499,0.0011478461788485,-2.105682859634e-08,2.5850057726892e-08,-0.0012723308413999,0.0012722999605975,-0.0012723153048134,0.0012723155379616,-0.0012723119073693,0.0012723188846945,-0.0012722963577119,0.0012723344637154,-0.0011463366151018,0.0011464118678401,-0.0011463922433757,0.0011463562620011,0.6656981308953,128566,2924,0.0047722896480685,0.0066791843663249,0.004772289647957,37.56024543145,6.0481963451598e-05,6.0481963451598e-05,6.0481963451598e-05,2653435.891729,0.016356986187727
38219200,0.99963352102354,0.016112269433772,0.0048819956263014,0.0063482781812795,0.0048819956261908,-0.0011474217161128,0.0011474211861196,2.8268902418296e-08,-2.8797943607098e-08,5.1148753188899e-09,-5.8245753810438e-09,-0.001271844064628,0.0012718661678738,-0.0012718631647216,0.0012718472161889,-0.0012718475755275,0.0012718625581988,-0.0012718665929511,0.0012718435386679,-0.0011459040149731,0.0011459557202774,-0.0011459597983511,0.0011458997483909,-4.7714002308805e-09,6.1151691201339e-09,2.4594035131991e-08,-2.3455177170555e-08,-0.0016081762580107,0.001608177428176,-0.001711192804864,0.0017112061519577,-0.0017112083068664,0.0017111901087464,-0.0017111893082151,0.0017112097614768,-0.0017112048139724,0.0017111937178822,-0.0014897758846605,0.0014898278066555,-0.0014898223972964,0.0014897799660789,-0.0014898140841797,0.001489788672907,-0.001489803428801,0.0014897995984748,-2.6555989142966e-08,3.0562234290139e-08,-0.0011474194753333,0.001147423426843,-2.1280350945063e-08,2.6132374539574e-08,-0.0012718706545055,0.0012718395524147,-0.0012718549503356,0.0012718552973855,-0.0012718516144939,0.0012718585824882,-0.0012718358972304,0.0012718743291183,-0.0011458919369238,0.0011459677211998,-0.0011459478767016,0.0011459118039352,0.67076170970776,128566,2924,0.004770535589919,0.0066772083936416,0.0047705355898073,37.314711284727,5.8517690277816e-05,5.8517690277816e-05,5.8517690277816e-05,2652857.660419,0.016351411687773
38419200,0.99965904374673,0.016112678078398,0.0048821180715722,0.0063484419353638,0.0048821180714616,-0.001147236507052,0.0011472359769111,2.8435934929542e-08,-2.8965122724512e-08,5.1155731208979e-09,-5.8254546447123e-09,-0.0012716329339138,0.0012716551467564,-0.0012716521433729,0.001271636085977,-0.0012716364432267,0.0012716515387235,-0.0012716555742035,0.0012716324058077,-0.001145705559773,0.0011457575979728,-0.0011457616768658,0.0011457012927483,-4.7696003201607e-09,6.1131977244176e-09,2.4610378900935e-08,-2.3471675473661e-08,-0.0016079555520444,0.0016079567220528,-0.0017109915492497,0.001711004906196,-0.0017110070598353,0.0017109888540357,-0.0017109880516905,0.0017110085165863,-0.0017110035702767,0.0017109924598,-0.0014895460492413,0.0014895980084042,-0.0014895926000137,0.0014895501287612,-0.0014895842675581,0.0014895588552485,-0.0014895736222268,0.0014895697707477,-2.6708727071983e-08,3.0718111859832e-08,-0.0011472342645935,0.0011472382193142,-2.1309078257522e-08,2.6165028897522e-08,-0.0012716596397984,0.0012716284154278,-0.0012716439132501,0.0012716441827853,-0.0012716404947459,0.00127164755053,-0.0012716247593387,0.0012716633153026,-0.0011456934886473,0.0011457695921233,-0.0011457497243628,0.0011457133789849,0.71253731598948,128566,2924,0.0047697670817049,0.0066762957165214,0.0047697670815945,37.196807447112,5.7574459576899e-05,5.7574459576899e-05,5.7574459576899e-05,2652524.4880937,0.016348921502436
38619200,0.99968278549804,0.016113060303429,0.0048822326408235,0.0063485950218924,0.0048822326407129,-0.0011472574868506,0.0011472569567127,2.860054705953e-08,-2.9129732683633e-08,5.1158608266105e-09,-5.8257364949255e-09,-0.0012716893322246,0.0012717116538718,-0.0012717086499239,0.001271692484099,-0.0012716928404642,0.0012717080466121,-0.0012717120822083,0.001271688802784,-0.0011457440300163,0.0011457963936262,-0.0011458004724253,0.0011457397625152,-4.7689368294299e-09,6.1124435638096e-09,2.448093391445e-08,-2.3342310876367e-08,-0.0016080189945231,0.0016080201644547,-0.0017110520361311,0.0017110653070921,-0.0017110674616792,0.0017110493426465,-0.0017110485379287,0.0017110689181175,-0.0017110639736727,0.0017110529468206,-0.0014895966060131,0.0014896483137794,-0.0014896429087592,0.0014896006878152,-0.0014896346552425,0.001489609333155,-0.0014896240145281,0.0014896202439799,-2.6882284721166e-08,3.0858258667055e-08,-0.0011472552612933,0.0011472591822145,-2.1194909959344e-08,2.6014330530862e-08,-0.0012717161177557,0.0012716848425265,-0.0012717004780244,0.0012717005230668,-0.001271696867015,0.0012717040833101,-0.0012716812206473,0.0012717197590419,-0.001145732030014,0.0011458083163593,-0.0011457885696774,0.0011457517992944,0.71625965370797,128566,2924,0.004769855268979,0.0066765569125251,0.0047698552688683,37.193736038603,5.7549888308822e-05,5.7549888308822e-05,5.7549888308822e-05,2648720.6057915,0.016349367221042
38819200,0.99970487418405,0.016113417148349,0.0048823396256552,0.0063487378971488,0.0048823396255446,-0.0011472781360655,0.0011472776069096,2.8752400525768e-08,-2.9280615577821e-08,5.112277125035e-09,-5.821080911621e-09,-0.0012717487601425,0.0012717711843585,-0.0012717681819444,0.0012717519100172,-0.0012717522689191,0.0012717675762019,-0.0012717716082866,0.0012717482350827,-0.0011457829659346,0.0011458356194559,-0.0011458396948766,0.0011457787024245,-4.7656334971091e-09,6.108800081939e-09,2.4312688602758e-08,-2.3174367471217e-08,-0.0016080904993986,0.0016080916690358,-0.001711118102907,0.0017111312684759,-0.0017111334228767,0.0017111154132729,-0.0017111146104076,0.0017111348737436,-0.001711129933676,0.0017111190185352,-0.0014896571694452,0.001489708534569,-0.0014897031358806,0.001489661252386,-0.0014896949955022,0.0014896697814104,-0.001489684351438,0.0014896806953525,-2.7066502674158e-08,3.1014231590596e-08,-0.0011472759253315,0.0011472798175882,-2.1093026945447e-08,2.5881290355819e-08,-0.001271775626847,0.0012717442916105,-0.001271760068511,0.0012717598907766,-0.0012717562661454,0.0012717636423691,-0.0012717406942901,0.0012717792436005,-0.0011457709922605,0.0011458475161763,-0.0011458278752268,0.0011457906557876,0.71844598990178,128566,2924,0.0047699420970253,0.006676851405111,0.004769942096915,37.193613828294,5.7548910626355e-05,5.7548910626355e-05,5.7548910626355e-05,2645193.6823628,0.016349844032865
38880000,0.99971143978335,0.016113523345,0.0048823714685793,0.0063487804079519,0.0048823714684687,-0.0011472828664954,0.0011472823379281,2.8792865774399e-08,-2.9320501792361e-08,5.110062119689e-09,-5.8182309955075e-09,-0.0012717660713122,0.0012717885241981,-0.0012717855228396,0.001271769220056,-0.0012717695813211,0.0012717849146797,-0.0012717889445962,0.0012717655498274,-0.0011457938070175,0.0011458465327613,-0.001145850606094,0.0011457895459247,-4.7635542536874e-09,6.1065193718484e-09,2.4257812254957e-08,-2.3119670109125e-08,-0.0016081130910217,0.0016081142604696,-0.0017111382605259,0.0017111513941888,-0.0017111535479405,0.001711135572718,-0.0017111347724098,0.0017111549950289,-0.0017111500571999,0.0017111391794926,-0.0014896769511215,0.001489728198323,-0.0014897228025149,0.0014896810336868,-0.0014897147030283,0.0014896895207289,-0.0014897040545397,0.0014897004390742,-2.7127251820488e-08,3.1068579028574e-08,-0.0011472806593174,0.0011472845450509,-2.1070806945253e-08,2.5851998540504e-08,-0.0012717929646509,0.0012717616047723,-0.0012717774263949,0.0012717771838442,-0.0012717735685765,0.0012717809909268,-0.0012717580108556,0.0012717965780039,-0.0011457818205602,0.0011458584424536,-0.0011458388249134,0.0011458014606327,0.71909629289708,128566,2924,0.0047699620889927,0.0066769444385898,0.0047699620888829,37.193609117918,5.7548872943345e-05,5.7548872943345e-05,5.7548872943345e-05,2644112.5970229,0.016349979535791
