time,ASR_ext,ASR_strain,ASR_strain_xx,ASR_strain_yy,ASR_strain_zz,disp_x_101,disp_x_102,disp_x_103,disp_x_104,disp_x_105,disp_x_106,disp_x_p1_neg,disp_x_p1_pos,disp_x_p2_neg,disp_x_p2_pos,disp_x_p3_neg,disp_x_p3_pos,disp_x_p4_neg,disp_x_p4_pos,disp_x_p5_neg,disp_x_p5_pos,disp_x_p6_neg,disp_x_p6_pos,disp_y_101,disp_y_102,disp_y_103,disp_y_104,disp_y_105,disp_y_106,disp_y_p1_neg,disp_y_p1_pos,disp_y_p2_neg,disp_y_p2_pos,disp_y_p3_neg,disp_y_p3_pos,disp_y_p4_neg,disp_y_p4_pos,disp_y_p5_neg,disp_y_p5_pos,disp_y_p6_neg,disp_y_p6_pos,disp_y_p7_neg,disp_y_p7_pos,disp_y_p8_neg,disp_y_p8_pos,disp_z_101,disp_z_102,disp_z_103,disp_z_104,disp_z_105,disp_z_106,disp_z_p1_neg,disp_z_p1_pos,disp_z_p2_neg,disp_z_p2_pos,disp_z_p3_neg,disp_z_p3_pos,disp_z_p4_neg,disp_z_p4_pos,disp_z_p5_neg,disp_z_p5_pos,disp_z_p6_neg,disp_z_p6_pos,humidity,ndof,nelem,strain_xx,strain_yy,strain_zz,temp,thermal_strain_xx,thermal_strain_yy,thermal_strain_zz,vonmises,vstrain
2419200,0,0,0,0,0,0,0,0,0,0,0,0,0,0,0,0,0,0,0,0,0,0,0,0,0,0,0,0,0,0,0,0,0,0,0,0,0,0,0,0,0,0,0,0,0,0,0,0,0,0,0,0,0,0,0,0,0,0,0,0,0,0,0,0,0,0,0,0,0,0,0,0,0,0,0
2619200,0.019525899678261,0.00040056259154652,0.00013352086384884,0.00013352086384884,0.00013352086384884,-3.4181235570613e-05,3.4181684482616e-05,1.9666707115657e-10,2.48778265705e-10,-6.2731056835911e-10,1.1031743372518e-09,-3.3708571629802e-05,3.3708430738457e-05,-3.3708461944036e-05,3.3708355765446e-05,-3.3707969610353e-05,3.3708958446945e-05,-3.3707958980739e-05,3.3708982593711e-05,-3.4953680677308e-05,3.4954648147597e-05,-3.4953605755126e-05,3.4954675364265e-05,5.6648797308936e-10,-1.1658296111395e-09,-2.2929493250886e-08,2.2357342235894e-08,-3.5405614569604e-05,3.5405039051886e-05,-3.4729524036584e-05,3.4714677504968e-05,-3.4715029925625e-05,3.4729867892735e-05,-3.4730075247443e-05,3.4714099039601e-05,-3.4715581108671e-05,3.4729289462535e-05,-3.5866240145891e-05,3.5820656859802e-05,-3.5822424937388e-05,3.5865717299345e-05,-3.5835775973858e-05,3.5851898700607e-05,-3.5837461500299e-05,3.585016403879e-05,-5.7674136955287e-09,-5.8192193397386e-09,-3.4187296487074e-05,3.4175623564018e-05,1.6224007830872e-08,-2.8590602957649e-08,-3.3706760222838e-05,3.3710161467829e-05,-3.3721620942857e-05,3.3695298772906e-05,-3.3706779404732e-05,3.3710146086656e-05,-3.372163973765e-05,3.3695283067231e-05,-3.4967434761809e-05,3.4940869271546e-05,-3.49673788585e-05,3.4940914735357e-05,0.81992965372652,128566,2924,0.00014241256339237,0.0001475112583153,0.0001424125633923,31.518930946451,1.2151447571609e-05,1.2151447571609e-05,1.2151447571609e-05,467263.24704725,0.00043243007289031
2819200,0.041121410773023,0.00084150724715984,0.0002798524177086,0.00028180241178912,0.00027985241766212,-7.0745362974899e-05,7.0741936168206e-05,-1.5593927191832e-09,-1.845129495616e-09,4.397664602456e-09,-8.018157326963e-09,-7.0686844126318e-05,7.0687618327947e-05,-7.0686899505582e-05,7.0687483894988e-05,-7.0690795093127e-05,7.0683469758929e-05,-7.0690868617266e-05,7.0683352087862e-05,-7.1998560456024e-05,7.1991326646203e-05,-7.1998748307661e-05,7.1990952813321e-05,-3.9313413162287e-09,8.4702754535315e-09,-1.6817209628179e-09,6.0294054223913e-09,-7.3838635350484e-05,7.3843003945811e-05,-7.3132876669726e-05,7.3130575650699e-05,-7.3130261262501e-05,7.3133124200305e-05,-7.3128936958358e-05,7.3134717002862e-05,-7.3126322233608e-05,7.3137264859711e-05,-7.4281310290675e-05,7.4282208283895e-05,-7.427383079085e-05,7.42898343693e-05,-7.4284303251752e-05,7.4279089784875e-05,-7.4272239056635e-05,7.429150714749e-05,1.8623581361575e-09,2.157593448032e-09,-7.0741680231793e-05,7.0745618889538e-05,5.8110304623906e-09,-1.9688176405914e-09,-7.0683943800491e-05,7.069039465541e-05,-7.0686578543529e-05,7.0687771759343e-05,-7.0683832278533e-05,7.0690480619801e-05,-7.0686470174511e-05,7.0687859500457e-05,-7.1994074539535e-05,7.1995729506285e-05,-7.1994395798556e-05,7.1995474688344e-05,0.82138489006533,128566,2924,0.00029472171122932,0.00030762261016948,0.00029472171118377,32.736093442215,2.1888747537724e-05,2.1888747537724e-05,2.1888747537724e-05,541563.09338475,0.0008974689294875
3019200,0.06259695673466,0.0012788357285848,0.0004239907394587,0.00043085424972117,0.00042399073940492,-0.0001039952815852,0.00010399223350276,-1.1936521782131e-09,-1.8226120916742e-09,5.7536543344722e-09,-9.0176912436784e-09,-0.00010432645329529,0.00010432850011529,-0.00010432668772573,0.00010432831584661,-0.00010433119652681,0.00010432357866888,-0.00010433139496839,0.0001043233576717,-0.00010586404497562,0.00010585673406969,-0.00010586463192603,0.00010585608829913,-5.6580924862246e-09,9.0726577695476e-09,9.2777962205286e-09,-6.1286186408044e-09,-0.00010965010582842,0.00010965330622062,-0.00010877854062842,0.00010878188244816,-0.00010878336089933,0.00010877667158271,-0.00010877380759491,0.00010878679925236,-0.0001087786280891,0.00010878158827451,-0.00011009024162722,0.00011011339916675,-0.00011010511606823,0.00011009802619329,-0.00011010971056651,0.00011009340256954,-0.00011009536067297,0.00011010814430614,3.7960831658045e-09,4.4346836357684e-09,-0.00010398965122843,0.00010399786383473,-3.3000908563058e-09,1.1747227540393e-08,-0.00010432595298551,0.000104328910444,-0.00010432102319167,0.00010433389153557,-0.00010432572335476,0.00010432910713918,-0.000104320791057,0.00010433408499181,-0.00010585345246265,0.00010586729034404,-0.00010585414037314,0.00010586672863331,0.82013323415932,128566,2924,0.00043321342556847,0.00045677741428239,0.00043321342551687,32.491948031487,1.9935584251894e-05,1.9935584251894e-05,1.9935584251894e-05,708908.1291989,0.0013240808759747
3219200,0.083847244941902,0.0017035335870625,0.00056291347060442,0.00057770664593986,0.00056291347051822,-0.00013589303486305,0.00013589058571834,-7.2451317730358e-10,-1.6969867052811e-09,5.7168500570189e-09,-8.3708307520577e-09,-0.00013685788365846,0.00013686042620718,-0.00013685826245807,0.00013686015739636,-0.00013686243531122,0.00013685573970514,-0.00013686275384631,0.00013685540992422,-0.00013818952810616,0.00013818336316462,-0.00013819048252876,0.00013818241221092,-5.7425404822492e-09,8.2970907004274e-09,1.4585782185131e-08,-1.2301202802103e-08,-0.00014486986785387,0.00014487221198046,-0.00014406926930991,0.00014407577835134,-0.00014407786511997,0.0001440667211437,-0.00014406472490333,0.00014408046330483,-0.00014407332094289,0.00014407140605294,-0.00014498889349991,0.00014502221825699,-0.00014501488428782,0.00014499545434619,-0.00014501536271317,0.00014499508666498,-0.0001450016807262,0.00014500912376826,4.3319547096074e-09,5.3136163343932e-09,-0.00013588698452333,0.00013589663601787,-8.187326214113e-09,1.8234773718319e-08,-0.00013685889453366,0.00013685935594521,-0.00013685018247627,0.00013686813536981,-0.00013685855184056,0.00013685966837375,-0.00013684983622454,0.00013686844354197,-0.00013817673526169,0.00013819614964718,-0.0001381777563923,0.00013819524925145,0.80675912456101,128566,2924,0.00056605571833261,0.00060344656559178,0.00056605571825001,32.204239283639,1.7633914269111e-05,1.7633914269111e-05,1.7633914269111e-05,832175.46456928,0.0017370660835429
3419200,0.10484443060307,0.0021113999482507,0.00069503100464702,0.00072133793905357,0.0006950310045501,-0.00016615009685932,0.00016614812143822,-3.1816263614122e-10,-1.634034063814e-09,5.4507031864533e-09,-7.6217189969517e-09,-0.00016807692552263,0.0001680797270231,-0.00016807743224628,0.0001680793572333,-0.00016808116488007,0.00016807538379451,-0.00016808159908799,0.00016807494077364,-0.00016854284289512,0.00016853781596243,-0.00016854413862036,0.0001685365337901,-5.4478584838908e-09,7.5827909788965e-09,1.7214653482123e-08,-1.5338293690134e-08,-0.00017932576686111,0.00017932770264472,-0.00017899547207998,0.00017900379530781,-0.00017900596239616,0.00017899284014657,-0.00017899123868381,0.00017900814257635,-0.00017900172926676,0.00017899718739509,-0.00017861629181771,0.00017865442719064,-0.00017864775714005,0.00017862203571248,-0.00017864577627996,0.0001786242118346,-0.00017863308051653,0.00017863723426769,4.3857813633926e-09,5.7106008600041e-09,-0.00016614405558317,0.00016615416266892,-1.0710121243052e-08,2.1322040025682e-08,-0.00016807885535644,0.00016807775912829,-0.00016806827330402,0.00016808840909357,-0.00016807839945803,0.00016807818714618,-0.00016806781392655,0.00016808883292641,-0.00016852928498831,0.00016855137441652,-0.00016853063428777,0.00016855013019066,0.78589835489976,128566,2924,0.00069204883844047,0.00074691467770759,0.00069204883834771,31.914768081054,1.5318144648434e-05,1.5318144648434e-05,1.5318144648434e-05,944856.59320007,0.0021332858545876
3619200,0.12610653056629,0.0025147947476913,0.00082437104871373,0.00086605265035554,0.00082437104862201,-0.00019641050165152,0.00019640897128313,7.4768307774741e-11,-1.5848181637603e-09,5.2036720060107e-09,-6.9206146559434e-09,-0.00019955859269687,0.00019956163898712,-0.00019955921083815,0.0001995611547458,-0.00019956252204261,0.00019955761337292,-0.00019956307319454,0.000199557054869,-0.00019867294945094,0.00019866902057703,-0.00019867457759279,0.00019866738807484,-5.112643831858e-09,7.0009113396407e-09,1.6951209692577e-08,-1.5304469917817e-08,-0.00021477136627321,0.00021477307065002,-0.00021543573066786,0.0002154440560082,-0.00021544618873109,0.00021543321053313,-0.00021543178803626,0.00021544809584608,-0.000215442249684,0.00021543724709573,-0.00021264674495473,0.00021268404525631,-0.00021267792685535,0.00021265197042946,-0.00021267544660724,0.00021265464902441,-0.00021266365106158,0.00021266675009917,3.6745932868904e-09,5.3420208047573e-09,-0.00019640522807857,0.00019641424481253,-1.1154186018215e-08,2.0701481973096e-08,-0.0001995612305093,0.00019955896768235,-0.00019955069537407,0.00019956956685252,-0.00019956065962785,0.00019955951241734,-0.00019955012412718,0.00019957010395013,-0.00019866033434311,0.00019868162777954,-0.0001986620091315,0.00019868004774164,0.77011574154054,128566,2924,0.00081804016186742,0.00089448248389212,0.00081804016177866,31.993779279532,1.5950234236254e-05,1.5950234236254e-05,1.5950234236254e-05,1110733.017898,0.0025337687901665
3819200,0.14797120548595,0.0029281712540976,0.00095595573477048,0.0010162597846452,0.0009559557346819,-0.00022763746771564,0.00022763624722801,4.0100550509201e-10,-1.6024429071249e-09,5.1132980377526e-09,-6.5148235232236e-09,-0.0002320476370073,0.00023205094448995,-0.00023204837444567,0.0002320503440381,-0.00023205140651136,0.00023204708306462,-0.00023205207264268,0.00023204641651267,-0.00022983063124843,0.00022982750355943,-0.0002298325827055,0.00022982554009065,-4.9379840492342e-09,6.6390050516735e-09,1.5361824601965e-08,-1.3892311069852e-08,-0.00025205413418688,0.00025205565941572,-0.00025403045327797,0.00025403779030558,-0.00025403994096986,0.0002540279509839,-0.00025402668644426,0.00025404164666504,-0.00025403617193573,0.0002540318098222,-0.00024823653725355,0.00024827052370666,-0.00024826477243177,0.00024824141764594,-0.0002482629289543,0.00024824345966475,-0.00024825164465076,0.00024825503739528,2.8842593569176e-09,4.8942081111535e-09,-0.00022763297220171,0.00022764074270052,-1.0185987378695e-08,1.8488053008933e-08,-0.00023205056253245,0.00023204799187816,-0.00023204108425044,0.00023205753164095,-0.00023204988023295,0.00023204864725678,-0.00023204039521717,0.00023205818549535,-0.00022981938890433,0.0002298387327784,-0.00022982140799404,0.00022983680714052,0.771401598469,128566,2924,0.00094803910360541,0.0010496751323612,0.0009480391035207,32.324804388691,1.8598435109527e-05,1.8598435109527e-05,1.8598435109527e-05,1291970.8509628,0.0029500981059645
4019200,0.17042792170047,0.0033518708365696,0.0010899620762362,0.0011719466841839,0.0010899620761495,-0.00025940946074407,0.00025940844586521,6.748991748716e-10,-1.6715604417125e-09,5.0805285725201e-09,-6.2728167112333e-09,-0.00026516900530041,0.00026517254002354,-0.00026516985552422,0.00026517182401131,-0.00026517268146419,0.00026516876891009,-0.0002651734654297,0.00026516799110712,-0.00026160368403427,0.00026160119017316,-0.00026160596846293,0.00026159888553842,-4.826925194131e-09,6.4787201697666e-09,1.3775176310481e-08,-1.2352440763281e-08,-0.00029071446702275,0.00029071594479314,-0.00029424186682691,0.00029424822130895,-0.00029425034841546,0.00029423943015991,-0.00029423818915615,0.00029425198409312,-0.00029424666814017,0.00029424319579485,-0.00028496685843766,0.0002849976420095,-0.00028499205878624,0.00028497163157749,-0.0002849910432187,0.00028497282629485,-0.00028498002055645,0.00028498413576275,2.0906762294491e-09,4.4440066308851e-09,-0.00025940569507605,0.0002594122114931,-9.2736046223695e-09,1.6301073896887e-08,-0.00026517221226414,0.00026516930616286,-0.00026516376612113,0.00026517781298826,-0.0002651714153728,0.00026517007617608,-0.0002651629621061,0.00026517858035032,-0.00026159372669056,0.00026161112949011,-0.00026159608102162,0.00026160886902956,0.77299484018999,128566,2924,0.0010802897641091,0.0012105763852935,0.0010802897640267,32.662286610128,2.1298292881025e-05,2.1298292881025e-05,2.1298292881025e-05,1461614.6617659,0.0033768470869166
4219200,0.19345124743799,0.0037859314732767,0.001226425170397,0.001333081132569,0.0012264251703108,-0.00029171325794265,0.00029171237579125,9.1256072728406e-10,-1.7770275127561e-09,5.075296520489e-09,-6.1319616441045e-09,-0.00029894785828643,0.00029895158925967,-0.00029894881956846,0.00029895075599757,-0.00029895148386992,0.00029894786531721,-0.00029895238577132,0.00029894697623496,-0.00029398950228715,0.00029398752593401,-0.00029399212008288,0.00029398488131265,-4.7669617518848e-09,6.3927215642149e-09,1.2471280406444e-08,-1.1073729765422e-08,-0.00033079891209802,0.00033080036437566,-0.00033606933275873,0.00033607486098232,-0.00033607698286378,0.00033606693835265,-0.00033606570187133,0.00033607857310806,-0.0003360733495737,0.0003360706531118,-0.00032293479600534,0.00032296297672786,-0.00032295749145541,0.00032293951924819,-0.00032295721110039,0.00032293996630018,-0.00032294632698161,0.00032295112967105,1.3583605710933e-09,4.0549665068528e-09,-0.00029171012479077,0.00029171550890333,-8.573705230764e-09,1.4445297131729e-08,-0.00029895136297465,0.00029894805706119,-0.00029894376791736,0.00029895571225409,-0.00029895045095296,0.00029894894122198,-0.00029894284880028,0.00029895659288213,-0.00029398062171611,0.00029399638442892,-0.00029398331193508,0.00029399378898771,0.77488672028839,128566,2924,0.001214736450967,0.0013773767887906,0.0012147364508851,33.000023527553,2.4000188220421e-05,2.4000188220421e-05,2.4000188220421e-05,1620854.3641501,0.0038141083947565
4419200,0.21741114557628,0.00423725775931,0.0013674311995518,0.0015023953602927,0.0013674311994655,-0.0003255007090493,0.00032549995112335,1.1375243371531e-09,-1.8784223701245e-09,5.0249242689209e-09,-5.9525902158814e-09,-0.00033453041120257,0.00033453428410043,-0.00033453146525027,0.00033453335346083,-0.00033453394805494,0.00033453064804728,-0.00033453497765068,0.00033452964156563,-0.00032794610607923,0.00032794468919418,-0.00032794908511436,0.0003279416855571,-4.7237084580962e-09,6.2976124914524e-09,1.1282814889706e-08,-9.9352662026727e-09,-0.00037362465850022,0.00037362606043623,-0.00038075325368464,0.00038075799909138,-0.00038076014494242,0.00038075087516076,-0.0003807496529625,0.00038076167706516,-0.0003807565690835,0.00038075452850201,-0.00036354747573802,0.00036357332184091,-0.00036356796528463,0.00036355213605602,-0.00036356829827141,0.00036355194997079,-0.0003635575849318,0.0003635629323892,7.0108110051658e-10,3.7579562474615e-09,-0.00032549812008146,0.00032550254005129,-8.0829683772468e-09,1.2963630227266e-08,-0.00033453420634985,0.00033453046304963,-0.00033452725332203,0.00033453747523484,-0.0003345331603541,0.00033453148082982,-0.00033452622781941,0.00033453846211042,-0.00032793815619634,0.0003279526186979,-0.00032794115698551,0.00032794970942789,0.77612067062795,128566,2924,0.0013553393461277,0.0015555528557342,0.0013553393460454,33.593797705533,2.8750381644263e-05,2.8750381644263e-05,2.8750381644263e-05,1772503.2980776,0.0042753497512018
4619200,0.24244720411839,0.0047084834479719,0.0015135158239362,0.0016814518001867,0.001513515823849,-0.00036061025629415,0.00036060957826903,1.3531954603388e-09,-2.0147097186201e-09,5.014776552685e-09,-5.8585079135165e-09,-0.00037165931078589,0.00037166335082511,-0.00037166048816791,0.00037166229199385,-0.00037166282076482,0.00037165974179019,-0.00037166396123048,0.00037165862981043,-0.00036326644717479,0.00036326546122862,-0.00036326974264599,0.0003632621395007,-4.6959443033603e-09,6.2103347468011e-09,1.0590734417142e-08,-9.3004168013567e-09,-0.0004191465829278,0.00041914792703883,-0.00042829686495521,0.00042830114872076,-0.00042830333030531,0.00042829447858333,-0.00042829330254537,0.00042830478370651,-0.00042829978371173,0.00042829809853292,-0.00040671143391122,0.00040673586459857,-0.00040673063593949,0.00040671603053026,-0.00040673133624073,0.00040671545991213,-0.00040672070855,0.00040672634425993,1.5691528671059e-10,3.5485104669829e-09,-0.00036060808823818,0.00036061174628561,-7.798494921098e-09,1.1890137422324e-08,-0.00037166339794512,0.00037165923884687,-0.0003716568939863,0.00037166580045715,-0.00037166224872429,0.00037166035960559,-0.00037165574761792,0.00037166690783315,-0.00036325913583572,0.00036327275117525,-0.00036326249036177,0.00036326948538352,0.77693645627554,128566,2924,0.0015014239016445,0.0017449107013248,0.0015014239015632,34.29149404379,3.4331952350321e-05,3.4331952350321e-05,3.4331952350321e-05,1924621.5598537,0.0047590537457017
4819200,0.26852832592935,0.0051991621902125,0.0016644042305629,0.0018703537291764,0.0016644042304732,-0.00039678840698654,0.00039678777313183,1.5457289031827e-09,-2.1635663283903e-09,5.0212326019516e-09,-5.8185972446423e-09,-0.00041002244246647,0.0004100266248899,-0.00041002372992774,0.00041002545396587,-0.00041002593979994,0.00041002303021234,-0.00041002719864958,0.00041002180386306,-0.00039966479996387,0.00039966421131562,-0.00039966843673515,0.00039966054510156,-4.6938026736826e-09,6.1723710118466e-09,1.0279779258771e-08,-9.0235359937282e-09,-0.00046712213869779,0.00046712344847476,-0.00047849974021302,0.00047850380416205,-0.00047850601693715,0.00047849734231019,-0.00047849618724735,0.0004785074270294,-0.00047850248377031,0.00047850094633097,-0.00045206162101071,0.0004520854359134,-0.00045208028276122,0.00045206619811115,-0.00045208113136944,0.00045206546217091,-0.00045207054704224,0.00045207629520024,-2.5822227088118e-10,3.4786949274725e-09,-0.00039678650641298,0.00039678967366462,-7.7612518800532e-09,1.1342034657318e-08,-0.00041002680611856,0.0004100222386715,-0.00041002048909153,0.00041002861173123,-0.00041002553895455,0.00041002347708264,-0.00041001923018039,0.00041002983156994,-0.00039965785963501,0.00039967112823404,-0.0003996615422422,0.00039966753147632,0.77792178516865,128566,2924,0.0016519335561132,0.0019444352330605,0.0016519335560289,34.991894449577,3.9935155596619e-05,3.9935155596619e-05,3.9935155596619e-05,2079276.7151559,0.0052621079908503
5019200,0.29560462675034,0.0057069054884964,0.0018192612822507,0.002068382924087,0.0018192612821586,-0.00043383901084544,0.00043383838790966,1.7232400634756e-09,-2.3303847001337e-09,5.0037189547839e-09,-5.789773729078e-09,-0.00044944374164848,0.00044944803461132,-0.00044944514486721,0.00044944674833201,-0.00044944722605066,0.00044944445552266,-0.00044944860029285,0.00044944311697875,-0.00043689088284377,0.00043689065443294,-0.00043689485292381,0.00043688665308563,-4.6762979925269e-09,6.1407813583888e-09,1.0067251319706e-08,-8.8231709926532e-09,-0.00051736321482127,0.00051736451184579,-0.00053123077875639,0.00053123470688187,-0.00053123691776746,0.00053122838687216,-0.00053122724303502,0.00053123831190468,-0.00053123339996895,0.00053123197469362,-0.00049929728628564,0.00049932066670434,-0.00049931555252968,0.00049930184468675,-0.00049931650119639,0.00049930100209242,-0.00049930596107772,0.00049931178845414,-5.1310407612103e-10,3.5662252361241e-09,-0.00043383720096124,0.00043384019775205,-7.6403199048685e-09,1.1044834770941e-08,-0.00044944823290406,0.00044944352407641,-0.00044944205316881,0.00044944975783176,-0.00044944685227015,0.00044944487566137,-0.00044944067918614,0.00044945109277076,-0.00043688410554889,0.00043689740704357,-0.00043688812519362,0.00043689347087218,0.77677325226225,128566,2924,0.0018060508432133,0.0021533379996981,0.0018060508431268,35.692401996193,4.5539215969545e-05,4.5539215969545e-05,4.5539215969545e-05,2235530.5084618,0.0057821040093313
5219200,0.32297849999273,0.0062203958006223,0.0019746058436466,0.0022711841134223,0.0019746058435534,-0.00047023782564741,0.0004702371958067,1.8797380296345e-09,-2.493703288476e-09,5.0185781676815e-09,-5.8123916091173e-09,-0.00048828308480467,0.00048828747712606,-0.00048828458454275,0.00048828609931967,-0.00048828657003879,0.00048828389977375,-0.00048828806548315,0.00048828244419278,-0.00047343961041303,0.00047343971311988,-0.00047344393282264,0.00047343536403553,-4.7036165091855e-09,6.1940845981438e-09,1.0349442086943e-08,-9.0790541753035e-09,-0.00056806901103223,0.000568070333914,-0.00058464900122245,0.00058465309070857,-0.00058465529745114,0.00058464660479644,-0.00058464542817058,0.00058465673434836,-0.00058465176671715,0.00058465020689324,-0.00054668489714032,0.00054670889495216,-0.00054670372134879,0.00054668950173516,-0.00054670451255462,0.00054668881899039,-0.00054669393009371,0.00054669965046498,-6.2512759920374e-10,3.8214119088372e-09,-0.00047023594072092,0.00047023908068966,-7.9253697287332e-09,1.1485290336485e-08,-0.00048828774474566,0.0004882828022596,-0.00048828131136669,0.00048828928794295,-0.00048828622914779,0.00048828428876482,-0.00048827982774305,0.00048829073293412,-0.00047343264640128,0.00047344665489229,-0.00047343698742188,0.00047344239471552,0.77855551811615,128566,2924,0.0019574357699672,0.0023641274336981,0.0019574357698773,36.022399845428,4.8179198763427e-05,4.8179198763427e-05,4.8179198763427e-05,2384716.1626077,0.0062987689628477
5419200,0.35044370309686,0.0067285838164535,0.002126991804106,0.0024746002083323,0.0021269918040151,-0.00050578381158553,0.00050578319132547,2.0622978990742e-09,-2.6666864202246e-09,5.0157173565479e-09,-5.7995600530537e-09,-0.00052652718381813,0.00052653170221154,-0.00052652880843241,0.00052653020199951,-0.00052653066830029,0.00052652812709173,-0.00052653227689292,0.00052652655981749,-0.00050896205441529,0.00050896250140023,-0.0005089667062477,0.00050895782396315,-4.6734835029046e-09,6.1928634912125e-09,1.0618767430826e-08,-9.3188120555413e-09,-0.00061889585858763,0.00061889721063722,-0.00063847069680147,0.00063847499103428,-0.00063847715690183,0.00063846833597533,-0.00063846713698953,0.00063847861983253,-0.00063847363051053,0.00063847193249005,-0.00059379874161749,0.00059382323415435,-0.00059381803201037,0.00059380335489345,-0.00059381866401274,0.00059380284042891,-0.00059380808958382,0.00059381366160035,-7.6002776890039e-10,4.0180291399509e-09,-0.00050578190051546,0.00050578510235287,-8.102924210948e-09,1.173427275743e-08,-0.00052653200447656,0.00052652686892641,-0.00052652542932182,0.00052653349506957,-0.00052653038372493,0.00052652846094219,-0.0005265238291443,0.00052653505661294,-0.00050895498818441,0.00050896954584679,-0.00050895967238155,0.00050896494111875,0.76958002830597,128566,2924,0.0021052538748058,0.0025753737619081,0.0021052538747177,36.275394771688,5.0203158173501e-05,5.0203158173501e-05,5.0203158173501e-05,2528312.5287565,0.006808977915
5619200,0.37791737403059,0.0072132439600605,0.0022707270325995,0.0026717898949495,0.0022707270325114,-0.00053950597711332,0.00053950538151566,2.2456381707733e-09,-2.8253569185303e-09,4.9905906888645e-09,-5.7483895122345e-09,-0.00056378708350184,0.00056379171379622,-0.00056378882220592,0.0005637901017847,-0.00056379054193956,0.00056378816559016,-0.00056379226570801,0.00056378648368965,-0.00054225306452518,0.00054225389982321,-0.0005422580537274,0.00054224888288204,-4.6249232125058e-09,6.1622962379328e-09,1.0739683640184e-08,-9.4216211390591e-09,-0.00066865296329411,0.00066865433363874,-0.00069163858876157,0.0006916430025191,-0.00069164512432055,0.00069163627266086,-0.00069163505528217,0.0006916466033326,-0.00069164162271441,0.00069163984257365,-0.00063942428262665,0.00063944898421643,-0.00063944378772137,0.00063942888469063,-0.00063944429693231,0.00063942849669559,-0.00063943379877878,0.00063943923812402,-9.3015380382305e-10,4.1928721520447e-09,-0.00053950407600826,0.00053950728257877,-8.20445936381e-09,1.1845572491652e-08,-0.00056379205200441,0.00056378673377634,-0.00056378540591058,0.00056379343071812,-0.00056379031551241,0.00056378844207465,-0.00056378369162876,0.00056379510627164,-0.00054224598699983,0.00054226095509742,-0.00054225100534691,0.00054225601607674,0.73637048205447,128566,2924,0.0022454700152166,0.0027821281298417,0.00224547001513,36.52631598745,5.2210527899604e-05,5.2210527899604e-05,5.2210527899604e-05,2662884.0279317,0.007299607769172
5819200,0.40531595985283,0.0076787356498693,0.0024074875843807,0.0028637604811928,0.0024074875842957,-0.00057188776112735,0.0005718871922916,2.4310608862495e-09,-2.9839486987463e-09,4.9568519978231e-09,-5.686111512167e-09,-0.00060047290438647,0.00060047764392536,-0.00060047475810107,0.00060047591726038,-0.00060047633100594,0.0006004741274083,-0.00060047816870558,0.00060047233075812,-0.00057410101352161,0.00057410224327207,-0.00057410633698141,0.00057409688872067,-4.5723640808865e-09,6.1169831653338e-09,1.0778271033307e-08,-9.4522857697169e-09,-0.00071769405130708,0.00071769542986431,-0.00074414143793901,0.00074414591600942,-0.00074414799813172,0.00074413916347161,-0.00074413793617784,0.00074414948330814,-0.00074414452808908,0.00074414270005159,-0.00068437533507201,0.0006844000787741,-0.00068439490562489,0.00068437991082776,-0.00068439532849565,0.0006843796114839,-0.00068438492572738,0.00068439025420109,-1.0270272756816e-09,4.4388954924873e-09,-0.0005718857988896,0.00057188915448883,-8.1600674304237e-09,1.1952896482866e-08,-0.00060047792094994,0.00060047261543525,-0.0006004712543553,0.00060047933307294,-0.00060047607059987,0.00060047443810235,-0.00060046942548686,0.0006004811232485,-0.00057409387910055,0.00057410935429663,-0.00057409923406006,0.00057410407858912,0.71317583467879,128566,2924,0.0023800971546213,0.0029858614530532,0.0023800971545377,36.77715440934,5.4217235274718e-05,5.4217235274718e-05,5.4217235274718e-05,2776935.845575,0.0077761706630151
6019200,0.43215894503218,0.0081260113962023,0.0025380338364641,0.003049943723357,0.0025380338363812,-0.00060257957971126,0.00060257900165666,2.5961620497373e-09,-3.1580946850834e-09,4.9667151747028e-09,-5.7054376820599e-09,-0.0006357689327953,0.00063577378203066,-0.00063577089583519,0.00063577194739657,-0.00063577236576089,0.00063577026044356,-0.00063577432029642,0.00063576834560558,-0.00060429943205803,0.00060430098794281,-0.00060430509961928,0.00060429528771982,-4.5761200060279e-09,6.1425425970695e-09,1.100639968128e-08,-9.6603884044125e-09,-0.0007653072498149,0.00076530864871442,-0.00079498457146484,0.00079498920047375,-0.00079499127129349,0.00079498230588903,-0.00079498105551324,0.00079499278199849,-0.00079498779510923,0.00079498584843738,-0.00072795415249861,0.00072797936777605,-0.00072797415506865,0.00072795874890729,-0.00072797444448319,0.00072795858836279,-0.00072796402651927,0.0007279692482537,-1.0694948140187e-09,4.744037540206e-09,-0.00060257748128557,0.00060258110004221,-8.2468128792921e-09,1.2312062386233e-08,-0.00063577400864825,0.00063576869485754,-0.00063576719031741,0.00063577556420034,-0.00063577203802191,0.00063577063781795,-0.00063576525012433,0.00063577746589222,-0.00060429209121399,0.0006043083048511,-0.00060429777386981,0.00060430270155265,0.70261522818474,128566,2924,0.0025076846914196,0.0031836190050601,0.0025076846913368,36.775475275311,5.4203802202489e-05,5.4203802202489e-05,5.4203802202489e-05,2842980.3217174,0.0082327422536102
6219200,0.45837796216143,0.0085651160883917,0.0026659766389237,0.0032331628106248,0.0026659766388431,-0.00063273601898187,0.00063273549162481,2.7937423779814e-09,-3.3053036028655e-09,5.0452309605434e-09,-5.7301849299308e-09,-0.00067019328673685,0.00067019833680271,-0.00067019536366917,0.00067019638405373,-0.00067019675552121,0.00067019477834205,-0.00067019882268926,0.0006701927489522,-0.00063394732037534,0.00063394922456817,-0.00063395331703704,0.00063394318812716,-4.620691060354e-09,6.1964041185487e-09,1.1315221599306e-08,-9.9608245037076e-09,-0.00081226514100276,0.00081226654840675,-0.00084520909545341,0.00084521390617222,-0.00084521600768374,0.00084520680903717,-0.00084520554537689,0.00084521751898195,-0.00084521249421546,0.0008452103855619,-0.00077064913566139,0.00077067498605406,-0.00077066974031975,0.00077065378286141,-0.00077066989898801,0.00077065374806005,-0.00077065938051313,0.00077066450356849,-1.2712505915558e-09,4.8843111946145e-09,-0.00063273397745483,0.00063273753311272,-8.5867096741489e-09,1.2580873087484e-08,-0.0006701986508407,0.00067019295885998,-0.00067019162979685,0.00067020003126562,-0.00067019656774573,0.00067019501517047,-0.00067018957440794,0.00067020204840322,-0.0006339399117999,0.0006339566061193,-0.00063394593408562,0.00063395066279169,0.70745491378351,128566,2924,0.0026330341346028,0.0033786134829348,0.0026330341345222,36.758786990018,5.4070295920145e-05,5.4070295920145e-05,5.4070295920145e-05,2837294.8712523,0.0086822204256788
6419200,0.48393429287107,0.0089899770731258,0.0027897074018142,0.0034105622695759,0.0027897074017357,-0.00066197428267661,0.00066197377086195,2.973291896718e-09,-3.4695073271813e-09,5.1081889084731e-09,-5.7765280465039e-09,-0.0007035436033766,0.0007035488208874,-0.00070354579387786,0.00070354675184375,-0.00070354711088819,0.00070354522527158,-0.00070354929099768,0.00070354308051918,-0.00066272298116952,0.00066272519998608,-0.00066272931082773,0.00066271882521893,-4.6777184245895e-09,6.2450717319924e-09,1.1590596013218e-08,-1.0245402806271e-08,-0.00085782238482367,0.00085782378301541,-0.00089418916312052,0.00089419411609941,-0.00089419626290414,0.00089418683165991,-0.00089418557790185,0.0008941977634611,-0.00089419271197817,0.00089419044472123,-0.00081160927700232,0.00081163570109916,-0.00081163043009436,0.00081161395217619,-0.00081163047963599,0.00081161402600474,-0.00081161985484418,0.00081162488623006,-1.4289343063613e-09,5.0696388608e-09,-0.00066197223569282,0.00066197581780742,-8.8536636563586e-09,1.2872961263413e-08,-0.00070354918757867,0.0007035432221986,-0.00070354198072827,0.00070355048035576,-0.00070354699071842,0.00070354539267198,-0.0007035398107503,0.00070355261239153,-0.00066271545441772,0.00066273269761885,-0.00066272181302964,0.00066272641706764,0.70210892344286,128566,2924,0.0027545547685609,0.0035677528403425,0.002754554768482,36.741629330533,5.3933034644266e-05,5.3933034644266e-05,5.3933034644266e-05,2838391.4434016,0.009118264898528
6619200,0.50920287905416,0.0094342286765057,0.0029200079412304,0.0035942127941218,0.0029200079411535,-0.00069264932321912,0.00069264881264674,3.1464558929856e-09,-3.6412776558205e-09,5.0908943733773e-09,-5.7576982458297e-09,-0.00073773361194197,0.00073773893486286,-0.0007377359173894,0.00073773674893272,-0.00073773710959908,0.00073773535005921,-0.00073773940301489,0.00073773309079294,-0.00069335553522158,0.00069335810267794,-0.00069336219996869,0.00069335139261743,-4.6648047525639e-09,6.2193668038486e-09,1.1372414606187e-08,-1.0039965035842e-08,-0.00090453779479475,0.00090453918018005,-0.00094427639968268,0.0009442812135629,-0.00094428336172446,0.00094427406901242,-0.00094427282782952,0.00094428484750303,-0.00094427982219727,0.00094427767058107,-0.00085399223882675,0.00085401821820745,-0.00085401297389093,0.00085399688992651,-0.00085401313933194,0.0008539968470888,-0.00085400254924845,0.00085400767280819,-1.6175636514728e-09,5.2235404110575e-09,-0.00069264729446117,0.00069265084136812,-8.6615326428586e-09,1.2642168517146e-08,-0.00073773925202062,0.00073773328003245,-0.0007377321869178,0.00073774039640482,-0.00073773694194038,0.00073773556366723,-0.00073772990170781,0.00073774264360131,-0.00069334810179283,0.00069336550680144,-0.00069335479848337,0.00069335888843042,0.74070665727203,128566,2924,0.0028820324381704,0.0037616629310537,0.0028820324380951,37.008578922509,5.6068631380068e-05,5.6068631380068e-05,5.6068631380068e-05,2797868.6117423,0.0095713394734193
6819200,0.53527753280187,0.009926572792053,0.003065546585808,0.0037954796205151,0.0030655465857299,-0.00072751725072184,0.00072751676957522,3.3648446181394e-09,-3.8302596126086e-09,4.9714889646049e-09,-5.607214165868e-09,-0.00077560138401457,0.00077560680753682,-0.0007756038467432,0.00077560445716733,-0.00077560481752535,0.00077560328575648,-0.00077560722046581,0.00077560091580202,-0.0007290569593439,0.00072905997025404,-0.00072906394655425,0.00072905293396398,-4.5217986039212e-09,6.0504935917505e-09,1.0153098049618e-08,-8.8452827274196e-09,-0.00095565554630382,0.00095565690704177,-0.00099835976653991,0.00099836388811691,-0.0009983659701996,0.00099835752619693,-0.0009983563213353,0.00099836739284186,-0.00099836250665266,0.00099836104912576,-0.00090171940676093,0.00090174281203121,-0.00090173771922852,0.00090172395255809,-0.00090173853254236,0.00090172324693111,-0.00090172817088894,0.00090173383921859,-1.9714203415739e-09,5.1535420325959e-09,-0.0007275154501276,0.00072751857013402,-7.6643594283158e-09,1.1193639462327e-08,-0.00077560691229526,0.00077560126187199,-0.00077560068430972,0.00077560754120482,-0.00077560453276012,0.00077560361500116,-0.00077559827872465,0.00077560990848081,-0.00072905018843506,0.00072906670961966,-0.00072905723785034,0.0007290597389369,0.79221450038345,128566,2924,0.003026914104767,0.0039738027787799,0.0030269141046939,38.072471321083,6.4579770568664e-05,6.4579770568664e-05,6.4579770568664e-05,2774977.9574947,0.010078183077277
7019200,0.5620606221793,0.010394698457798,0.0032031239371948,0.0039884505834907,0.003203123937113,-0.00076162179983316,0.00076162137776008,3.5507449461039e-09,-3.9575067247491e-09,4.8930183989481e-09,-5.4664921090361e-09,-0.00081335807489124,0.00081336357896423,-0.000813360626658,0.00081336113053777,-0.00081336142407388,0.00081336013951696,-0.00081336394440714,0.00081335765045075,-0.00076311107394118,0.00076311456574569,-0.00076311840751426,0.0007631071767042,-4.4306164961779e-09,5.9302191696692e-09,9.3606791942055e-09,-8.0807671396108e-09,-0.001006296461698,0.0010062977943622,-0.0010522342139676,0.0010522378597373,-0.0010522399113063,0.0010522320284891,-0.001052230830507,0.0010522413006884,-0.0010522365238478,0.0010522354709583,-0.00094824242086376,0.00094826423900072,-0.00094825926991476,0.00094824689438775,-0.00094826040496906,0.00094824585273303,-0.00094825028504898,0.00094825619272976,-2.4188083424552e-09,5.0841575856866e-09,-0.00076162028969226,0.00076162288786483,-7.1790711756564e-09,1.0159612834588e-08,-0.00081336371491112,0.00081335791746302,-0.00081335797830506,0.00081336370576619,-0.00081336119903163,0.00081336040781422,-0.00081335546065166,0.00081336618513211,-0.00076310488821125,0.00076312071652509,-0.00076311226502216,0.00076311341884903,0.73335806530568,128566,2924,0.0031686069198269,0.0041839152530594,0.0031686069197522,39.156570156412,7.3252561251297e-05,7.3252561251297e-05,7.3252561251297e-05,2782079.4785827,0.010576794843732
7219200,0.5893983303655,0.010854794857098,0.0033380412530887,0.0041787123510083,0.0033380412530006,-0.00079551325926025,0.00079551290687335,3.7601177508404e-09,-4.0976698675792e-09,4.8762322049423e-09,-5.376216100965e-09,-0.00085128913906771,0.00085129479482212,-0.00085129180445031,0.00085129222474624,-0.00085129245530258,0.00085129138750074,-0.00085129508968599,0.00085128878286838,-0.00079664079532078,0.00079664472635985,-0.00079664846207231,0.00079663699982975,-4.3907955949144e-09,5.8620395485392e-09,8.9510582908723e-09,-7.6986690912674e-09,-0.0010567440623693,0.0010567453674574,-0.0011062226225391,0.0011062260163411,-0.0011062280706688,0.0011062204548072,-0.0011062192724644,0.0011062294206058,-0.0011062247161272,0.001106223860765,-0.00099420276125817,0.00099422373774031,-0.0009942188604125,0.00099420720054886,-0.00099422017544147,0.00099420596062577,-0.00099421015660744,0.00099421619187022,-2.8501814814967e-09,4.9943865556364e-09,-0.00079551204708282,0.00079551411901087,-7.0671100271103e-09,9.4955565184589e-09,-0.00085129504107764,0.00085128886828219,-0.00085128956136425,0.00085129439993156,-0.00085129241277629,0.0008512914716506,-0.00085128692811718,0.00085129699478466,-0.00079663504587134,0.00079665043891797,-0.00079664276372687,0.00079664279951032,0.70718847839634,128566,2924,0.003309397417774,0.0043931772361758,0.0033093974176915,40.241468315074,8.1931746520594e-05,8.1931746520594e-05,8.1931746520594e-05,2815031.651153,0.011072973870291
7419200,0.61629666524337,0.011292304136423,0.0034660481130004,0.0043602079105151,0.0034660481129078,-0.00082693093571176,0.00082693060133638,3.9349291007641e-09,-4.2544071286036e-09,4.9827568592994e-09,-5.4635488011874e-09,-0.00088721067391281,0.00088721651320268,-0.00088721344058215,0.0008872138424535,-0.00088721404642082,0.0008872130510386,-0.00088721680106028,0.00088721032590409,-0.00082753689290503,0.00082754112977787,-0.00082754491319466,0.00082753305146676,-4.5000740120632e-09,5.9560961296164e-09,9.7320539609024e-09,-8.4952817696792e-09,-0.0011044618753043,0.0011044631647805,-0.0011575797761596,0.0011575835987199,-0.0011575857329861,0.0011575775217565,-0.0011575763500928,0.0011575870788945,-0.0011575823185906,0.0011575809870138,-0.0010373630784772,0.001037385683546,-0.0010373807567206,0.0010373675730304,-0.0010373816670541,0.0010373667379355,-0.0010373714729775,0.0010373771409897,-3.0503060140227e-09,5.1549374078422e-09,-0.00082692975245156,0.00082693178455194,-7.8832264044329e-09,1.0271835090625e-08,-0.00088721701734618,0.00088721014614963,-0.00088721099777399,0.00088721621767704,-0.00088721425923959,0.00088721287918183,-0.00088720825406797,0.00088721892274525,-0.00082753088886319,0.00082754709772055,-0.00082753893180342,0.00082753913314539,0.68501443611943,128566,2924,0.0034398972451491,0.0045910703009714,0.0034398972450568,40.770148019763,8.6161184158106e-05,8.6161184158106e-05,8.6161184158106e-05,2872397.2865356,0.011537083286364
7619200,0.64201660371132,0.011701903725968,0.0035856716815059,0.0045305603630483,0.0035856716814134,-0.00085556394430814,0.00085556356016284,4.085439883535e-09,-4.454086420627e-09,5.0651023593865e-09,-5.5985711579353e-09,-0.00092019888062819,0.00092020486043086,-0.00092020176849631,0.00092020207530901,-0.00092020232571446,0.00092020132609222,-0.0009202051962005,0.00092019848734966,-0.00085544386512292,0.00085544831379255,-0.0008554522212457,0.00085543990653331,-4.6096662247434e-09,6.0613871633711e-09,1.0715036995857e-08,-9.4835047946147e-09,-0.0011488816103264,0.0011488828947073,-0.0012058187462087,0.0012058231407186,-0.0012058253361437,0.0012058164008233,-0.0012058152522493,0.0012058266914728,-0.0012058218504533,0.001205819940882,-0.0010770086788667,0.0010770332760987,-0.001077028255558,0.0010770132123621,-0.001077028684923,0.001077012876594,-0.0010770182729621,0.0010770235043838,-2.9993140999193e-09,5.5481198910196e-09,-0.00085556251153154,0.00085556499289586,-8.6228781530797e-09,1.1486359493471e-08,-0.00092020545614011,0.00092019826394719,-0.00092019878856467,0.00092020498311794,-0.00092020258466063,0.00092020110961303,-0.00092019592915826,0.00092020780460922,-0.00085543725112629,0.00085545489491162,-0.00085544563988031,0.00085544658510916,0.67223240827464,128566,2924,0.0035588197898781,0.0047752456039312,0.0035588197897882,40.85160291894,8.6812823351522e-05,8.6812823351522e-05,8.6812823351522e-05,2912160.0545403,0.01196409596949
7819200,0.66652406165479,0.012088353909484,0.0036984415649668,0.0046914707796434,0.0036984415648742,-0.0008826296363959,0.00088262920646862,4.2359268414015e-09,-4.6493752962099e-09,5.0913977093022e-09,-5.6728750307677e-09,-0.00095134780601748,0.00095135388847812,-0.00095135081356869,0.00095135099341689,-0.00095135128568419,0.00095135032264565,-0.00095135427399888,0.00095134737027154,-0.00088160977873732,0.00088161449003884,-0.00088161848149712,0.00088160574873695,-4.6611453307391e-09,6.1113618385026e-09,1.1301986011732e-08,-1.0072539361542e-08,-0.0011910837716499,0.0011910850541196,-0.0012519374735013,0.0012519422194522,-0.0012519444404737,0.0012519350830092,-0.0012519339468052,0.0012519458048055,-0.001251940922444,0.0012519386577013,-0.0011142859701439,0.0011143117521089,-0.0011143066782721,0.0011142905137333,-0.0011143068006285,0.0011142904993423,-0.0011142962896586,0.0011143012311652,-2.9924635861776e-09,5.9014457507812e-09,-0.0008826279975122,0.00088263084530826,-9.0133155476323e-09,1.2261432298482e-08,-0.00095135450553342,0.00095134717367418,-0.00095134745084697,0.00095135427982793,-0.00095135151735662,0.00095135013450939,-0.00095134447601452,0.00095135721592097,-0.00088160275678707,0.00088162148424634,-0.00088161148440006,0.00088161283844126,0.66655083359508,128566,2924,0.0036712226121776,0.0049501936729989,0.0036712226120868,40.92153066163,8.7372245293037e-05,8.7372245293037e-05,8.7372245293037e-05,2919623.7948346,0.012368748185285
8019200,0.68981241936211,0.012452374052025,0.0038046351968222,0.0048431036584731,0.0038046351967301,-0.00090812871722549,0.00090812825125367,4.3912555338526e-09,-4.8400575270644e-09,5.0752952134834e-09,-5.6946186287216e-09,-0.00098072092709464,0.00098072709177363,-0.00098072405313609,0.00098072408389818,-0.00098072440967557,0.00098072352464768,-0.0009807275137915,0.00098072045821287,-0.00090626024749986,0.00090626526057936,-0.00090626929431992,0.00090625618566768,-4.6652473243084e-09,6.1126836870034e-09,1.1606279438836e-08,-1.0379907548361e-08,-0.0012310074385653,0.0012310087181422,-0.0012956930660653,0.0012956980090465,-0.0012957002287825,0.0012956906649101,-0.0012956895381765,0.0012957015967239,-0.0012956967093134,0.0012956942423466,-0.0011494797760676,0.0011495061563839,-0.0011495010685239,0.0011494843031294,-0.0011495010013731,0.0011494844879262,-0.0011494904856412,0.0011494952287547,-3.0306100635109e-09,6.2094085655567e-09,-0.00090812692315789,0.0009081300452772,-9.1713434967811e-09,1.2706982683522e-08,-0.00098072769006895,0.00098072031640756,-0.00098072043703257,0.00098072762085722,-0.00098072458661443,0.00098072339205372,-0.00098071734626463,0.00098073067254688,-0.00090625297437976,0.0009062725100957,-0.00090626204220741,0.00090626352689505,0.66097249023263,128566,2924,0.0037771101797781,0.0051156659963014,0.0037771101796874,40.990999979362,8.7927999834893e-05,8.7927999834893e-05,8.7927999834893e-05,2921176.3749842,0.012750770046921
8219200,0.71202579441159,0.012796677149982,0.0039050899472602,0.0049864972555531,0.0039050899471685,-0.00093244596357153,0.00093244548255896,4.5567814439107e-09,-5.0201535940083e-09,5.011925064262e-09,-5.6467982852767e-09,-0.0010086653776498,0.0010086716052756,-0.0010086686201739,0.001008668484345,-0.0010086688234975,0.0010086680759332,-0.0010086720443587,0.0010086648949481,-0.00092978786356438,0.00092979323863057,-0.00092979725277346,0.00092978382684194,-4.6136817673066e-09,6.0532061221786e-09,1.1458922344082e-08,-1.0240170061128e-08,-0.0012690799241158,0.0012690811962072,-0.0013374755140532,0.0013374803911423,-0.0013374825806367,0.0013374731410237,-0.0013374720222283,0.0013374839425659,-0.0013374790980145,0.0013374766814978,-0.0011830383488356,0.001183064404092,-0.0011830593557813,0.0011830428263427,-0.0011830593091622,0.0011830429936168,-0.0011830489038503,0.0011830536253363,-3.1470502593869e-09,6.4393869266909e-09,-0.00093244410402621,0.00093244734206095,-8.965994190032e-09,1.2621688271236e-08,-0.001008672125094,0.0010086648476841,-0.0010086649688637,0.0010086720552775,-0.0010086689053447,0.0010086680388779,-0.0010086617628448,0.0010086752218009,-0.00092978059527624,0.00092980048544758,-0.0009297900018469,0.00092979116512504,0.65549139459281,128566,2924,0.0038780813154071,0.0052734372966548,0.0038780813153179,41.181251724837,8.9450013798696e-05,8.9450013798696e-05,8.9450013798696e-05,2924285.8218651,0.013115173451159
8419200,0.7332160582778,0.013124318753489,0.0040007796710315,0.0051227594115176,0.0040007796709396,-0.00095563927171207,0.00095563879028236,4.7297304734218e-09,-5.1933586294491e-09,4.9339620511164e-09,-5.5691036439124e-09,-0.0010353690829221,0.0010353753739638,-0.0010353724414382,0.0010353721375941,-0.0010353724770272,0.0010353718959125,-0.0010353758134484,0.0010353686003706,-0.00095218841667043,0.00095219418068649,-0.00095219814471741,0.00095218443248344,-4.542268148826e-09,5.968635344699e-09,1.1108762446639e-08,-9.9023895525023e-09,-0.0013053444050532,0.0013053456648148,-0.0013773207388931,0.0013773254287021,-0.0013773275807153,0.0013773184067412,-0.0013773172983021,0.0013773289278619,-0.0013773241485077,0.0013773218958598,-0.0012150574488816,0.0012150827632467,-0.0012150777798079,0.0012150618628077,-0.0012150778550214,0.0012150619075797,-0.0012150676015278,0.0012150723874618,-3.3099237855893e-09,6.6222572716596e-09,-0.00095563740165073,0.00095564066030101,-8.6124279298562e-09,1.2288002778061e-08,-0.0010353757951456,0.0010353686519005,-0.0010353688680785,0.001035375630281,-0.0010353724602828,0.0010353719578317,-0.0010353655464218,0.0010353789123318,-0.00095218127764869,0.00095220129913997,-0.00095219102438518,0.00095219163938981,0.65380934993733,128566,2924,0.003974376811597,0.0054236913273157,0.003974376811509,41.430484397915,9.1443875183322e-05,9.1443875183322e-05,9.1443875183322e-05,2925632.2636857,0.013462612415854
8619200,0.75336826812098,0.013435380358779,0.0040917165991425,0.0052519471605868,0.0040917165990499,-0.00097761375672836,0.00097761328296239,4.9064353671167e-09,-5.3623613288123e-09,4.8617874502711e-09,-5.4886356044793e-09,-0.0010607068811615,0.0010607132445143,-0.0010607103544066,0.0010607098926615,-0.0010607102248413,0.0010607098171066,-0.0010607136766314,0.0010607064061877,-0.00097348671770963,0.00097349287898891,-0.00097349678517197,0.00097348279201692,-4.4737644878011e-09,5.884210599817e-09,1.0732451158161e-08,-9.5412293546396e-09,-0.0013396616755676,0.0013396629202108,-0.0014150932335438,0.0014150977151954,-0.001415099834486,0.0014150909393752,-0.0014150898424169,0.0014151011635373,-0.001415096452001,0.0014150943774802,-0.0012453705593591,0.001245395084166,-0.0012453901700675,0.0012453749108683,-0.0012453903829237,0.001245374815842,-0.0012453802795596,0.0012453851445049,-3.4955093682812e-09,6.7827485607131e-09,-0.00097761190321057,0.00097761513643833,-8.2581936547055e-09,1.1905404146789e-08,-0.0010607135772334,0.0010607065385263,-0.0010607068950024,0.0010607132720833,-0.0010607101268371,0.0010607099599161,-0.0010607034581232,0.0010607166693701,-0.00097347974312824,0.00097349983304173,-0.00097348982838953,0.00097348983536853,0.65260875353773,128566,2924,0.0040656038504283,0.0055658555069884,0.0040656038503421,41.681255117118,9.3450040936941e-05,9.3450040936941e-05,9.3450040936941e-05,2928445.2464425,0.013791691852881
8819200,0.77247402552258,0.013719466930017,0.0041745175047653,0.0053704319205796,0.004174517504672,-0.00099790535514288,0.00099790489283329,5.0850148109259e-09,-5.5295156667434e-09,4.8008692019123e-09,-5.415360253638e-09,-0.0010843200449591,0.0010843264906127,-0.0010843236326725,0.0010843230227776,-0.0010843233443479,0.0010843231074508,-0.0010843269112751,0.0010843195811096,-0.00099295265555885,0.00099295921102361,-0.00099296306105854,0.00099294878510509,-4.4152088118133e-09,5.8082065476298e-09,1.0371599177823e-08,-9.1969864921993e-09,-0.0013716333613644,0.0013716345894015,-0.001450452497321,0.0014504567740709,-0.0014504588685562,0.0014504502338833,-0.001450449149604,0.0014504601774963,-0.0014504555295173,0.0014504536271269,-0.0012733699456983,0.0012733937171183,-0.0012733888691516,0.0012733742408803,-0.0012733892212589,0.0012733740038199,-0.0012733792493339,0.0012733841991295,-3.693995465011e-09,6.930152940343e-09,-0.00099790353325597,0.00099790671467709,-7.9344848621104e-09,1.1525715365223e-08,-0.0010843267481396,0.0010843197770182,-0.0010843202996656,0.0010843262767954,-0.0010843231824298,0.0010843233137644,-0.0010843167475661,0.001084329789423,-0.00099294585080892,0.00099296599458132,-0.00099295627494718,0.0009929556584822,0.629419927064,128566,2924,0.0041498380799897,0.005698282180738,0.0041498380799007,41.932087182403,9.5456697459221e-05,9.5456697459221e-05,9.5456697459221e-05,2953756.4832376,0.014096824233198
9019200,0.79013429907155,0.013982173804665,0.0042511837956906,0.005479806213377,0.0042511837955973,-0.0010157841622851,0.0010157837053484,5.260428880981e-09,-5.6995831189623e-09,4.773323986931e-09,-5.3819377624369e-09,-0.0011051566767992,0.0011051632216653,-0.0011051603783595,0.0011051596400664,-0.0011051599553406,0.0011051598602152,-0.001105163638522,0.0011051562170223,-0.0010101481766176,0.0010101550997632,-0.0010101589244949,0.0010101443312536,-4.3922928483508e-09,5.7698470456039e-09,1.0432831459101e-08,-9.2731410649058e-09,-0.001400299016,0.0014003002291398,-0.0014823409587542,0.0014823452847868,-0.0014823473737114,0.0014823387001239,-0.0014823376289337,0.0014823486692994,-0.0014823440555572,0.0014823420715245,-0.0012983490170587,0.0012983728924908,-0.0012983680780675,0.001298353275557,-0.0012983683419369,0.0012983531286495,-0.0012983584342781,0.0012983632585988,-3.8435931739588e-09,7.1264267535682e-09,-0.0010157823197131,0.0010157855478769,-7.9770247207822e-09,1.1617087069697e-08,-0.0011051634870464,0.0011051564012826,-0.0011051569929503,0.0011051629466573,-0.0011051598046893,0.0011051600547105,-0.0011051533269974,0.0011051665732649,-0.0010101413431122,0.0010101619117203,-0.0010101521018311,0.0010101512414101,0.62977530102317,128566,2924,0.0042240525031063,0.0058169984717685,0.0042240525030164,41.750263663078,9.4002109304622e-05,9.4002109304622e-05,9.4002109304622e-05,2963247.3696337,0.014367811104009
9219200,0.80634279969472,0.014220615019554,0.0043207618238128,0.005579091372021,0.00432076182372,-0.0010317591455421,0.0010317586901314,5.4339650992231e-09,-5.8715851130279e-09,4.764914911554e-09,-5.3717635638987e-09,-0.0011238438288306,0.0011238504863597,-0.0011238476478358,0.0011238467880521,-0.0011238471036831,0.0011238471292753,-0.0011238509002644,0.0011238433728168,-0.0010254830804302,0.0010254903430544,-0.0010254941609475,0.0010254792431773,-4.3891209186629e-09,5.7540095392524e-09,1.0544654682155e-08,-9.3972959979402e-09,-0.0014261622087353,0.0014261634095488,-0.0015112362860412,0.0015112406863907,-0.0015112427808024,0.0015112340204218,-0.0015112329638613,0.0015112440625312,-0.0015112394662051,0.0015112373876491,-0.0013207742100261,0.001320798291756,-0.0013207934936929,0.0013207784476268,-0.001320793676073,0.0013207783842023,-0.0013207837804507,0.0013207885014779,-3.9909349478625e-09,7.3246895571801e-09,-0.0010317572780442,0.0010317605575843,-8.069477942635e-09,1.1763204235688e-08,-0.0011238507664812,0.0011238435391667,-0.0011238441949849,0.0011238501618673,-0.0011238469707636,0.0011238473058834,-0.0011238404120144,0.0011238539055933,-0.0010254761798505,0.0010254972225736,-0.0010254872830911,0.0010254862074526,0.62300580233012,128566,2924,0.0042903610129873,0.0059240947255894,0.0042903610128944,41.452600880041,9.1620807040329e-05,9.1620807040329e-05,9.1620807040329e-05,2969824.1164531,0.014611036303146
9419200,0.82120879926947,0.014436858957656,0.0043838519675693,0.0056691550226093,0.0043838519674773,-0.0010461618301281,0.0010461613757094,5.6072064113383e-09,-6.0437988757217e-09,4.7641216087816e-09,-5.3697803924244e-09,-0.0011407501830972,0.001140756955335,-0.0011407541167197,0.0011407531427956,-0.0011407534566791,0.0011407535998553,-0.0011407573692856,0.0011407497276649,-0.0010392209480197,0.0010392285535225,-0.0010392323705509,0.0010392171136411,-4.3927696439027e-09,5.7470597819157e-09,1.0601885631142e-08,-9.4649905075076e-09,-0.0014496143483542,0.0014496155387458,-0.0015375355746188,0.00153754000629,-0.0015375421101573,0.0015375332992694,-0.0015375322518856,0.001537543382394,-0.0015375387969143,0.0015375366645998,-0.001341052690317,0.0013410768855069,-0.0013410720978129,0.0013410569156019,-0.0013410722358391,0.0013410568974538,-0.0013410623457734,0.0013410670088176,-4.1489503646809e-09,7.5121943920076e-09,-0.0010461599481403,0.0010461632576515,-8.1157068280802e-09,1.1840194564502e-08,-0.0011407572418568,0.0011407498873753,-0.0011407506285797,0.0011407565518538,-0.0011407533301808,0.0011407537699755,-0.0011407467311757,0.001140760410082,-0.0010392140164961,0.0010392354650063,-0.0010392254549124,0.0010392241140703,0.61620824011374,128566,2924,0.0043501403219642,0.0060211958118414,0.0043501403218698,41.151844306442,8.921475445154e-05,8.921475445154e-05,8.921475445154e-05,2978574.8231229,0.014830923028373
9619200,0.83483868390258,0.014632857089022,0.0044410195067041,0.0057508180757045,0.0044410195066129,-0.0010591480904252,0.0010591476370317,5.7804000530918e-09,-6.2159481879378e-09,4.7662794453152e-09,-5.370913501691e-09,-0.0011560255342214,0.0011560324238701,-0.0011560295829829,0.0011560284962502,-0.0011560288091541,0.0011560290672076,-0.001156032836973,0.0011560250799126,-0.0010515311068197,0.0010515390499521,-0.0010515428676044,0.0010515272724019,-4.3986221469363e-09,5.7439445863769e-09,1.0624411121121e-08,-9.4963962513778e-09,-0.0014708609256809,0.0014708621072353,-0.0015614744278335,0.0015614788680938,-0.0015614809822211,0.0015614721427587,-0.0015614711036989,0.001561482245133,-0.0015614776674009,0.0015614755092943,-0.0013593403751612,0.0013593646152049,-0.0013593598354804,0.0013593445928128,-0.0013593599580797,0.0013593445897945,-0.0013593500653633,0.001359354703964,-4.3135042814382e-09,7.6931148413328e-09,-0.0010591462006241,0.0010591495267865,-8.1344489101107e-09,1.1875506949399e-08,-0.0011560327100798,0.0011560252389469,-0.0011560260786816,0.0011560319215337,-0.0011560286831916,0.0011560292367089,-0.0011560220661631,0.0011560358949219,-0.0010515241578315,0.0010515459789311,-0.0010515359348362,0.0010515342898005,0.60938040508592,128566,2924,0.0044040384058031,0.0061091559329588,0.0044040384057076,40.850963838795,8.6807710710363e-05,8.6807710710363e-05,8.6807710710363e-05,2988301.447697,0.015029638556894
9819200,0.8470984784382,0.014810012318055,0.0044927703094259,0.0058244716992928,0.0044927703093359,-0.0010700511773699,0.001070050722013,5.9589038049413e-09,-6.3963194453865e-09,4.7800821142138e-09,-5.3866792631167e-09,-0.0011689440315515,0.0011689510367198,-0.0011689481883726,0.0011689470020244,-0.001168947304991,0.0011689476820673,-0.0011689514637989,0.0011689435640175,-0.001061882314369,0.0010618906297291,-0.0010618944599256,0.0010618784699135,-4.4155207423429e-09,5.7535834240346e-09,1.0873221053502e-08,-9.7525341009541e-09,-0.0014891485247873,0.0014891496995803,-0.0015822361475657,0.0015822407277208,-0.001582242856119,0.0015822338454651,-0.001582232802517,0.001582244125791,-0.0015822395435361,0.0015822372090982,-0.0013749937117279,0.0013750184875779,-0.0013750137014174,0.001374997929546,-0.0013750136427104,0.0013749981104525,-0.0013750037598432,0.0013750082144655,-4.4441709168607e-09,7.8939655040969e-09,-0.0010700492510203,0.0010700526483146,-8.3401718693567e-09,1.2155354187762e-08,-0.0011689513722686,0.0011689436875323,-0.0011689445677292,0.0011689505433121,-0.0011689472227379,0.0011689478078218,-0.0011689404559031,0.0011689546159471,-0.0010618752897989,0.0010618976358204,-0.0010618873589556,0.0010618856539898,0.61213711033454,128566,2924,0.004449290104803,0.0061848585678628,0.0044492901047038,40.185169309241,8.1481354473925e-05,8.1481354473925e-05,8.1481354473925e-05,2991326.164624,0.015198389788878
10019200,0.8581172309421,0.01497024132334,0.0045396527271553,0.005890935869119,0.0045396527270659,-0.0010796496136081,0.0010796491564054,6.1264965149189e-09,-6.5656780733939e-09,4.7944560538002e-09,-5.4029555770629e-09,-0.0011803410807672,0.0011803482114822,-0.0011803453548373,0.0011803440601948,-0.0011803443685409,0.0011803448425952,-0.0011803486365254,0.0011803406152735,-0.0010710082478586,0.0010710168654217,-0.0010710207078716,0.001071004391428,-4.4334624802939e-09,5.7670967294477e-09,1.1037562226227e-08,-9.92141857312e-09,-0.0015053533961392,0.0015053545660343,-0.0016006605127887,0.0016006651938947,-0.0016006673368272,0.0016006581939301,-0.0016006571623752,0.0016006685967581,-0.001600664008111,0.0016006615739524,-0.0013889011424325,0.0013889262336877,-0.0013889214396237,0.0013889053624063,-0.0013889213108091,0.0013889056155454,-0.0013889113810291,0.0013889157663828,-4.5976453370817e-09,8.0937731278162e-09,-0.0010796476629683,0.0010796511069974,-8.4871386755628e-09,1.2351387996837e-08,-0.0011803485749738,0.0011803407091313,-0.0011803416602303,0.0011803476748847,-0.0011803443122914,0.0011803449426039,-0.0011803374274761,0.0011803518683296,-0.0010710011139474,0.0010710239807722,-0.0010710135448022,0.0010710116377043,0.61574676852573,128566,2924,0.0044891261919175,0.0062519339506741,0.004489126191819,39.481077396897,7.5848619175176e-05,7.5848619175176e-05,7.5848619175176e-05,2989312.5491502,0.015347408224608
10219200,0.8680341984892,0.015115536551747,0.0045822338616804,0.005951068828474,0.0045822338615924,-0.0010881582937739,0.0010881578357535,6.2978945808973e-09,-6.7378089115383e-09,4.8064465141358e-09,-5.4156901020319e-09,-0.0011904739271288,0.0011904811820702,-0.0011904783181581,0.0011904769143147,-0.0011904772255578,0.0011904778028414,-0.0011904816061106,0.0011904734633047,-0.0010791427910511,0.0010791517300597,-0.0010791555819705,0.0010791389260798,-4.4477844555321e-09,5.777356640191e-09,1.1131263355486e-08,-1.0019285225773e-08,-0.001519795446009,0.0015197966117489,-0.0016170613604163,0.0016170660946411,-0.0016170682497686,0.0016170590286787,-0.0016170580031334,0.0016170695042032,-0.0016170649108417,0.0016170624185883,-0.0014012880566065,0.0014013133317819,-0.0014013085327975,0.0014012922796218,-0.0014013083661329,0.0014012925707457,-0.0014012984044536,0.0014013027537315,-4.757259474154e-09,8.2807337601133e-09,-0.0010881563287755,0.0010881598007011,-8.5692130883047e-09,1.2462126539871e-08,-0.0011904815584822,0.0011904735428996,-0.0011904745818525,0.0011904805707048,-0.0011904771824111,0.001190477889647,-0.0011904702314463,0.0011904848817994,-0.0010791355997861,0.0010791589031051,-0.0010791483760002,0.0010791462149531,0.62007022707345,128566,2924,0.0045244388495845,0.0063117078240921,0.0045244388494799,38.775883903178,7.0207071225428e-05,7.0207071225428e-05,7.0207071225428e-05,2984784.4031843,0.015479843781116
10419200,0.87698723385503,0.015247838540304,0.0046210689175321,0.0060057007053263,0.0046210689174454,-0.0010957929804312,0.0010957925206703,6.470007885601e-09,-6.9116086211958e-09,4.8094302919044e-09,-5.4205293416082e-09,-0.0011995717358507,0.0011995791065391,-0.001199576241633,0.001199574724104,-0.0011995750364407,0.0011995757252155,-0.0011995795328906,0.0011995712698608,-0.0010864910556356,0.0010865003310834,-0.0010865041875035,0.001086487186725,-4.4535379383554e-09,5.7790914035481e-09,1.1110152090186e-08,-1.0002231109352e-08,-0.0015327775117583,0.0015327786734549,-0.00163178288356,0.0016317875983339,-0.0016317897603419,0.0016317805453476,-0.001631779522973,0.0016317910110443,-0.001631786419183,0.0016317839373814,-0.0014124550208015,0.0014124802585957,-0.0014124754610904,0.0014124592423936,-0.0014124753102081,0.0014124595174021,-0.0014124653429115,0.0014124697065737,-4.9240080740657e-09,8.4580814886103e-09,-0.001095791009183,0.0010957944918769,-8.5449376912543e-09,1.2448490390721e-08,-0.0011995794710559,0.0011995713635645,-0.0011995725064754,0.0011995783793346,-0.0011995749796608,0.0011995758255873,-0.001199568041917,0.0011995828045905,-0.001086483866297,0.0010865075024425,-0.0010864969775012,0.0010864944794323,0.62506142511377,128566,2924,0.0045561237862623,0.0063654351553303,0.0045561237861766,38.100791904005,6.4806335232044e-05,6.4806335232044e-05,6.4806335232044e-05,2977364.8030908,0.01559878407978
10619200,0.88534493789697,0.015369086658689,0.0046566117907607,0.0060558630772548,0.0046566117906734,-0.001103878325146,0.0011038778701128,6.6434175397206e-09,-7.0802811440866e-09,4.7904649426891e-09,-5.3964408414366e-09,-0.001209056977361,0.0012090644539917,-0.0012090615975136,0.0012090599550121,-0.0012090602647726,0.0012090610850965,-0.0012090648738543,0.0012090565168407,-0.0010942846305436,0.0010942942558014,-0.0010942980925172,0.0010942807798622,-4.4347969581736e-09,5.7545178764289e-09,1.0629670923085e-08,-9.5273725667197e-09,-0.0015458636245036,0.0015458647805758,-0.0016464983549861,0.001646502764513,-0.00164650492201,0.0016464960294283,-0.0016464950097703,0.0016465061612062,-0.001646501593168,0.0016464994086459,-0.0014238072994581,0.0014238315747633,-0.0014238268057993,0.0014238115094715,-0.0014238269383519,0.001423811494573,-0.0014238170086188,0.0014238216454887,-5.1538216555692e-09,8.576547822728e-09,-0.001103876412505,0.0011038797827108,-8.1288903878021e-09,1.1912182943463e-08,-0.0012090647195371,0.0012090567030377,-0.0012090580726595,0.0012090634011585,-0.0012090601134787,0.0012090612797371,-0.0012090534907391,0.0012090679437788,-0.0010942776567556,0.0010943012108307,-0.0010942911130984,0.0010942878427913,0.61395112245355,128566,2924,0.0045896763089015,0.0064195906821697,0.0045896763088128,38.029641487405,6.4237131899241e-05,6.4237131899241e-05,6.4237131899241e-05,2974311.286233,0.015721967080904
10819200,0.89314948800442,0.015480407112663,0.0046892044087077,0.0061019982953348,0.0046892044086204,-0.001111340183865,0.0011113397345003,6.8194258057319e-09,-7.2506656504425e-09,4.7715479429489e-09,-5.371435904732e-09,-0.0012178269619051,0.0012178345448775,-0.0012178316959769,0.0012178299294089,-0.0012178302343309,0.001217831190305,-0.0012178349586226,0.001217826506018,-0.0011014324819563,0.0011014424675704,-0.0011014462828263,0.0011014286500674,-4.4158004970907e-09,5.7294949960372e-09,1.0258345896104e-08,-9.1618418647259e-09,-0.0015579878470885,0.0015579889973754,-0.001660167713918,0.0016601718889303,-0.0016601740416829,0.0016601654009585,-0.0016601643825803,0.0016601752710545,-0.0016601707270681,0.0016601687653761,-0.0014342933763292,0.0014343169087373,-0.0014343121686695,0.0014342975745028,-0.001434312507853,0.0014342973466581,-0.0014343026218335,0.0014343074529955,-5.3766600985556e-09,8.697599727669e-09,-0.0011113383257643,0.0011113415925582,-7.8173438016894e-09,1.1490284717584e-08,-0.0012178347431757,0.001217826753589,-0.0012178283397305,0.0012178332083317,-0.0012178300222481,0.0012178314452264,-0.0012178236433517,0.0012178378654668,-0.0011014256922485,0.0011014492372108,-0.0011014394841766,0.0011014355335233,0.60386753630715,128566,2924,0.0046206404595563,0.006469762466557,0.0046206404594679,37.973756623424,6.3790052987392e-05,6.3790052987392e-05,6.3790052987392e-05,2976758.3279127,0.015835858991077
11019200,0.90043423779768,0.015582425477628,0.0047190335379974,0.0061443584017206,0.00471903353791,-0.0011181824148069,0.00111818196987,6.9942209445166e-09,-7.4210787251387e-09,4.7592627988546e-09,-5.354394395809e-09,-0.001225889462961,0.0012258971557025,-0.0012258943109743,0.0012258924240998,-0.0012258927254701,0.0012258938105121,-0.0012258975644733,0.001225889010738,-0.001107944334493,0.0011079546722397,-0.001107958472275,0.0011079405154356,-4.4036804219389e-09,5.7119299054622e-09,1.0019576239529e-08,-8.928340322273e-09,-0.0015691804471122,0.0015691815921449,-0.0016728224150032,0.0016728264390221,-0.001672828590388,0.0016728201095643,-0.0016728190931317,0.0016728298110925,-0.0016728252850309,0.0016728234642373,-0.0014439456466812,0.0014439687003111,-0.0014439639820555,0.0014439498365177,-0.0014439644528895,0.0014439494720918,-0.0014439545956907,0.0014439595488239,-5.588478138987e-09,8.8307758315319e-09,-0.0011181805989723,0.0011181837856615,-7.6251592236198e-09,1.1212840025427e-08,-0.0012258973175469,0.0012258892900442,-0.0012258910699858,0.0012258955889371,-0.0012258924816028,0.0012258940967556,-0.0012258862586516,0.0012259003610847,-0.0011079376684592,0.0011079613170285,-0.0011079517980181,0.0011079472756558,0.59320719553022,128566,2924,0.0046490325016645,0.0065160763852794,0.0046490325015755,37.918475271219,6.3347802169752e-05,6.3347802169752e-05,6.3347802169752e-05,2982736.9661144,0.015940617522985
11219200,0.90722175523986,0.01567739646836,0.0047468188190372,0.0061837588303727,0.0047468188189498,-0.0011244690629735,0.0011244686199401,7.1674469728671e-09,-7.5924128336708e-09,4.7560868004637e-09,-5.3491453956917e-09,-0.0012332891237352,0.0012332969306675,-0.0012332940861184,0.0012332920833852,-0.0012332923835758,0.0012332935879079,-0.0012332973370039,0.0012332886731175,-0.0011139285473387,0.0011139392266814,-0.0011139430213604,0.0011139247321781,-4.4015652972604e-09,5.7054435140876e-09,9.96502588677e-09,-8.8781015016815e-09,-0.0015795028216663,0.0015795039624068,-0.0016845092297257,0.0016845132182684,-0.0016845153727034,0.001684506924237,-0.0016845059105631,0.0016845165872296,-0.001684512069619,0.0016845102763362,-0.0014528633346526,0.0014528862775949,-0.0014528815697772,0.0014528675206653,-0.0014528820685457,0.0014528671258637,-0.0014528722190357,0.0014528771945113,-5.7787950723912e-09,8.9860284926348e-09,-0.0011244672660632,0.0011244704168061,-7.5923380691659e-09,1.1141863652026e-08,-0.0012332970931297,0.0012332889495785,-0.0012332908800759,0.0012332952139992,-0.0012332921421631,0.0012332938713346,-0.0012332859534214,0.0012333001015012,-0.0011139219169898,0.0011139458350364,-0.0011139363852815,0.0011139314549483,0.5926323607535,128566,2924,0.0046751183380714,0.0065587874094022,0.0046751183379799,37.837714347975,6.2701714783797e-05,6.2701714783797e-05,6.2701714783797e-05,2988156.232854,0.016037038150747
11419200,0.91350226284398,0.015765844845758,0.0047727306676036,0.0062203835106376,0.0047727306675164,-0.0011300501595974,0.0011300497153196,7.3350557873932e-09,-7.761235401084e-09,4.7622467219331e-09,-5.3566010111631e-09,-0.0012398835679004,0.0012398914912667,-0.0012398886433065,0.0012398865309208,-0.00123988683317,0.0012398881432673,-0.0012398918980585,0.0012398831167196,-0.0011192486721376,0.0011192596733127,-0.0011192634734896,0.0011192448509118,-4.4105348660109e-09,5.7115756591077e-09,1.0122745405665e-08,-9.038720682817e-09,-0.0015887993303516,0.0015888004681262,-0.0016950629163311,0.0016950670031342,-0.0016950691650898,0.0016950606021693,-0.0016950595927107,0.0016950703762882,-0.0016950658560737,0.0016950639602591,-0.0014608847838079,0.001460908038324,-0.0014609033274569,0.0014608889706018,-0.001460903735766,0.0014608886667164,-0.0014608938691684,0.0014608987532033,-5.9443163561624e-09,9.1740747635155e-09,-0.0011300483508341,0.0011300515240386,-7.7364602708022e-09,1.1310036174622e-08,-0.0012398916949017,0.0012398833525811,-0.0012398853786068,0.0012398897202505,-0.0012398866269486,0.0012398883912885,-0.0012398803335576,0.0012398947261652,-0.0011192419655325,0.0011192663575981,-0.0011192567818237,0.001119251629598,0.59626237911412,128566,2924,0.0046982765645869,0.0065972517405733,0.0046982765644955,37.630848820578,6.1046790564626e-05,6.1046790564626e-05,6.1046790564626e-05,2989730.3370776,0.016123201154595
11619200,0.9193138513352,0.015848055238373,0.004796840575906,0.0062543740866481,0.004796840575819,-0.0011351914893485,0.0011351910482904,7.5130424206744e-09,-7.9360019257212e-09,4.777386718093e-09,-5.3682774451619e-09,-0.0012459605132874,0.0012459685655372,-0.0012459657059202,0.0012459634889429,-0.0012459637872671,0.0012459652093631,-0.0012459689700389,0.0012459600650373,-0.0011241696950686,0.0011241810375568,-0.0011241848439975,0.0011241658686899,-4.4240064097586e-09,5.722961376576e-09,1.0295005852226e-08,-9.2131932593878e-09,-0.0015973677485246,0.0015973688841761,-0.0017047827097454,0.0017047868997624,-0.0017047890705148,0.0017047803832917,-0.001704779376908,0.0017047902818829,-0.0017047857533905,0.0017047837491179,-0.0014682810364959,0.0014683046395814,-0.0014682999187046,0.0014682852260851,-0.0014683002305072,0.0014682850217003,-0.0014682903409404,0.0014682951308253,-6.0877929396928e-09,9.3677785768683e-09,-0.0011351896567282,0.0011351928808662,-7.884501430364e-09,1.1512219789198e-08,-0.0012459687946006,0.0012459602730195,-0.0012459623615661,0.0012459667575405,-0.0012459636134011,0.0012459654249826,-0.0012459572043624,0.0012459718756165,-0.0011241629120594,0.0011241877987779,-0.0011241780568801,0.0011241727423322,0.59873358853758,128566,2924,0.0047196099578518,0.0066327019572269,0.0047196099577602,37.420789688814,5.9366317510515e-05,5.9366317510515e-05,5.9366317510515e-05,2988118.5548088,0.016202598087028
11819200,0.92469288969047,0.015924617722406,0.0048193205386423,0.0062859766452087,0.0048193205385554,-0.0011399354468899,0.0011399350058305,7.685346381381e-09,-8.1082973202778e-09,4.7914285909764e-09,-5.3822873933441e-09,-0.0012515694620345,0.0012515776386522,-0.0012515747699348,0.0012515724473865,-0.0012515727455925,0.0012515742730589,-0.0012515780433053,0.0012515690140933,-0.0011287339738312,0.0011287456438816,-0.0011287494602431,0.0011287301387339,-4.4385211730484e-09,5.7360928252428e-09,1.0453062250771e-08,-9.3727977347571e-09,-0.0016052769487657,0.0016052780829143,-0.0017137461078603,0.0017137503925937,-0.0017137525731594,0.0017137437695446,-0.0017137427657794,0.0017137537837642,-0.0017137492463971,0.0017137471449248,-0.0014751219164533,0.0014751458386675,-0.0014751411075224,0.0014751261113027,-0.0014751413360047,0.0014751259924167,-0.0014751314185518,0.001475136129085,-6.2449230726074e-09,9.5559232153019e-09,-0.001139933598487,0.001139936854189,-8.0263573452338e-09,1.1687524713789e-08,-0.0012515779003415,0.0012515691894301,-0.0012515713618984,0.0012515757793902,-0.0012515726041503,0.0012515744563972,-0.0012515660895098,0.0012515810126349,-0.0011287271175204,0.0011287524789546,-0.0011287426009851,0.001128737084008,0.60218091974057,128566,2924,0.0047392943807612,0.0066654233081675,0.0047392943806698,37.210604295503,5.7684834364025e-05,5.7684834364025e-05,5.7684834364025e-05,2984552.6420029,0.016275874755226
12019200,0.92968037648075,0.015997716761283,0.004840858790898,0.0063159991795737,0.0048408587908112,-0.0011444559462465,0.0011444555034874,7.8570903535992e-09,-8.2817013085269e-09,4.8002510368998e-09,-5.3929056674337e-09,-0.0012568678377043,0.0012568761342665,-0.0012568732609922,0.0012568708281425,-0.0012568711279103,0.0012568727621819,-0.001256876540713,0.0012568673883448,-0.0011331473018015,0.0011331593015321,-0.0011331631264286,0.0011331434590975,-4.4487870123753e-09,5.7450118534197e-09,1.0541128943276e-08,-9.4622943141098e-09,-0.0016127131219466,0.0016127142546881,-0.0017221325232209,0.0017221368590264,-0.0017221390466694,0.0017221301762678,-0.001722129174744,0.0017221402565489,-0.0017221357133008,0.0017221335582514,-0.0014816152170095,0.0014816393182301,-0.0014816345800882,0.001481619414856,-0.001481634764608,0.0014816193413875,-0.0014816248280598,0.001481629497436,-6.4045211064897e-09,9.7410215485499e-09,-0.0011444540840133,0.0011444573656779,-8.101337634461e-09,1.178996711825e-08,-0.0012568764102156,0.0012568675510928,-0.0012568698128859,0.0012568741999873,-0.0012568709991782,0.0012568729328727,-0.0012568644255115,0.0012568795481898,-0.0011331403996124,0.0011331661828889,-0.0011331562208547,0.0011331504503558,0.61929849981505,128566,2924,0.0047580513241772,0.0066961868475689,0.0047580513240892,37.028205216061,5.6225641728492e-05,5.6225641728492e-05,5.6225641728492e-05,2976171.0255277,0.016345279179187
12219200,0.93432273550468,0.016067892275127,0.0048616057520536,0.006344680771107,0.0048616057519668,-0.0011488849877112,0.0011488845448314,8.0288044697994e-09,-8.4535036524844e-09,4.802044780308e-09,-5.3947913241223e-09,-0.0012620239665056,0.0012620323788334,-0.0012620295044289,0.0012620269581359,-0.0012620272581176,0.0012620290054131,-0.0012620327854311,0.0012620235171583,-0.001137544511671,0.0011375568462907,-0.0011375606726666,0.0011375406678465,-4.4514575358514e-09,5.7459326491723e-09,1.0530793456547e-08,-9.4537307523678e-09,-0.001619861946873,0.0016198630778609,-0.0017301210344283,0.0017301253611731,-0.0017301275518887,0.0017301186844905,-0.0017301176846673,0.0017301287598324,-0.0017301242170594,0.0017301220678378,-0.0014879312669274,0.0014879553487569,-0.0014879506110677,0.0014879354641188,-0.0014879508044311,0.0014879353818206,-0.0014879408640846,0.0014879455417378,-6.5768156900158e-09,9.9150611296581e-09,-0.0011488831244674,0.0011488864080328,-8.0903189110754e-09,1.1780737247114e-08,-0.0012620326502815,0.0012620236844649,-0.0012620260597302,0.0012620303266153,-0.0012620271238842,0.0012620291815762,-0.0012620205568581,0.0012620357902917,-0.0011375376099014,0.0011375637273535,-0.0011375537704769,0.001137547655637,0.63789980691112,128566,2924,0.0047764289621322,0.0067257603738983,0.0047764289620446,36.914452683707,5.5315621469655e-05,5.5315621469655e-05,5.5315621469655e-05,2961484.360179,0.016412705858298
12419200,0.9386443501536,0.01613115933109,0.0048802532423324,0.0063706528465123,0.0048802532422456,-0.0011529146812695,0.001152914239173,8.2020543278042e-09,-8.6259298036182e-09,4.8009246127692e-09,-5.3928319206278e-09,-0.0012667897308591,0.0012667982583295,-0.001266795384168,0.0012667927225089,-0.0012667930216991,0.0012667948857946,-0.0012667986643708,0.0012667892825851,-0.0011415056422297,0.0011415183170406,-0.0011415221421717,0.001141501800847,-4.4507022506896e-09,5.7433158849362e-09,1.049382830516e-08,-9.4186677665179e-09,-0.0016264745089373,0.0016264756380476,-0.0017375044964143,0.001737508798708,-0.0017375109905479,0.0017375021458337,-0.0017375011476268,0.0017375121962339,-0.001737507656558,0.0017375055282113,-0.0014937327026852,0.0014937567106463,-0.0014937519758641,0.0014937368968428,-0.001493752190776,0.0014937367933095,-0.0014937422535818,0.0014937469501152,-6.7521616610869e-09,1.0083824873789e-08,-0.0011529128216243,0.0011529160987756,-8.0583625314385e-09,1.1741980705765e-08,-0.0012667985211034,0.0012667894577496,-0.0012667919541059,0.0012667960763523,-0.0012667928799885,0.0012667950695004,-0.0012667863364232,0.0012668016547708,-0.0011414987573736,0.0011415251816713,-0.0011415152551218,0.0011415087730644,0.61826606047173,128566,2924,0.0047931502778356,0.0067531133498746,0.0047931502777479,36.802442223726,5.4419537789812e-05,5.4419537789812e-05,5.4419537789812e-05,2949097.4599962,0.016474513553865
12619200,0.94266757420488,0.016187024500438,0.0048966333291344,0.0063937578422557,0.0048966333290476,-0.0011564955448847,0.0011564951039411,8.3751066923203e-09,-8.7978202988669e-09,4.7990455488075e-09,-5.3897288450717e-09,-0.0012710515429907,0.0012710601850725,-0.0012710573112736,0.0012710545341727,-0.0012710548323036,0.0012710568140562,-0.001271060589984,0.0012710510959733,-0.001144940651461,0.0011449536666871,-0.0011449574892391,0.0011449368130806,-4.4490714959198e-09,5.7397710394053e-09,1.0451190196431e-08,-9.3779055708927e-09,-0.0016324514231473,0.0016324525504013,-0.0017442375535029,0.0017442418282658,-0.0017442440207781,0.0017442352031698,-0.0017442342063025,0.0017442452240051,-0.0017442406882373,0.0017442385839299,-0.0014989034606825,0.0014989273830234,-0.0014989226524326,0.0014989076518915,-0.0014989228910712,0.0014989075242778,-0.0014989129588259,0.0014989176761339,-6.9291983402214e-09,1.0251566180703e-08,-0.0011564936904568,0.0011564969583266,-8.0220083377989e-09,1.1695561547409e-08,-0.0012710604388021,0.0012710512789351,-0.0012710538993431,0.0012710578700103,-0.0012710546827844,0.0012710570055622,-0.001271048166675,0.0012710635633933,-0.0011449337864485,0.0011449605116317,-0.0011449506219047,0.0011449437653734,0.5873120175028,128566,2924,0.0048080085760646,0.0067778362771752,0.0048080085759773,36.690500625661,5.3524005005285e-05,5.3524005005285e-05,5.3524005005285e-05,2947230.7418665,0.016529864373021
12819200,0.94637940075301,0.016238946482396,0.0049118768967859,0.0064151926889109,0.0049118768966991,-0.001159451570659,0.0011594511293313,8.543607206499e-09,-8.966665930081e-09,4.8022908258099e-09,-5.3932957548697e-09,-0.0012745629041544,0.0012745716605301,-0.0012745687849195,0.0012745658973662,-0.001274566195656,0.0012745682874555,-0.0012745720661658,0.0012745624566045,-0.0011477573043342,0.0011477706480014,-0.0011477744733176,0.0011477534634244,-4.4536796106156e-09,5.7432433815041e-09,1.0510386087684e-08,-9.4382778056212e-09,-0.0016375510880188,0.0016375522140814,-0.0017500605521357,0.0017500648623607,-0.0017500670584077,0.0017500581974629,-0.0017500572018999,0.0017500682609375,-0.0017500637232796,0.0017500615808009,-0.0015032756448809,0.0015032996866767,-0.0015032949538696,0.0015032798367372,-0.0015032951586055,0.0015032797435318,-0.0015032852191338,0.0015032899027973,-7.0975647433426e-09,1.0435414552595e-08,-0.001159449708214,0.0011594529917317,-8.0692676714116e-09,1.1759273229425e-08,-0.0012745719266943,0.0012745626278158,-0.0012745653500722,0.0012745692560633,-0.0012745660531694,0.0012745684719096,-0.0012745595003322,0.0012745750664976,-0.0011477504054126,0.0011477775268966,-0.0011477675850095,0.0011477604366565,0.59134553069791,128566,2924,0.0048202737109882,0.0067989306258207,0.0048202737108964,36.407282202718,5.1258257621747e-05,5.1258257621747e-05,5.1258257621747e-05,2949852.4019806,0.016576255072492
13019200,0.94976108517458,0.016286396623734,0.0049258184519094,0.0064347597200017,0.0049258184518228,-0.0011616285626498,0.0011616281186232,8.7226787543868e-09,-9.1483889656644e-09,4.812971064773e-09,-5.406820178002e-09,-0.0012772435669325,0.0012772524492592,-0.0012772495687802,0.0012772465660363,-0.0012772468673527,0.0012772490676944,-0.0012772528572413,0.0012772431177139,-0.0011498094035846,0.0011498230876057,-0.0011498269242472,0.0011498055527258,-4.4644185347842e-09,5.7535101536259e-09,1.0672713194232e-08,-9.6011995048868e-09,-0.0016416719054598,0.0016416730310131,-0.0017548347501791,0.0017548391613187,-0.0017548413636343,0.0017548323866906,-0.0017548313936549,0.0017548425663318,-0.001754838020691,0.0017548357777887,-0.0015067421001678,0.0015067664654594,-0.0015067617227551,0.0015067462953693,-0.0015067618393415,0.0015067462930659,-0.001506751876846,0.0015067564750866,-7.2387519095576e-09,1.062265517788e-08,-0.0011616266755192,0.0011616300057094,-8.2164737046625e-09,1.1955919418765e-08,-0.001277252741309,0.0012772432652589,-0.0012772460513259,0.0012772500068867,-0.001277246758566,0.0012772492184854,-0.0012772400910787,0.001277255927798,-0.0011498024332673,0.0011498300385183,-0.0011498199367747,0.0011498126245328,0.59302696119206,128566,2924,0.0048293077218542,0.0068159746395387,0.0048293077217627,35.874925659141,4.6999405273129e-05,4.6999405273129e-05,4.6999405273129e-05,2949762.2844424,0.01661195949897
13219200,0.95284549200611,0.016329840025235,0.0049385937565914,0.006452652512139,0.0049385937565049,-0.0011635180394231,0.0011635175934889,8.9037147869522e-09,-9.3312873111596e-09,4.8202293854756e-09,-5.4160138103193e-09,-0.0012795906073158,0.0012795996158607,-0.0012795967321871,0.0012795936102923,-0.0012795939148402,0.0012795962272896,-0.0012796000245741,0.0012795901581298,-0.0011515924914444,0.0011516065197799,-0.0011516103649088,0.0011515886345183,-4.4702049836003e-09,5.7585290728308e-09,1.0769761265774e-08,-9.6991514826388e-09,-0.001645329427417,0.0016453305522335,-0.0017590808092755,0.0017590852823936,-0.0017590874882695,0.0017590784406821,-0.0017590774506849,0.0017590886896081,-0.0017590841399065,0.0017590818369631,-0.00150981125694,0.0015098358114669,-0.0015098310630809,0.0015098154523316,-0.0015098311299773,0.0015098155025264,-0.0015098211509518,0.0015098256993608,-7.3850077344525e-09,1.0801642522702e-08,-0.0011635161347183,0.0011635194981488,-8.3091977427126e-09,1.2083649227188e-08,-0.001279599918594,0.0012795902953523,-0.0012795931571991,0.0012795971084872,-0.0012795938287716,0.0012795963555923,-0.0012795870866724,0.0012796031395557,-0.0011515854793376,0.0011516135135216,-0.0011516033062084,0.001151595776522,0.59512402991896,128566,2924,0.0048371490086999,0.0068311018586214,0.0048371490086076,35.336224935005,4.2689799480037e-05,4.2689799480037e-05,4.2689799480037e-05,2948000.7952895,0.016643290266811
13419200,0.95566289038889,0.016368904332737,0.0049500672159569,0.0064687699009097,0.0049500672158704,-0.0011651260725489,0.0011651256261725,9.0650981401214e-09,-9.4930449365772e-09,4.8213847467224e-09,-5.4174743656415e-09,-0.0012816273981282,0.0012816365142731,-0.001281633630131,0.0012816304015839,-0.0012816307053938,0.001281633125798,-0.0012816369247751,0.0012816269473117,-0.0011530924125643,0.0011531067600672,-0.0011531106067528,0.0011530885546305,-4.4743946811962e-09,5.7622160464316e-09,1.0835428430334e-08,-9.7653927229556e-09,-0.0016485554625853,0.0016485565867264,-0.0017628443393754,0.0017628488511791,-0.001762851059731,0.0017628419666379,-0.0017628409768321,0.0017628522622732,-0.0017628477100038,0.001762845364265,-0.0015124925186996,0.0015125172086601,-0.0015125124570192,0.0015124967145731,-0.0015125124829181,0.0015124968072321,-0.0015125025000106,0.0015125070077937,-7.5579192947921e-09,1.0994718562441e-08,-0.001165124157398,0.0011651275412751,-8.3500059291094e-09,1.2146017351377e-08,-0.0012816368318023,0.0012816270713671,-0.0012816300345651,0.0012816339203455,-0.0012816306194202,0.0012816332542236,-0.0012816238437838,0.0012816400716148,-0.0011530853557513,0.001153113798623,-0.0011531035371177,0.0011530957075685,0.58608286872366,128566,2924,0.004843822768081,0.006844443816066,0.0048438227679814,34.797273473043,3.8378187784347e-05,3.8378187784347e-05,3.8378187784347e-05,2946402.0088479,0.016670432623287
13619200,0.95825388961137,0.016404378607019,0.0049604773689957,0.006483423869114,0.0049604773689095,-0.0011666812478392,0.0011666808037476,9.2256882914415e-09,-9.6514231311744e-09,4.8131217477139e-09,-5.4069483725564e-09,-0.0012835652756528,0.0012835744926129,-0.001283571612157,0.0012835682753394,-0.0012835685746459,0.0012835711125759,-0.0012835749029771,0.0012835648249449,-0.0011545368452668,0.0011545515205951,-0.0011545553586056,0.0011545329954406,-4.4680291120717e-09,5.7543405876097e-09,1.0754259475461e-08,-9.685683114147e-09,-0.0016515841211752,0.0016515852437835,-0.0017663755785554,0.0017663800377674,-0.0017663822435592,0.0017663732094188,-0.0017663722183881,0.0017663834461318,-0.001766378900776,0.0017663766002051,-0.0015150169143705,0.0015150414472408,-0.0015150367035975,0.0015150211053976,-0.001515036763953,0.0015150211612518,-0.0015150268034535,0.0015150313418164,-7.7521566607552e-09,1.1170567651919e-08,-0.0011666793430542,0.0011666827084898,-8.2633161992446e-09,1.2039569938219e-08,-0.0012835747994995,0.0012835649595175,-0.0012835680637756,0.0012835717469678,-0.0012835684619787,0.0012835712675305,-0.0012835617523926,0.001283578018922,-0.0011545298158397,0.0011545585316542,-0.0011545483522356,0.0011545400851908,0.57889842402061,128566,2924,0.004850276557609,0.0068569697061096,0.0048502765575208,34.356446683188,3.4851573465503e-05,3.4851573465503e-05,3.4851573465503e-05,2946942.7445255,0.016696298087463
13819200,0.96065096121142,0.016437173705219,0.0049701054118764,0.006496962881552,0.0049701054117903,-0.0011682209233023,0.0011682204834136,9.4020614571087e-09,-9.8236161857796e-09,4.800279441032e-09,-5.3896235269361e-09,-0.0012854461457697,0.0012854554722971,-0.0012854525974411,0.0012854491394226,-0.0012854494343189,0.00128545210286,-0.0012854558789764,0.0012854456984996,-0.0011559738180736,0.0011559888500097,-0.0011559926735397,0.0011559699820294,-4.4536675879829e-09,5.7375878782758e-09,1.0576213586464e-08,-9.5098855305249e-09,-0.0016544699690833,0.0016544710894515,-0.0017697301031517,0.0017697344531268,-0.0017697366523977,0.0017697277435681,-0.0017697267526406,0.0017697378514008,-0.0017697333200916,0.001769731123622,-0.0015174409409836,0.0015174651152722,-0.001517460387719,0.0015174451230216,-0.001517460539739,0.0015174450843766,-0.0015174506114501,0.0015174552328223,-7.9434103752289e-09,1.131980456391e-08,-0.0011682190418376,0.0011682223648365,-8.1127678854511e-09,1.1843641693349e-08,-0.0012854557447556,0.001285445863915,-0.001285449123662,0.0012854525367439,-0.0012854492929246,0.0012854522862277,-0.0012854426991469,0.001285458921888,-0.0011559668790419,0.001155995770334,-0.001155985747599,0.0011559769916746,0.57842146974987,128566,2924,0.004856665444083,0.006868905229797,0.0048566654439971,34.004079618226,3.2032636945811e-05,3.2032636945811e-05,3.2032636945811e-05,2948337.5133032,0.016721431252761
14019200,0.96287092327791,0.016467537718839,0.0049790236703686,0.006509490378188,0.0049790236702824,-0.0011696026536241,0.0011696022176203,9.58768056594e-09,-1.000534203913e-08,4.7898645860516e-09,-5.3750457573946e-09,-0.0012871431166168,0.0012871525656596,-0.0012871496948659,0.0012871461053386,-0.0012871464018401,0.0012871491992722,-0.0012871529633042,0.0012871426780594,-0.0011572629683903,0.0011572783562555,-0.0011572821674831,0.0011572591444789,-4.4402371419209e-09,5.7217001505174e-09,1.0405453090374e-08,-9.3414440735899e-09,-0.0016570913956215,0.001657092513759,-0.0017727834620084,0.0017727877130069,-0.0017727899066185,0.0017727811115728,-0.0017727801261699,0.001772791096331,-0.0017727865784044,0.0017727844870191,-0.0015196385133156,0.0015196623262469,-0.001519657613392,0.001519642686626,-0.0015196578723905,0.0015196425398202,-0.0015196479556061,0.0015196526749328,-8.1247882941954e-09,1.1460110431568e-08,-0.0011696007949064,0.0011696040762959,-7.9798778821495e-09,1.1666290212099e-08,-0.0012871527967601,0.0012871428757307,-0.0012871462841991,0.0012871494400695,-0.0012871462422725,0.0012871494007241,-0.001287139746816,0.0012871559380478,-0.001157256113722,0.0011572851919609,-0.0011572753133577,0.0011572660825312,0.57820995963603,128566,2924,0.0048623990409574,0.0068797468857302,0.0048623990408706,33.653973832838,2.9231790662707e-05,2.9231790662707e-05,2.9231790662707e-05,2949034.3635669,0.016744119794985
14219200,0.96492873716387,0.01649469601495,0.00498697354045,0.0065207489341363,0.0049869735403636,-0.0011707888710929,0.0011707884384168,9.7581057597254e-09,-1.0172553109303e-08,4.7809491585111e-09,-5.3626480425481e-09,-0.0012886337095616,0.0012886432654861,-0.0012886403977658,0.0012886366940658,-0.001288636985364,0.0012886399080146,-0.0012886436616765,0.0012886332719284,-0.0011583432882754,0.001158359024461,-0.0011583628252175,0.0011583394743014,-4.4312707776018e-09,5.7108210463959e-09,1.0269812100525e-08,-9.2076188780342e-09,-0.001659430188228,0.0016594313045152,-0.0017755283335997,0.001775532497831,-0.00177553468819,0.0017755259892249,-0.001775525001482,0.0017755358771483,-0.0017755313689862,0.0017755293554494,-0.0015215703801784,0.0015215939277327,-0.0015215892263474,0.0015215745478639,-0.0015215895512964,0.0015215743329654,-0.0015215796613701,0.0015215844408336,-8.3194701708639e-09,1.1616784671415e-08,-0.0011707870333276,0.001170790276141,-7.8619802616644e-09,1.1507290258645e-08,-0.0012886434754602,0.001288633489221,-0.0012886370526793,0.0012886399637785,-0.0012886368018931,0.0012886401334203,-0.001288630400503,0.0012886465765805,-0.0011583365044413,0.0011583657892551,-0.0011583560403371,0.0011583463431428,0.55856304976087,128566,2924,0.0048673215621696,0.0068894191760833,0.0048673215620849,33.303957347579,2.6431658780629e-05,2.6431658780629e-05,2.6431658780629e-05,2950796.1509868,0.016763970663897
14419200,0.96680629505558,0.016519723504772,0.0049943118292874,0.0065310998462838,0.004994311829201,-0.0011712368781647,0.0011712364443901,9.9199317683129e-09,-1.0335429674861e-08,4.7870735450954e-09,-5.3698213322914e-09,-0.0012893141043426,0.0012893237704213,-0.0012893208994488,0.0012893170923094,-0.0012893173828854,0.0012893204104323,-0.0012893241695458,0.0012893136637224,-0.0011586797456485,0.0011586957996626,-0.001158699605666,0.0011586759256778,-4.4397705785858e-09,5.7191382418995e-09,1.0374947488182e-08,-9.3130504192907e-09,-0.0016608732472415,0.0016608743631694,-0.0017773603851759,0.001777364611199,-0.0017773668068161,0.0017773580340724,-0.0017773570457204,0.001777367997705,-0.0017773634837878,0.001777361404353,-0.0015226518054419,0.0015226755706303,-0.0015226708634651,0.0015226559774254,-0.0015226711252328,0.0015226558256331,-0.0015226612249397,0.0015226659448067,-8.4909821435519e-09,1.1809465224476e-08,-0.0011712350292736,0.0011712382932905,-7.943310313793e-09,1.1611091256042e-08,-0.0012893240072593,0.0012893138572902,-0.0012893175208775,0.0012893203954056,-0.0012893172108432,0.0012893206242942,-0.0012893107495624,0.001289327127378,-0.0011586729036739,0.001158702622271,-0.001158692790609,0.0011586828252961,0.5638311734261,128566,2924,0.0048691817916663,0.0068953865907058,0.0048691817916858,32.648759804411,2.1190078435288e-05,2.1190078435288e-05,2.1190078435288e-05,2954358.2371938,0.016773826182071
14619200,0.96850632215624,0.016542496398193,0.0050009963069597,0.0065405037843577,0.0050009963068755,-0.0011712200080427,0.0011712195737098,1.009148916386e-08,-1.0507470755057e-08,4.7933655413425e-09,-5.3767033143456e-09,-0.0012895052532548,0.0012895150375711,-0.0012895121635138,0.0012895082460164,-0.0012895085365392,0.0012895116736254,-0.0012895154379415,0.0012895048127096,-0.0011585648634374,0.0011585812488715,-0.0011585850606452,0.0011585610396519,-4.4459805380523e-09,5.7253279638666e-09,1.0553236915621e-08,-9.4914877275651e-09,-0.0016617402157181,0.0016617413315334,-0.0017785702759119,0.001778574615508,-0.0017785768139559,0.0017785679191188,-0.0017785669323687,0.0017785780061031,-0.0017785734866609,0.0017785712936358,-0.0015232037956519,0.0015232279151674,-0.0015232232012736,0.0015232079690878,-0.0015232233561612,0.0015232079262365,-0.0015232134439628,0.0015232180581284,-8.6497256036088e-09,1.199589767137e-08,-0.0011712181444805,0.0011712214372663,-8.1035815609694e-09,1.1802907893623e-08,-0.001289515318124,0.0012895049634785,-0.0012895087146715,0.001289511618711,-0.0012895084063301,0.0012895118456908,-0.0012895018282462,0.0012895184657599,-0.0011585579462168,0.0011585881474576,-0.0011585781715232,0.0011585680123552,0.56645232670352,128566,2924,0.0048691141692778,0.0068989705785554,0.0048691141692667,31.824662129263,1.4597297034107e-05,1.4597297034107e-05,1.4597297034107e-05,2954032.8550684,0.016777337322083
14819200,0.97004832139154,0.016563274888464,0.0050071028334546,0.0065490692216385,0.0050071028333711,-0.0011710653931142,0.00117106495815,1.027764203951e-08,-1.0694220867719e-08,4.7986693162938e-09,-5.3827366193853e-09,-0.0012895381317734,0.0012895480459928,-0.0012895451693471,0.0012895411283129,-0.0012895414220661,0.0012895446753803,-0.0012895484443377,0.0012895376940734,-0.0011583271319415,0.0011583438688862,-0.001158347685608,0.0011583233045268,-4.4512957979689e-09,5.7302281046413e-09,1.0673475382477e-08,-9.6122232682361e-09,-0.0016623734956336,0.0016623746110066,-0.0017795072394397,0.0017795116582081,-0.0017795138594204,0.0017795048776999,-0.0017795038956497,0.0017795150491963,-0.0017795105255934,0.0017795082587414,-0.0015235583134344,0.0015235826625867,-0.0015235779417089,0.0015235624859593,-0.0015235780367987,0.0015235625066512,-0.0015235681043981,0.0015235726578625,-8.7962760117103e-09,1.216516040402e-08,-0.0011710635175421,0.001171066833679,-8.2262260094421e-09,1.1951321744285e-08,-0.0012895483467592,0.0012895378223571,-0.0012895416566741,0.0012895445642111,-0.0012895413321023,0.001289544807456,-0.0012895346612604,0.0012895515201913,-0.0011583201755127,0.0011583508074145,-0.0011583407193515,0.0011583303537698,0.56961684257798,128566,2924,0.0048684752523277,0.006901587892292,0.0048684752522385,30.996211994229,7.9696959538291e-06,7.9696959538291e-06,7.9696959538291e-06,2951537.8016952,0.016778703254694
15019200,0.97142824921166,0.016581797929083,0.0050125473197462,0.0065567032896733,0.0050125473196633,-0.0011702621600615,0.0011702617280642,1.0479136189252e-08,-1.0892782606979e-08,4.7850084069818e-09,-5.3658596816112e-09,-0.0012888969453284,0.001288906994825,-0.0012889041259298,0.001288899935293,-0.0012889002357632,0.0012889036245364,-0.0012889073811515,0.0012888965214302,-0.0011574421885346,0.0011574593011563,-0.0011574631060528,0.0011574383758942,-4.433964008502e-09,5.7099298301514e-09,1.0812892434382e-08,-9.7543898806142e-09,-0.0016622336456547,0.0016622347585468,-0.0017796348537966,0.0017796393867946,-0.0017796415763684,0.001779632501683,-0.0017796315321472,0.0017796427555878,-0.0017796382447225,0.0017796358797284,-0.0015231734568605,0.0015231980348908,-0.0015231933242552,0.0015231776078691,-0.0015231933388047,0.0015231777160296,-0.00152318340876,0.0015231878585603,-8.9244141053229e-09,1.2325322408913e-08,-0.0011702602696855,0.0011702636184283,-8.3900074325615e-09,1.215114905887e-08,-0.0012889073159305,0.0012888966162262,-0.0012889005160198,0.0012889034683623,-0.0012889002142746,0.0012889036883425,-0.0012888934135599,0.0012889105312985,-0.0011574351891805,0.0011574662839984,-0.0011574560446338,0.0011574455187031,0.56737758823232,128566,2924,0.0048651464474907,0.0069010066111768,0.0048651464474669,29.893607302885,-8.5114157692201e-07,-8.5114157692201e-07,-8.5114157692201e-07,2945608.1168579,0.016771346479934
15219200,0.97264485024188,0.01659743415979,0.0050171255729116,0.0065631830140496,0.0050171255728283,-0.0011687240035331,0.0011687235773569,1.0608985197093e-08,-1.1016897974645e-08,4.7580817764285e-09,-5.332482805546e-09,-0.0012874877674998,0.0012874978723684,-0.0012874950176055,0.0012874907431642,-0.0012874910209353,0.0012874945386465,-0.0012874982700845,0.0012874873325092,-0.0011558050445194,0.0011558224841679,-0.0011558262638338,0.001155801257436,-4.4092477749189e-09,5.6826951367996e-09,1.1003399704104e-08,-9.9471676956196e-09,-0.0016612214748711,0.0016612225851443,-0.0017788633831819,0.0017788680378951,-0.0017788702112819,0.0017788610426969,-0.0017788600600748,0.0017788714071412,-0.0017788669147918,0.0017788643855023,-0.0015219401713784,0.0015219651630971,-0.0015219604691022,0.0015219443008322,-0.0015219602692713,0.0015219446247747,-0.0015219504473493,0.0015219546622488,-9.1300190001481e-09,1.2553719404429e-08,-0.0011687221043533,0.0011687254765005,-8.5062597275454e-09,1.2293404658767e-08,-0.0012874982778665,0.0012874873538867,-0.0012874913739728,0.0012874943099304,-0.0012874910165802,0.0012874945858837,-0.0012874841455731,0.0012875014988074,-0.0011557979681771,0.0011558295442351,-0.0011558191955244,0.0011558084070184,0.54391179513118,128566,2924,0.0048587695215583,0.0068968165708035,0.0048587695214837,28.488347068741,-1.2093223450072e-05,-1.2093223450072e-05,-1.2093223450072e-05,2938144.1532497,0.01675412185267
15419200,0.97371970866077,0.016613121987658,0.0050217838681985,0.0065695542513439,0.0050217838681155,-0.0011671321773274,0.0011671317540718,1.0799866399256e-08,-1.120501114906e-08,4.7458937578321e-09,-5.316998508463e-09,-0.0012859306378142,0.0012859408718759,-0.0012859380243485,0.0012859336081148,-0.0012859338924954,0.0012859375381737,-0.0012859412572131,0.0012859302157052,-0.0011541496826623,0.0011541674730647,-0.0011541712411389,0.0011541459074293,-4.3950051343159e-09,5.6661167513756e-09,1.1054418383283e-08,-1.0000372563836e-08,-0.0016599964792774,0.0016599975874118,-0.0017778541035288,0.0017778588118018,-0.0017778609766036,0.0017778517703639,-0.00177785080198,0.0017778621593248,-0.0017778576784633,0.0017778551141911,-0.0015205609442836,0.0015205859920627,-0.0015205813085551,0.0015205650597858,-0.0015205810886039,0.0015205654053673,-0.0015205712637873,0.0015205754452141,-9.2776551376198e-09,1.2715048186047e-08,-0.0011671302724947,0.0011671336588633,-8.5730463973173e-09,1.2375914452227e-08,-0.0012859412778855,0.0012859302246857,-0.0012859343343551,0.0012859372201001,-0.0012859339227977,0.0012859375505058,-0.0012859269927037,0.0012859445224433,-0.0011541425829896,0.0011541745570348,-0.0011541641445168,0.0011541530849343,0.61487579115476,128566,2924,0.0048521689093288,0.0068917477214746,0.0048521689092436,27.075405671394,-2.3396754628848e-05,-2.3396754628848e-05,-2.3396754628848e-05,2931037.817249,0.016735546695779
15619200,0.97468857802377,0.016627550701162,0.0050260786240939,0.0065753934530566,0.0050260786240114,-0.0011660592111939,0.0011660587837179,1.0895719394241e-08,-1.1304940415174e-08,4.7682876053037e-09,-5.3441571122568e-09,-0.0012850132349466,0.0012850235521727,-0.0012850206910216,0.0012850162159426,-0.0012850165086297,0.0012850201986102,-0.0012850239365569,0.0012850128097946,-0.0011530827803975,0.0011531007357787,-0.0011531045185036,0.0011530789788707,-4.4154835812428e-09,5.6897125301878e-09,1.0960848694126e-08,-9.9039119357005e-09,-0.0016593913635193,0.0016593924733588,-0.0017773632692964,0.0017773679009791,-0.0017773700790622,0.0017773609203288,-0.0017773599549457,0.0017773712594018,-0.0017773667645439,0.0017773642831315,-0.0015198266110389,0.0015198514810242,-0.001519846788185,0.0015198307498402,-0.0015198466613374,0.0015198309912295,-0.0015198367922496,0.0015198410920662,-9.5509463916603e-09,1.2933971105079e-08,-0.0011660573318121,0.0011660606630631,-8.3032187640134e-09,1.2047500135157e-08,-0.0012850239244597,0.0012850128541172,-0.0012850171798426,0.0012850196496354,-0.0012850164109648,0.001285020338164,-0.0012850096736198,0.0012850271165004,-0.0011530756427069,0.0011531078514309,-0.0011530976928626,0.0011530858916293,0.62694795728293,128566,2924,0.0048477227346469,0.0068892403231174,0.0048477227345712,25.966048544615,-3.2271611643079e-05,-3.2271611643079e-05,-3.2271611643079e-05,2910522.0840433,0.01672395858261
15819200,0.97559981727675,0.016642070143997,0.005030427701111,0.0065812147418568,0.0050304277010289,-0.0011662518923955,0.0011662514527851,1.1009617052852e-08,-1.143078999176e-08,4.8295054643809e-09,-5.4186760465193e-09,-0.0012853811774694,0.0012853915899029,-0.0012853886951351,0.0012853841913153,-0.001285384479372,0.0012853882085406,-0.0012853920032684,0.0012853807235551,-0.0011533275533911,0.001153345734664,-0.0011533495718482,0.0011533236931225,-4.4806250918026e-09,5.7588434651675e-09,1.0495614682941e-08,-9.4353559721165e-09,-0.0016601232450093,0.0016601243593061,-0.0017781708418074,0.001778175107218,-0.0017781773285887,0.001778168459045,-0.0017781674664272,0.0017781785280268,-0.0017781739875157,0.0017781718492774,-0.0015204540096806,0.0015204780636941,-0.0015204733309939,0.0015204582063546,-0.0015204735399698,0.0015204581025844,-0.0015204635905144,0.0015204682835097,-9.8246524920937e-09,1.3109361820261e-08,-0.0011662500565839,0.0011662532885676,-7.8042265852349e-09,1.1438476918467e-08,-0.0012853918625454,0.001285380895914,-0.0012853854686226,0.0012853873416901,-0.0012853841812688,0.0012853885474612,-0.001285377828749,0.0012853949419849,-0.0011533205628658,0.0011533527007965,-0.0011533430051879,0.0011533303491515,0.66919698601845,128566,2924,0.0048485255829258,0.0068922643245326,0.0048485255828661,25.548819945724,-3.5609440434204e-05,-3.5609440434204e-05,-3.5609440434204e-05,2893274.9887556,0.016728667793711
16019200,0.97645839937875,0.016655716339049,0.0050345129666502,0.0065866904058302,0.0050345129665682,-0.0011664251197128,0.0011664246735602,1.1309100297514e-08,-1.1736684399277e-08,4.863350945978e-09,-5.4597332843665e-09,-0.0012857952333371,0.001285805878717,-0.001285802965011,0.0012857982652716,-0.0012857985755054,0.0012858024556442,-0.0012858062824546,0.0012857947892809,-0.0011535762727426,0.001153594967857,-0.0011535988383706,0.0011535723835548,-4.5193883129657e-09,5.8008251233626e-09,9.9642006530392e-09,-8.9011162248917e-09,-0.0016609078892293,0.0016609090064151,-0.0017789830271949,0.0017789869360593,-0.0017789891868326,0.0017789806261803,-0.0017789796419789,0.0017789903681913,-0.0017789858029401,0.0017789840591652,-0.0015211441178247,0.00152116710357,-0.0015211623489997,0.0015211483525313,-0.0015211630050555,0.0015211477969777,-0.0015211529247317,0.0015211581035109,-9.8876003297551e-09,1.31298731746e-08,-0.0011664233024235,0.0011664264908292,-7.5817855087747e-09,1.1167386808463e-08,-0.0012858059793172,0.0012857951234247,-0.0012857997692601,0.0012858013853055,-0.0012857982827837,0.0012858027900694,-0.0012857920819057,0.0012858090329134,-0.0011535695791619,0.0011536016390504,-0.0011535921512164,0.0011535791580363,0.66742791396389,128566,2924,0.0048492491201115,0.0068955047106846,0.0048492491200704,25.148971760571,-3.8808225915429e-05,-3.8808225915429e-05,-3.8808225915429e-05,2871520.6645447,0.016733436897786
16219200,0.97726799241935,0.016668525331251,0.005038345191428,0.0065918349484771,0.0050383451913457,-0.0011665269108485,0.0011665264630529,1.1459517999172e-08,-1.1888704219187e-08,4.8725960303944e-09,-5.4707813362678e-09,-0.0012861199973,0.0012861307433407,-0.0012861278238806,0.0012861230337474,-0.0012861233402559,0.0012861273192168,-0.0012861311540441,0.0012861195453929,-0.0011537452708178,0.0011537642698587,-0.0011537681496261,0.0011537413741284,-4.5292989147331e-09,5.811328175678e-09,9.7660012718354e-09,-8.7024315668657e-09,-0.0016616022887602,0.0016616034064514,-0.0017797004946531,0.0017797042619813,-0.0017797065209199,0.0017796980893081,-0.0017796970968845,0.001779707706874,-0.0017797031362037,0.0017797015232296,-0.0015217505760303,0.0015217731993071,-0.0015217684408077,0.0015217548211056,-0.0015217692204289,0.0015217541403127,-0.0015217591360829,0.0015217644491917,-1.0100820210898e-08,1.3303052703818e-08,-0.0011665251131287,0.0011665282607452,-7.3747496460488e-09,1.0915200516937e-08,-0.0012861308036587,0.0012861199270883,-0.0012861247406462,0.0012861260419307,-0.0012861229729825,0.0012861277277607,-0.0012861169308363,0.0012861338120058,-0.0011537386447928,0.0011537708744461,-0.0011537615789905,0.0011537480313506,0.6642560384832,128566,2924,0.0048496759964549,0.0068983720383978,0.0048496759963985,24.74980289682,-4.2001576825443e-05,-4.2001576825443e-05,-4.2001576825443e-05,2853479.9835443,0.016737223230845
16419200,0.97803472861325,0.01667944647076,0.0050415803932081,0.0065962856844258,0.0050415803931259,-0.0011666314664223,0.0011666310205161,1.1588096539293e-08,-1.2015411092064e-08,4.8638961104964e-09,-5.4600263898829e-09,-0.0012864415004449,0.0012864523139505,-0.0012864493987135,0.0012864445318979,-0.0012864448232625,0.0012864489100514,-0.0012864527360317,0.0012864410361433,-0.0011538832488697,0.0011539025479202,-0.0011539064174047,0.001153879358456,-4.5179229924362e-09,5.7987750720491e-09,9.7646775735088e-09,-8.7021577907e-09,-0.0016622815905453,0.0016622827070567,-0.0017804133380822,0.0017804170970453,-0.0017804193491506,0.0017804109388825,-0.001780409934089,0.0017804205473886,-0.0017804159861642,0.0017804143513954,-0.0015223248138233,0.0015223474684567,-0.0015223427209079,0.0015223290518269,-0.0015223434421605,0.0015223284266505,-0.0015223334249599,0.0015223386720873,-1.0325894436296e-08,1.351152387738e-08,-0.0011666296780578,0.0011666328088521,-7.291528755684e-09,1.0813613628746e-08,-0.0012864523970442,0.0012864414070944,-0.0012864463808417,0.0012864474749833,-0.0012864444088376,0.0012864493653151,-0.0012864384409458,0.0012864553751343,-0.0011538766193665,0.0011539091539249,-0.0011538999363403,0.0011538859281591,0.59981696838023,128566,2924,0.004850113787483,0.0069011771722196,0.0048501137874243,24.412259387102,-4.4701924903187e-05,-4.4701924903187e-05,-4.4701924903187e-05,2840985.9947369,0.016740969037006
16619200,0.97876492236933,0.016691689025568,0.005045260949945,0.0066011671257604,0.005045260949863,-0.0011669187361404,0.0011669182942519,1.1776296866247e-08,-1.2199650112932e-08,4.8436523541737e-09,-5.4353742217544e-09,-0.0012868091983706,0.0012868201234795,-0.0012868172196213,0.0012868122194463,-0.0012868125052162,0.0012868167360381,-0.0012868205435723,0.0012868087371451,-0.0011542030919057,0.0011542227780047,-0.0011542266293658,0.0011541992210287,-4.4982689053256e-09,5.7769272645434e-09,9.827052720285e-09,-8.7665297430045e-09,-0.0016629892351568,0.0016629903497964,-0.0017811983676721,0.0017812021788986,-0.0017812044187326,0.0017811959804218,-0.0017811949760081,0.001781205616653,-0.001781201070491,0.001781199377684,-0.0015229591922617,0.0015229819599708,-0.0015229772275575,0.0015229634138289,-0.0015229778756408,0.0015229628622021,-0.0015229679036729,0.0015229730614877,-1.0475553367326e-08,1.3678391468643e-08,-0.0011669169410536,0.0011669200893113,-7.3837278408299e-09,1.0924638481153e-08,-0.001286820229492,0.0012868090826165,-0.0012868141449218,0.0012868152190723,-0.0012868121341607,0.0012868171480556,-0.0012868061006773,0.0012868232236048,-0.0011541964606999,0.0011542293864728,-0.0011542200839696,0.0011542058542595,0.70235631006376,128566,2924,0.0048513067826887,0.0069041029891398,0.0048513067826323,24.158309574148,-4.6733523406816e-05,-4.6733523406816e-05,-4.6733523406816e-05,2838671.0331557,0.016746370263878
16819200,0.97946071395995,0.016703410602066,0.0050487840449872,0.0066058425121737,0.0050487840449053,-0.0011672076373056,0.0011672072001494,1.1973779604752e-08,-1.2392468768733e-08,4.8197485790867e-09,-5.4062619595846e-09,-0.0012873327600815,0.001287343809387,-0.001287340918936,0.0012873357687081,-0.0012873360573349,0.0012873404319061,-0.0012873442175793,0.00128733231164,-0.0011545893410434,0.0011546094075464,-0.0011546132377124,0.0011545854933089,-4.4737879750836e-09,5.7497636240799e-09,9.9622186546467e-09,-8.9040885223841e-09,-0.0016638657486261,0.0016638668608552,-0.00178205254932,0.0017820564738315,-0.0017820586979615,0.0017820501757067,-0.0017820491823342,0.0017820598865877,-0.0017820553587216,0.0017820535633267,-0.0015237754473964,0.0015237984377703,-0.0015237937214421,0.001523779646018,-0.0015237942743336,0.0015237791938849,-0.0015237843267739,0.0015237893659196,-1.0608639918781e-08,1.3843945909867e-08,-0.0011672058281313,0.0011672090092963,-7.5455723049456e-09,1.1122455522885e-08,-0.0012873439431105,0.0012873326171327,-0.0012873377474879,0.0012873388646516,-0.0012873357553028,0.0012873407751394,-0.0012873295952443,0.0012873469772175,-0.0011545826667649,0.0011546160601092,-0.0011546066063137,0.0011545922114966,0.70571570839707,128566,2924,0.004852510018359,0.0069077231719861,0.0048525100183027,23.906464378784,-4.8748284969725e-05,-4.8748284969725e-05,-4.8748284969725e-05,2820071.6859973,0.016752500761816
17019200,0.98012402040798,0.016714371657971,0.0050520719790405,0.0066102276999712,0.0050520719789588,-0.0011674314820555,0.0011674310491054,1.2141693904512e-08,-1.2556269783888e-08,4.7975953949138e-09,-5.3795516783301e-09,-0.0012877864175038,0.0012877975668446,-0.0012877946888727,0.0012877894145715,-0.001287789700312,0.0012877942043735,-0.0012877979697715,0.0012877859749405,-0.001154903927177,0.0011549243341235,-0.0011549281442307,0.0011549000998738,-4.4499604168227e-09,5.7233097835206e-09,1.0142559486064e-08,-9.0867699911201e-09,-0.0016646778132108,0.001664678923076,-0.0017828392326318,0.0017828432928691,-0.0017828455011344,0.0017828368717296,-0.0017828358833735,0.0017828466874333,-0.001782842176979,0.001782840243853,-0.0015245279277515,0.0015245512509103,-0.0015245465498396,0.0015245321034954,-0.0015245469582738,0.0015245317996377,-0.0015245370550275,0.0015245419263208,-1.0772565137307e-08,1.403723114387e-08,-0.0011674296600596,0.0011674328710763,-7.6957150041892e-09,1.1305388345862e-08,-0.0012877977504523,0.0012877862251647,-0.0012877914454181,0.0012877925820964,-0.0012877894450959,0.0012877945008099,-0.0012877831727305,0.0012878008151304,-0.0011548971761568,0.0011549310637249,-0.0011549214699155,0.0011549068606374,0.69245975073206,128566,2924,0.0048534433330665,0.0069110766473539,0.0048534433330152,23.654701397351,-5.0762388821188e-05,-5.0762388821188e-05,-5.0762388821188e-05,2804237.9271194,0.016757811233284
17219200,0.98074142024118,0.016724307926237,0.0050550448086134,0.0066142183090921,0.0050550448085318,-0.001166827112732,0.001166826686932,1.2322533850119e-08,-1.2730051210306e-08,4.7609444972501e-09,-5.3349133284128e-09,-0.0012873661947151,0.0012873774428933,-0.0012873745857333,0.0012873691725519,-0.001287369451733,0.0012873741071474,-0.0012873778387748,0.0012873657601619,-0.0011543579615763,0.001154378747711,-0.0011543825239292,0.0011543541681291,-4.4083926287489e-09,5.6774405559705e-09,1.0483426194232e-08,-9.4314806920918e-09,-0.001664565464018,0.0016645665699921,-0.001782716561005,0.0017827208730613,-0.0017827230534147,0.0017827142221394,-0.0017827132408766,0.0017827242377259,-0.0017827197570825,0.0017827175655449,-0.0015243592796088,0.0015243832408875,-0.0015243785661339,0.001524363415992,-0.0015243786995232,0.0015243633938613,-0.0015243688793809,0.0015243734351946,-1.0913168122328e-08,1.4230743708123e-08,-0.0011668252674139,0.0011668285322206,-7.9744310797809e-09,1.1643254146144e-08,-0.0012873777090901,0.0012873659206085,-0.0012873711997822,0.0012873724818134,-0.0012873692930939,0.0012873743070515,-0.0012873628151033,0.0012873808268808,-0.0011543511069039,0.0011543855809455,-0.0011543757297281,0.0011543610488031,0.67475986302089,128566,2924,0.0048509411327051,0.006910606444993,0.0048509411326443,22.995426946406,-5.6036584428754e-05,-5.6036584428754e-05,-5.6036584428754e-05,2790089.7241027,0.016752247318721
17419200,0.98130489429252,0.016733000915174,0.0050576358955113,0.0066177291242326,0.0050576358954298,-0.0011655076197874,0.0011655072006687,1.2493111566705e-08,-1.2894054938729e-08,4.7263661909392e-09,-5.2929664600961e-09,-0.001286176241441,0.0012861875824186,-0.0012861847450132,0.0012861792014634,-0.0012861794736374,0.0012861842724734,-0.0012861879725486,0.0012861758140834,-0.0011530622377752,0.0011530833833917,-0.0011530871284324,0.0011530584768694,-4.3742462430152e-09,5.6395553385732e-09,1.0820379898998e-08,-9.7717866429198e-09,-0.0016636227532974,0.0016636238559279,-0.0017817802805077,0.0017817848365876,-0.0017817869934762,0.0017817779593371,-0.0017817769838227,0.001781788177138,-0.0017817837206744,0.0017817812785638,-0.001523363242783,0.0015233878414796,-0.0015233831875529,0.0015233673453745,-0.001523383056393,0.0015233675938339,-0.0015233733064737,0.0015233775633473,-1.1060389921741e-08,1.4437602281823e-08,-0.0011655057475154,0.0011655090729123,-8.2887393169388e-09,1.202426489956e-08,-0.0012861879475773,0.0012861758693611,-0.0012861812074846,0.0012861826614331,-0.0012861794136914,0.0012861843738617,-0.0012861727049252,0.0012861911244605,-0.0011530552448996,0.0011530903556068,-0.0011530802142677,0.0011530654766751,0.64747797181122,128566,2924,0.0048454722049349,0.0069067019878784,0.0048454722048765,21.992752923852,-6.4057976609184e-05,-6.4057976609184e-05,-6.4057976609184e-05,2777661.9214126,0.016737158260417
17619200,0.98181955401516,0.016740644686204,0.0050599071624176,0.0066208303614501,0.0050599071623362,-0.0011641055926849,0.0011641051760753,1.2705909705474e-08,-1.3104398792862e-08,4.7135954886397e-09,-5.2773466350946e-09,-0.0012848473401643,0.0012848588208728,-0.0012848559911744,0.0012848502939636,-0.0012848505693115,0.0012848555145793,-0.0012848592032769,0.0012848469219242,-0.0011516565023214,0.0011516780566243,-0.0011516817908586,0.0011516527542732,-4.3626825298081e-09,5.6263023997943e-09,1.1002435515853e-08,-9.955393330038e-09,-0.0016625014491107,0.001662502550215,-0.0017806879610256,0.0017806926511334,-0.001780694799713,0.0017806856453804,-0.001780684678551,0.0017806959773843,-0.0017806915288259,0.0017806889621454,-0.0015221885730314,0.0015222135019755,-0.0015222088540306,0.0015221926611766,-0.0015222086079229,0.0015221930286067,-0.0015221988632116,0.0015222029906282,-1.1171806010032e-08,1.4591693110849e-08,-0.0011641037000393,0.0011641070686908,-8.5119814708678e-09,1.2295184061891e-08,-0.0012848592187899,0.0012848469361036,-0.0012848523210658,0.0012848538859832,-0.0012848506020607,0.001284855523492,-0.0012848437236197,0.0012848624439247,-0.0011516494725652,0.0011516850668447,-0.0011516747192555,0.0011516599103873,0.62390232749089,128566,2924,0.0048396596655067,0.0069020602117687,0.0048396596654449,20.981390739957,-7.2148874080347e-05,-7.2148874080347e-05,-7.2148874080347e-05,2770037.8155382,0.016720620300643
17819200,0.98229082898231,0.016747408148373,0.0050619114341609,0.0066235852801322,0.0050619114340796,-0.0011626927854234,0.0011626923671736,1.2947306176463e-08,-1.3347381891636e-08,4.723013904636e-09,-5.2886840325096e-09,-0.0012834645284846,0.001283476191667,-0.0012834733568844,0.0012834674880152,-0.0012834677809496,0.0012834728617889,-0.0012834765594275,0.0012834641256993,-0.0011502179727347,0.0011502399441367,-0.0011502436882309,0.0011502142177548,-4.3749053922904e-09,5.6391085308699e-09,1.1007616672455e-08,-9.960109108386e-09,-0.0016612875743838,0.0016612886759885,-0.0017795231884488,0.0017795278912077,-0.0017795300478549,0.0017795208653878,-0.0017795199147609,0.0017795312096224,-0.0017795267518913,0.0017795242067832,-0.0015209208622353,0.0015209457587772,-0.0015209410988012,0.0015209249560793,-0.0015209409195938,0.0015209252620744,-0.0015209310970937,0.0015209352969371,-1.1268269933682e-08,1.4699505792036e-08,-0.0011626908861581,0.0011626942664201,-8.5768856191494e-09,1.237303191131e-08,-0.0012834765427343,0.0012834641715809,-0.0012834696145031,0.0012834711519517,-0.0012834678734924,0.0012834728114212,-0.001283460931472,0.001283479795459,-0.0011502109986338,0.0011502469000562,-0.0011502364941775,0.001150221494869,0.60341627554047,128566,2924,0.004833801306993,0.0068970367581246,0.0048338013069549,19.991659455353,-8.0066724357177e-05,-8.0066724357177e-05,-8.0066724357177e-05,2766415.9702635,0.016703600849673
18019200,0.98272334990492,0.016753608065831,0.0050637499026981,0.0066261082605157,0.0050637499026168,-0.0011612819915485,0.0011612815692857,1.3199034445381e-08,-1.3603051783118e-08,4.7440874480228e-09,-5.3141908650581e-09,-0.001282046061656,0.0012820579421213,-0.0012820550955459,0.0012820490324844,-0.0012820493669137,0.0012820545585089,-0.0012820582758332,0.0012820456926296,-0.001148767742551,0.0011487900800879,-0.0011487938441962,0.0011487639689001,-4.3991094029921e-09,5.6651941167379e-09,1.0902422899817e-08,-9.8533044924878e-09,-0.0016600011427907,0.001660002245969,-0.001778301278197,0.0017783059338638,-0.0017783081071393,0.0017782989413481,-0.0017782980265706,0.001778309231553,-0.001778304756181,0.0017783023370786,-0.0015195838330184,0.0015196084232654,-0.0015196037422087,0.0015195879431137,-0.0015196037844964,0.0015195880339113,-0.0015195937928687,0.0015195982311141,-1.1365003190241e-08,1.4784040160264e-08,-0.0011612800964766,0.0011612834643358,-8.5169629408637e-09,1.2299602974986e-08,-0.0012820581802679,0.0012820458174206,-0.0012820513340653,0.0012820527155402,-0.0012820494871463,0.0012820544810312,-0.0012820425514821,0.0012820614584028,-0.0011487608356863,0.0011487969691995,-0.0011487866202088,0.0011487712752857,0.60265702558768,128566,2924,0.0048279504174607,0.0068917142112861,0.0048279504174165,19.02024352262,-8.7838051819038e-05,-8.7838051819038e-05,-8.7838051819038e-05,2765553.8004882,0.016686292227244
18219200,0.98312072263796,0.01675940917437,0.0050654744229434,0.0066284603285646,0.0050654744228619,-0.0011598554191401,0.0011598549918423,1.3153485213971e-08,-1.3562473780089e-08,4.7701138625256e-09,-5.3457744658478e-09,-0.0012806058466759,0.00128061763467,-0.0012806147735107,0.0012806088311185,-0.0012806090879665,0.001280614315315,-0.0012806180557777,0.0012806053891039,-0.0011473039086876,0.001147326384699,-0.0011473301709988,0.0011473001092748,-4.4214999572114e-09,5.6896203740031e-09,1.0832821986548e-08,-9.7819367329004e-09,-0.0016586617638663,0.0016586628688559,-0.0017770219926598,0.0017770265026752,-0.0017770286894505,0.0017770196415759,-0.0017770186416441,0.0017770298986539,-0.001777025407126,0.0017770229706723,-0.0015182012619627,0.0015182259877746,-0.0015182212960972,0.0015182053960852,-0.0015182211529148,0.0015182056604634,-0.0015182113766648,0.0015182156541969,-1.1771143012681e-08,1.5152696068239e-08,-0.0011598535404523,0.0011598568705065,-8.3287208596478e-09,1.2070116368879e-08,-0.0012806180370505,0.0012806054377192,-0.0012806112445254,0.001280612282257,-0.0012806090077477,0.0012806144373946,-0.0012806022920388,0.001280621195081,-0.0011472969012508,0.0011473333726783,-0.0011473231976111,0.0011473071670652,0.61338750384404,128566,2924,0.0048220340228495,0.0068861727182313,0.0048220340228013,18.049289797699,-9.5605681618409e-05,-9.5605681618409e-05,-9.5605681618409e-05,2763746.7272491,0.01666862799081
18419200,0.98349539558543,0.016764915751935,0.0050671135617011,0.0066306886286145,0.0050671135616196,-0.0011591565725489,0.0011591561371696,1.3283766803745e-08,-1.3700414827205e-08,4.8145391224766e-09,-5.3988148223837e-09,-0.0012799204385908,0.0012799323146183,-0.0012799294283061,0.0012799234452423,-0.0012799236850363,0.0012799289878145,-0.0012799327667585,0.0012799199440176,-0.0011465872029324,0.0011466099763611,-0.0011466137991103,0.0011465833578731,-4.46685879353e-09,5.7425679313739e-09,1.0522047768663e-08,-9.4644429837635e-09,-0.0016580907696123,0.0016580918795149,-0.0017764954945577,0.0017764997384032,-0.0017765019587701,0.0017764931114971,-0.0017764920846365,0.0017765031929578,-0.0017764986708528,0.0017764964484853,-0.0015175886042018,0.0015176128337687,-0.0015176081025145,0.0015175927863527,-0.001517608142275,0.0015175928588411,-0.0015175983598405,0.0015176028785823,-1.201790835005e-08,1.5326917030507e-08,-0.0011591547259505,0.0011591579834233,-7.9884255362598e-09,1.1648936693134e-08,-0.0012799326637246,0.0012799200812242,-0.0012799260971973,0.0012799266973197,-0.0012799234688058,0.0012799292465933,-0.0012799170305304,0.0012799357242221,-0.0011465803355431,0.001146616821623,-0.0011466069670494,0.0011465902801768,0.61738402277048,128566,2924,0.0048191360383494,0.0068838098842734,0.0048191360376266,17.476241105991,-0.00010019007115207,-0.00010019007115207,-0.00010019007115207,2762303.2842217,0.016660333367762
18619200,0.98385625612259,0.01677016981777,0.0050686768400133,0.0066328161378216,0.0050686768399347,-0.0011590557982535,0.0011590553552433,1.3539107970655e-08,-1.3963519887296e-08,4.8511395943591e-09,-5.4439754861682e-09,-0.0012798537046396,0.0012798658248924,-0.0012798629179027,0.001279856731068,-0.0012798570316466,0.0012798624174388,-0.0012798662321037,0.0012798532575631,-0.0011464778416173,0.0011465009301446,-0.0011465047897824,0.0011464739657149,-4.5078238273705e-09,5.7846383502691e-09,1.0085799629392e-08,-9.0272473163205e-09,-0.0016581519254251,0.0016581530378632,-0.0017765969101189,0.0017766008984722,-0.0017766031452862,0.0017765945120076,-0.0017765935272474,0.0017766043280849,-0.001776599776279,0.0017765979291238,-0.0015176042020581,0.0015176274365754,-0.0015176226913068,0.0015176084200924,-0.0015176232325818,0.0015176079846196,-0.001517613196197,0.0015176182454461,-1.2131713679699e-08,1.5383659315446e-08,-0.0011590539773573,0.0011590571760813,-7.6781513396294e-09,1.1274923049656e-08,-0.0012798659693015,0.0012798535517426,-0.0012798596848746,0.0012798598874956,-0.0012798567687228,0.0012798627222839,-0.0012798505060634,0.0012798690265067,-0.0011464711128268,0.0011465076379596,-0.0011464980712727,0.0011464807706821,0.61178639254583,128566,2924,0.0048187185381155,0.0068840622849541,0.0048187185379943,17.230992548212,-0.0001021520596143,-0.0001021520596143,-0.0001021520596143,2762592.4029586,0.016659741553147
18819200,0.98420409948381,0.016775554655635,0.0050702883584126,0.0066349779388886,0.0050702883583342,-0.0011589757116119,0.0011589752665726,1.3700017938599e-08,-1.4126453904544e-08,4.8620641406493e-09,-5.4572121425621e-09,-0.0012797976822447,0.0012798099031891,-0.001279806989657,0.0012798007144409,-0.0012798010040063,0.0012798065010674,-0.0012798103254037,0.0012797972197175,-0.0011463921505964,0.0011464155853401,-0.0011464194542646,0.0011463882642754,-4.5193207560884e-09,5.7970428039687e-09,9.8434750510646e-09,-8.7841332694054e-09,-0.0016582141169317,0.0016582152303254,-0.001776701862257,0.0017767056706154,-0.0017767079260562,0.0017766994598516,-0.0017766984583917,0.0017767091215024,-0.0017767045627689,0.0017767028719107,-0.0015176273972265,0.0015176502036945,-0.0015176454554158,0.0015176316283595,-0.0015176461285047,0.0015176310569504,-0.0015176361078656,0.001517641301211,-1.2336365481911e-08,1.5544233413044e-08,-0.0011589739120964,0.0011589770660383,-7.4542159391728e-09,1.1001794938056e-08,-0.0012798100038744,0.0012797975726006,-0.0012798038712658,0.0012798037568129,-0.0012798006682428,0.0012798068783234,-0.0012797945840941,0.0012798130043637,-0.0011463855399882,0.0011464221746194,-0.0011464128169934,0.0011463949885585,0.6492293606163,128566,2924,0.0048183866567771,0.0068843192462769,0.0048183866566732,16.994014465538,-0.00010404788427569,-0.00010404788427569,-0.00010404788427569,2763284.32295,0.016659328205226
19019200,0.98453949846841,0.016781059520264,0.0050719439052744,0.0066371717097926,0.0050719439051965,-0.0011589109061594,0.0011589104614305,1.3877571666013e-08,-1.4303699824758e-08,4.86038740047e-09,-5.4553096632698e-09,-0.0012798118345154,0.0012798241780822,-0.0012798212649494,0.0012798148653958,-0.0012798151601592,0.0012798207715551,-0.0012798245944943,0.0012798113775429,-0.0011463535151211,0.0011463772825895,-0.0011463811503044,0.0011463496305909,-4.5177346899534e-09,5.795296548845e-09,9.6900225964024e-09,-8.6308094042854e-09,-0.0016583508010177,0.0016583519142823,-0.0017768417188556,0.0017768454322647,-0.0017768476882018,0.0017768393189377,-0.0017768383214718,0.0017768488765582,-0.0017768443203317,0.0017768427351694,-0.001517735860633,0.0015177583482284,-0.0015177536037755,0.0015177400932906,-0.0015177543896029,0.0015177394066542,-0.0015177443561744,0.0015177496642638,-1.2516003729446e-08,1.5698852997897e-08,-0.0011589091195236,0.001158912248024,-7.3200817335866e-09,1.0839563688072e-08,-0.0012798242336559,0.0012798117696325,-0.0012798182046572,0.0012798178502534,-0.0012798147916884,0.00127982118148,-0.0012798088004652,0.0012798272146156,-0.0011463469606646,0.001146383815637,-0.0011463745812348,0.0011463562862273,0.68719100182046,128566,2924,0.004818119541431,0.006884882789287,0.0048181195413434,16.75735848443,-0.00010594113212456,-0.00010594113212456,-0.00010594113212456,2757118.4550743,0.016659358934507
19219200,0.98487337989016,0.016786700629765,0.0050736440618901,0.006639412506063,0.0050736440618123,-0.0011597806703856,0.001159780223658,1.4031336952538e-08,-1.4459436507732e-08,4.8721179105411e-09,-5.4691403667513e-09,-0.0012808287422719,0.0012808411947793,-0.0012808382746506,0.0012808317790069,-0.0012808320757176,0.0012808377805179,-0.0012808416132775,0.0012808282819777,-0.0011472907774005,0.0011473148392428,-0.0011473187153547,0.0011472868803211,-4.5207937801473e-09,5.7984654486255e-09,9.6120151452412e-09,-8.5527118017606e-09,-0.0016595502055794,0.0016595513189543,-0.0017780060013997,0.0017780096601566,-0.0017780119184856,0.0017780035999831,-0.001778002601106,0.0017780131071991,-0.0017780085493355,0.001778007017626,-0.0015189097194798,0.0015189320576135,-0.0015189273125297,0.0015189139557142,-0.00151892815155,0.0015189132153769,-0.0015189181133665,0.0015189234773997,-1.2724127068875e-08,1.5870739767775e-08,-0.0011597789010599,0.0011597819929418,-7.1246807822456e-09,1.0603859394516e-08,-0.0012808412057868,0.0012808287214013,-0.0012808353188122,0.0012808346600346,-0.0012808316364722,0.0012808382605341,-0.0012808257886164,0.0012808441502976,-0.0011472842734924,0.001147321319505,-0.0011473122645451,0.001147293420019,0.70677987041671,128566,2924,0.0048217295332215,0.0068898416478921,0.0048217295331344,17.022144372571,-0.00010382284501944,-0.00010382284501944,-0.00010382284501944,2749372.6130406,0.016671742522028
19419200,0.98521089491722,0.016792286303554,0.0050753238490674,0.0066416386054972,0.0050753238489896,-0.0011611030661879,0.0011611026193555,1.4191304880226e-08,-1.4619485065109e-08,4.8738889554571e-09,-5.4710459152439e-09,-0.0012823364345798,0.0012823489934552,-0.0012823460722133,0.0012823394724325,-0.001282339768408,0.0012823455797727,-0.0012823494131752,0.0012823359726479,-0.0011486951679619,0.0011487195458602,-0.0011487234214446,0.0011486912674539,-4.5181831502532e-09,5.7957055684085e-09,9.5981952556058e-09,-8.5390344419475e-09,-0.001661282507609,0.0016612836207539,-0.0017796910356491,0.0017796946856296,-0.0017796969423635,0.001779688635535,-0.0017796876357049,0.0017796981322043,-0.0017796935763589,0.0017796920501424,-0.0015206124934614,0.0015206348055436,-0.0015206300624595,0.0015206167271849,-0.0015206309032931,0.0015206159849306,-0.0015206208749441,0.0015206262381652,-1.2915420155923e-08,1.6049056585508e-08,-0.0011611013033418,0.0011611043821238,-7.0442254520419e-09,1.0508798661776e-08,-0.0012823489904799,0.0012823364277033,-0.0012823431611526,0.0012823423088289,-0.0012823392964648,0.001282346091479,-0.0012823335090206,0.0012823519211899,-0.0011486886781643,0.0011487260104295,-0.0011487170266981,0.0011486977532542,0.692647571695,128566,2924,0.0048272171991421,0.0068970043766237,0.0048272171989798,17.538388356329,-9.9692893149367e-05,-9.9692893149367e-05,-9.9692893149367e-05,2742963.7971156,0.016690185562894
19619200,0.98555192169678,0.016797794180566,0.0050769759756289,0.0066438422293851,0.0050769759755516,-0.0011624164983312,0.0011624160570332,1.4455619280717e-08,-1.4878286918503e-08,4.8477201551386e-09,-5.4389229436375e-09,-0.0012838128872933,0.001283825622137,-0.0012838227154127,0.0012838159123005,-0.0012838162165906,0.0012838222109215,-0.00128382602264,0.0012838124482584,-0.0011500758977085,0.0011501007671783,-0.001150104624362,0.0011500720293311,-4.5199005960217e-09,5.7974081355727e-09,9.3960764533729e-09,-8.3368709630206e-09,-0.0016629944948589,0.0016629956081482,-0.001781375762048,0.0017813792935339,-0.0017813815539692,0.0017813733642293,-0.001781372376992,0.0017813827257595,-0.0017813781709531,0.0017813767952046,-0.0015222886833736,0.0015223105543324,-0.0015223058143172,0.0015222929241104,-0.0015223068315287,0.0015222920006679,-0.0015222967522684,0.0015223023023431,-1.2967737017843e-08,1.6163235332027e-08,-0.0011624147073219,0.0011624178480525,-7.3302458600207e-09,1.0862131058682e-08,-0.0012838256268216,0.0012838128736296,-0.0012838196019514,0.0012838189503167,-0.0012838158927158,0.0012838225776314,-0.0012838098783055,0.0012838286339947,-0.0011500694150434,0.0011501072306945,-0.0011500979728868,0.0011500787644805,0.6763895298831,128566,2924,0.0048326670657036,0.006904083606442,0.0048326670657259,18.06104495544,-9.5511640356483e-05,-9.5511640356483e-05,-9.5511640356483e-05,2740852.0347034,0.016708466902514
19819200,0.9858961891748,0.016803197666228,0.0050785920173584,0.0066460136315892,0.0050785920172804,-0.0011637138343368,0.001163713394176,1.4544654405556e-08,-1.4966269856344e-08,4.8415872377928e-09,-5.4315702933147e-09,-0.0012852468543725,0.0012852596307037,-0.0012852567267417,0.001285249875232,-0.0012852501650689,0.0012852562392183,-0.0012852600433201,0.0012852464007165,-0.0011514244975032,0.001151449587722,-0.0011514534366355,0.0011514206312904,-4.4899644220807e-09,5.7643639991661e-09,9.7377189420764e-09,-8.6813282138528e-09,-0.001664667641114,0.0016646687515621,-0.0017830420462628,0.0017830458089181,-0.0017830480475878,0.0017830396626173,-0.0017830386669124,0.0017830492344607,-0.0017830447000536,0.0017830430580665,-0.0015239179727454,0.0015239405378483,-0.0015239358143702,0.0015239221814866,-0.0015239365288624,0.0015239215693972,-0.0015239265542832,0.001523931765777,-1.3234105575295e-08,1.6409484529682e-08,-0.001163712053819,0.00116371517466,-7.2389523272695e-09,1.0749398790659e-08,-0.0012852596838954,0.0012852467915419,-0.00128525370989,0.0012852528172652,-0.0012852497648173,0.0012852566804805,-0.001285243830403,0.0012852626568465,-0.0011514179380654,0.0011514561254662,-0.0011514469553229,0.0011514271994147,0.65786894008054,128566,2924,0.0048380494632536,0.0069110028848612,0.0048380494631836,18.583951751061,-9.1328385991509e-05,-9.1328385991509e-05,-9.1328385991509e-05,2742285.6750186,0.016726448380641
20019200,0.98623416924273,0.016808690388534,0.005080239110684,0.006648212167244,0.0050802391106061,-0.0011642022950206,0.0011642018646378,1.4744280655218e-08,-1.5156222166167e-08,4.7931563949891e-09,-5.3722419995769e-09,-0.0012858242759797,0.0012858371597257,-0.0012858342832774,0.0012858272720284,-0.0012858275552176,0.0012858338002297,-0.0012858375599806,0.0012858238365223,-0.001151942171354,0.0011519676777215,-0.0011519714815526,0.00115193835056,-4.445104279939e-09,5.7149777704697e-09,1.0047708988505e-08,-8.9953794812139e-09,-0.0016654424707934,0.0016654435771416,-0.0017838302674004,0.0017838342651869,-0.0017838364746986,0.0017838279081292,-0.00178382692275,0.001783837655196,-0.001783833153757,0.0017838312759697,-0.0015246538060481,0.0015246769361226,-0.0015246722416735,0.0015246579746525,-0.0015246727049301,0.0015246576188711,-0.0015246628116005,0.001524667732956,-1.3346057285618e-08,1.6597542906511e-08,-0.0011642004807938,0.0011642036788091,-7.6298856484661e-09,1.1224708187119e-08,-0.0012858373136158,0.0012858241137508,-0.0012858310566609,0.0012858304222423,-0.0012858272984125,0.0012858340991767,-0.0012858210730883,0.0012858403657681,-0.0011519354863372,0.0011519743412274,-0.0011519648079077,0.0011519451108489,0.68048383143966,128566,2924,0.0048400766123485,0.0069142065173575,0.004840076612233,18.671499416845,-9.0628004665241e-05,-9.0628004665241e-05,-9.0628004665241e-05,2743206.4613801,0.01673382876288
20219200,0.98656345427185,0.016814192054903,0.0050818923068875,0.0066504074412056,0.0050818923068096,-0.0011644700689957,0.0011644696452435,1.4917429770569e-08,-1.5322836307929e-08,4.7593595798024e-09,-5.331148756065e-09,-0.0012862007132987,0.0012862136921582,-0.0012862108351151,0.0012862036921391,-0.0012862039687129,0.0012862103580871,-0.0012862140865722,0.0012862002813773,-0.0011522526914239,0.0011522785609987,-0.0011522823344882,0.0011522489028098,-4.4082826911074e-09,5.6744778644199e-09,1.0422211974519e-08,-9.3731310375161e-09,-0.0016660079918919,0.0016660090950081,-0.0017843877541784,0.0017843920237759,-0.0017843942072631,0.001784385414231,-0.0017843844349013,0.0017843953877319,-0.001784390911454,0.0017843887563175,-0.0015251871954117,0.0015252110340935,-0.0015252063624678,0.0015251913275882,-0.0015252065343816,0.0015251912693997,-0.001525196715589,0.0015252013069795,-1.3491719433764e-08,1.6801714255495e-08,-0.0011644682282777,0.0011644714859226,-7.9430746415221e-09,1.1603815097317e-08,-0.0012862139433597,0.0012862004549373,-0.0012862074567751,0.0012862069933212,-0.0012862038117394,0.0012862105568056,-0.0012861973565213,0.0012862170537762,-0.0011522458729471,0.0011522853589673,-0.0011522755376637,0.001152255785247,0.69908659010684,128566,2924,0.0048411892247682,0.0069165434525537,0.0048411892246875,18.638411888691,-9.0892704890469e-05,-9.0892704890469e-05,-9.0892704890469e-05,2739493.4438992,0.01673846851103
20419200,0.98688421737364,0.016819558460331,0.0050835046177106,0.0066525492249877,0.0050835046176326,-0.001164722387995,0.0011647219668658,1.507658216104e-08,-1.5479414093391e-08,4.744500001245e-09,-5.3133750583333e-09,-0.0012865826908942,0.0012865957654126,-0.0012865929172476,0.0012865856620752,-0.0012865859346549,0.0012865924439021,-0.001286596158885,0.0012865822604865,-0.00115255761252,0.0011525838084,-0.0011525875680988,0.0011525538367666,-4.3883211580362e-09,5.6524258795047e-09,1.0722612365317e-08,-9.6753967788581e-09,-0.0016665831692733,0.0016665842705278,-0.0017849395685968,0.0017849440478624,-0.0017849462165773,0.0017849372380483,-0.0017849362616789,0.0017849473990221,-0.00178494293574,0.0017849405647313,-0.0015257335029882,0.0015257579209988,-0.0015257532594078,0.0015257376134896,-0.0015257532069717,0.00152573778505,-0.0015257434330035,0.0015257477770237,-1.366117939893e-08,1.7006100252064e-08,-0.0011647205307641,0.0011647238240598,-8.1389381702022e-09,1.1839211812913e-08,-0.0012865960864004,0.0012865823633906,-0.001286589455312,0.0012865890463354,-0.0012865858288494,0.0012865925911993,-0.0012865792317121,0.0012865992300983,-0.0011525506870175,0.0011525907128145,-0.0011525807139949,0.0011525607769469,0.69998400237448,128566,2924,0.004842238279318,0.0069189196599118,0.0048422382792416,18.602180247299,-9.1182558021605e-05,-9.1182558021605e-05,-9.1182558021605e-05,2733642.6222109,0.016743019269657
20619200,0.98719669003022,0.016824256389755,0.0050849023751759,0.006654451639481,0.005084902375098,-0.0011649352031001,0.0011649347834086,1.526306410267e-08,-1.5664480372166e-08,4.7364147748405e-09,-5.3036767983732e-09,-0.0012869264990549,0.0012869396946839,-0.0012869368517155,0.0012869294665092,-0.001286929738941,0.0012869363774351,-0.0012869400855574,0.0012869260723856,-0.001152808571839,0.001152835133779,-0.0011528388869209,0.0011528048041495,-4.3841549771337e-09,5.6476523088634e-09,1.0855366674941e-08,-9.8087037051289e-09,-0.0016671181994201,0.0016671193001265,-0.0017854573706795,0.0017854619417214,-0.0017854641070298,0.0017854550415355,-0.0017854540684955,0.0017854652881393,-0.0017854608273073,0.0017854583670374,-0.0015262311184543,0.0015262557885773,-0.0015262511282024,0.001526235223158,-0.0015262509893294,0.0015262354827677,-0.0015262412188437,0.0015262454710863,-1.3802324117041e-08,1.7182982268788e-08,-0.0011649333284626,0.0011649366580094,-8.33530191166e-09,1.2075538380548e-08,-0.0012869400615903,0.0012869261263449,-0.0012869332890074,0.0012869329507955,-0.0012869296998001,0.0012869364584821,-0.001286922957586,0.0012869432424329,-0.0011528015819182,0.0011528421034647,-0.0011528319252893,0.0011528118511,0.63099124157317,128566,2924,0.0048431233693073,0.0069211297830464,0.0048431233692314,18.565825437156,-9.147339650275e-05,-9.147339650275e-05,-9.147339650275e-05,2729274.6969181,0.016747068029393
20819200,0.98748654952114,0.016828938817891,0.0050863048597631,0.0066563290984427,0.0050863048596853,-0.0011636739461815,0.0011636735324528,1.5531513352156e-08,-1.5927658449894e-08,4.6970864959965e-09,-5.2584510015197e-09,-0.0012856573684322,0.0012856707352987,-0.0012856679160915,0.0012856603189058,-0.0012856605996552,0.0012856674320333,-0.0012856711116813,0.0012856569728298,-0.0011515250289152,0.0011515521044307,-0.0011515558341084,0.0011515213104176,-4.3521394334807e-09,5.6039898567801e-09,1.0967682195132e-08,-9.9314125559871e-09,-0.0016659452065817,0.0016659463016723,-0.001784329985157,0.001784334684202,-0.0017843368204931,0.0017843276934176,-0.0017843267257276,0.0017843379898599,-0.0017843335484413,0.0017843310071501,-0.0015250312430521,0.0015250560526495,-0.0015250514461088,0.00152503530607,-0.0015250512362559,0.0015250356363266,-0.0015250414686654,0.0015250455837491,-1.3826496347733e-08,1.731638200662e-08,-0.0011636720208815,0.0011636754584771,-8.825440655846e-09,1.2687311606233e-08,-0.0012856711673137,0.0012856569345337,-0.0012856640496121,0.0012856641112945,-0.0012856607676363,0.0012856673040498,-0.0012856536486156,0.0012856744727534,-0.0011515179681928,0.00115155915264,-0.0011515485122985,0.0011515287018855,0.67642717437417,128566,2924,0.0048378927853751,0.0069162765887202,0.0048378927868977,17.743286562345,-9.8053707501243e-05,-9.8053707501243e-05,-9.8053707501243e-05,2728516.8530106,0.016731496946788
21019200,0.98775417356096,0.016833127685381,0.0050875563639598,0.0066580149575441,0.0050875563638776,-0.001162239928118,0.0011622395170615,1.5659373121577e-08,-1.6052349930383e-08,4.6908341628612e-09,-5.2486345645816e-09,-0.0012842686366909,0.0012842820784206,-0.0012842792618248,0.0012842715810196,-0.001284271853479,0.0012842787853347,-0.0012842824532724,0.0012842682301782,-0.0011500915129881,0.0011501188559719,-0.0011501225716073,0.0011500877917268,-4.3389768875286e-09,5.5969883652003e-09,1.1242565936622e-08,-1.0200828416459e-08,-0.0016646353083931,0.0016646364045587,-0.0017830212380742,0.0017830261044992,-0.0017830282387585,0.0017830189343887,-0.0017830179770047,0.0017830294092019,-0.0017830249806281,0.0017830222371363,-0.0015237012166723,0.0015237265860471,-0.0015237219541094,0.0015237052747267,-0.0015237215328931,0.0015237058267994,-0.0015237118242362,0.0015237157458369,-1.4052253412789e-08,1.75276972822e-08,-0.0011622380098754,0.0011622414352802,-8.8372707031521e-09,1.2683593746647e-08,-0.0012842825555039,0.0012842681553889,-0.0012842754235648,0.0012842753400796,-0.0012842720051051,0.0012842786764337,-0.0012842648841666,0.0012842858396766,-0.0011500843789245,0.0011501259741848,-0.0011501153332305,0.0011500951105327,0.65601664848132,128566,2924,0.0048319470940158,0.0069108554137983,0.0048319470939674,16.832777922903,-0.00010533777661677,-0.00010533777661677,-0.00010533777661677,2719573.7710045,0.016713895348767
21219200,0.98800143619261,0.016837020712622,0.0050887207159812,0.0066595792807419,0.0050887207158992,-0.0011607809523053,0.0011607805388068,1.5811153316836e-08,-1.6206528744564e-08,4.7025627476107e-09,-5.2630194780735e-09,-0.0012828164734315,0.0012828300168935,-0.0012828271939562,0.0012828194239847,-0.0012828196919615,0.0012828267218697,-0.0012828304008928,0.0012828160577387,-0.0011486189203792,0.0011486465723469,-0.0011486502990268,0.001148615188019,-4.3521181177201e-09,5.6112065561973e-09,1.1197874286157e-08,-1.0155203679675e-08,-0.0016632409051275,0.0016632420021983,-0.0017816446294228,0.0017816494508627,-0.0017816515937213,0.0017816423180093,-0.0017816413526462,0.0017816527716466,-0.0017816483333924,0.0017816456230717,-0.0015222893679859,0.0015223146786316,-0.0015223100381327,0.0015222934375637,-0.001522309643114,0.0015222939614119,-0.0015222999282018,0.0015223038875147,-1.4247409882327e-08,1.7716045615761e-08,-0.001160779036289,0.0011607824548298,-8.8162551238695e-09,1.2655378283072e-08,-0.0012828305055121,0.0012828159805493,-0.0012828233831462,0.0012828231555993,-0.0012828198207062,0.001282826635915,-0.0012828127230305,0.0012828337760025,-0.0011486117748699,0.0011486537018934,-0.0011486430842531,0.0011486224833324,0.65967101855885,128566,2924,0.0048258970396214,0.0069050856162223,0.0048258970396368,15.919813627333,-0.00011264149098134,-0.00011264149098134,-0.00011264149098134,2713586.9168718,0.016695726796816
21419200,0.98823336152489,0.016840695748613,0.0050898210472013,0.0066610536542927,0.0050898210471194,-0.0011597289459638,0.0011597285240108,1.5967952872434e-08,-1.637165092759e-08,4.7450705743235e-09,-5.3148246575197e-09,-0.0012817793697677,0.0012817930440135,-0.0012817901971553,0.0012817823423305,-0.001281782619536,0.0012817897171696,-0.001281793435092,0.001281778945288,-0.0011475609200225,0.0011475888470462,-0.0011475926116086,0.001147557146559,-4.3961842463536e-09,5.659403780864e-09,1.0939948581845e-08,-9.8936351934126e-09,-0.0016622664829899,0.0016622675837294,-0.0017806825282259,0.0017806871507826,-0.0017806893227263,0.0017806801919645,-0.0017806792216555,0.0017806905021384,-0.0017806860318806,0.001780683528307,-0.0015212982885662,0.0015213231231495,-0.0015213184533629,0.0015213023975439,-0.001521318286099,0.0015213026886259,-0.0015213084808518,0.0015213127077253,-1.4464562850662e-08,1.7866538276225e-08,-0.0011597270594572,0.0011597304105235,-8.4878747643699e-09,1.2253233862158e-08,-0.0012817934398575,0.001281778968705,-0.001281786559652,0.0012817859015669,-0.001281782632901,0.0012817897459947,-0.0012817757768101,0.0012817966445804,-0.0011475538850121,0.0011475958643631,-0.0011475855551565,0.0011475642853358,0.66373453896767,128566,2924,0.0048215347699716,0.0069010533710935,0.0048215347699857,15.231101341701,-0.00011815118926639,-0.00011815118926639,-0.00011815118926639,2708567.0986421,0.016682757072364
21619200,0.98845137701397,0.016844179967799,0.0050908653758872,0.0066624492161068,0.0050908653758054,-0.001158715295033,0.001158714865501,1.6129688087755e-08,-1.6540869600147e-08,4.7836172746564e-09,-5.3617326523362e-09,-0.0012807860963929,0.0012807999019979,-0.0012807970329481,0.0012807890887128,-0.0012807893735321,0.0012807965457972,-0.0012808002996977,0.0012807856637934,-0.0011465431156823,0.0011465713312624,-0.0011465751309313,0.0011465393062396,-4.4369281266561e-09,5.7036592810653e-09,1.0614320423973e-08,-9.5649109698884e-09,-0.0016613266932252,0.0016613277972451,-0.0017797515895157,0.0017797559705568,-0.0017797581703858,0.0017797492315979,-0.0017797482552941,0.0017797593503776,-0.0017797548516201,0.0017797525962192,-0.0015203440132745,0.0015203682376914,-0.0015203635426805,0.0015203481612933,-0.0015203636412702,0.0015203481811644,-0.0015203537523077,0.001520358284856,-1.467700975707e-08,1.8012685770908e-08,-0.0011587134384013,0.001158716722183,-8.1534513563049e-09,1.184505789822e-08,-0.0012808002010856,0.0012807857908863,-0.0012807935669128,0.0012807924775372,-0.0012807892746128,0.0012807966875086,-0.0012807826643771,0.0012808033397741,-0.0011465362050214,0.001146578222939,-0.0011465682268573,0.0011465462930985,0.66920855293061,128566,2924,0.0048173316330835,0.0068971642839717,0.0048173316331908,14.566733077705,-0.00012346613537836,-0.00012346613537836,-0.00012346613537836,2703198.809093,0.01667025675195
21819200,0.98865644445126,0.01684741056482,0.0050918327684796,0.0066637450279427,0.0050918327683974,-0.0011576917472732,0.0011576913123348,1.6319259288588e-08,-1.6735748963608e-08,4.8118826005322e-09,-5.3959598949527e-09,-0.0012797883556431,0.001279802304469,-0.0012797994197972,0.0012797913630687,-0.0012797916532833,0.001279798927861,-0.001279802707394,0.0012797879174115,-0.0011455163840042,0.0011455449505499,-0.0011455487762721,0.0011455125483338,-4.4671534472933e-09,5.7370825026559e-09,1.0242520239802e-08,-9.1902860877744e-09,-0.0016603736994768,0.0016603748061844,-0.0017788026134182,0.0017788067299124,-0.0017788089514337,0.001778800240013,-0.001778799258201,0.0017788101313206,-0.0017788056121742,0.0017788036259961,-0.0015193782088343,0.0015194017237509,-0.0015193970120481,0.0015193823867681,-0.001519397390886,0.0015193821187076,-0.0015193874411883,0.001519392285526,-1.485140117683e-08,1.814340302096e-08,-0.0011576899101127,0.0011576931495005,-7.9287259794521e-09,1.1571322878664e-08,-0.0012798025211763,0.0012797881322082,-0.0012797960532508,0.001279794652637,-0.0012797914926118,0.0012797991308075,-0.0012797850492096,0.0012798056167249,-0.0011455096044555,0.0011455517117341,-0.0011455419238904,0.0011455194838055,0.65988854801614,128566,2924,0.0048130875576467,0.0068932203948505,0.0048130875576588,13.903046650129,-0.00012877562679897,-0.00012877562679897,-0.00012877562679897,2697155.5305167,0.016657617760353
22019200,0.98886117561335,0.016850585466512,0.0050927825859104,0.0066650202947732,0.0050927825858282,-0.0011583519320067,0.0011583514860113,1.647755905751e-08,-1.6904920498772e-08,4.8692306520371e-09,-5.465481722285e-09,-0.0012804878530655,0.0012805019440793,-0.001280499026696,0.0012804908902925,-0.0012804911938872,0.0012804985230046,-0.0012805023549961,0.0012804874048072,-0.0011461918578277,0.00114622068682,-0.0011462245641685,0.0011461879683223,-4.5290128975884e-09,5.8049402665889e-09,9.7319538416669e-09,-8.6743905337941e-09,-0.0016611892144853,0.001661190326595,-0.0017796270027132,0.0017796307444043,-0.0017796330078296,0.0017796245961754,-0.0017796236069006,0.0017796341873664,-0.0017796296245522,0.0017796280274723,-0.0015201692257373,0.0015201917765677,-0.0015201870261183,0.0015201734620416,-0.0015201878249868,0.0015201727655817,-0.0015201777430897,0.0015201830667221,-1.5082631181669e-08,1.8276609530805e-08,-0.0011583501390329,0.0011583532789842,-7.4228746418632e-09,1.0956118924881e-08,-0.0012805020113025,0.001280487777625,-0.0012804959171716,0.001280493924401,-0.0012804908629387,0.001280498895822,-0.0012804847897349,0.0012805050116075,-0.0011461852623912,0.0011462272626612,-0.001146217944369,0.0011461946725315,0.6498237871301,128566,2924,0.0048158259639499,0.0068965938579174,0.004815825963949,14.153203607033,-0.00012677437114373,-0.00012677437114373,-0.00012677437114373,2699556.5674839,0.016666615760958
22219200,0.98906676891468,0.016853749105189,0.0050937282770973,0.0066662925510761,0.0050937282770152,-0.0011591908356613,0.0011591903862395,1.6613573684548e-08,-1.7044357777878e-08,4.8890006265523e-09,-5.489111112894e-09,-0.0012813652265429,0.001281379425649,-0.0012813764959059,0.0012813682739826,-0.001281368586976,0.0012813759861114,-0.001281379834066,0.0012813647787084,-0.0011470386405355,0.0011470677072764,-0.0011470715991484,0.0011470347298826,-4.5561875622445e-09,5.8361602556632e-09,9.5008106114633e-09,-8.4395107269757e-09,-0.0016621858577886,0.0016621869734838,-0.0017806472371243,0.0017806508127597,-0.001780653093862,0.0017806448162556,-0.0017806438272156,0.0017806542710647,-0.0017806496872354,0.001780648271998,-0.0015211344338215,0.0015211565363274,-0.0015211517711606,0.0015211386996202,-0.0015211527714906,0.0015211377956359,-0.0015211426175703,0.001521148169301,-1.5328855162434e-08,1.844685543281e-08,-0.0011591890794388,0.0011591921425243,-7.029982113225e-09,1.0479040759705e-08,-0.0012813793985472,0.0012813652442365,-0.0012813735974754,0.0012813710984266,-0.0012813681166413,0.0012813764962051,-0.0012813623275835,0.001281382328942,-0.0011470321337632,0.0011470741917248,-0.0011470652373401,0.0011470411795713,0.64497435174834,128566,2924,0.0048193052438405,0.0069007169759607,0.0048193052439709,14.499477565975,-0.0001240041794722,-0.0001240041794722,-0.0001240041794722,2704748.9142965,0.01667788257524
22419200,0.9892731645007,0.01685705902911,0.0050947211538065,0.006667616721579,0.0050947211537248,-0.0011600416069128,0.001160041156432,1.6851486002038e-08,-1.7283240540821e-08,4.8947675802324e-09,-5.4960203530567e-09,-0.0012822488348451,0.0012822631820744,-0.0012822602496033,0.0012822518852167,-0.0012822521851041,0.0012822597503127,-0.0012822636053908,0.0012822483734723,-0.0011478972355029,0.0011479268037587,-0.0011479307042214,0.001147893323484,-4.5475786309474e-09,5.8260273495695e-09,9.1838439717531e-09,-8.1240096005538e-09,-0.0016631877509185,0.0016631888652711,-0.0017816774926437,0.0017816808527562,-0.0017816831323545,0.0017816750803744,-0.0017816740755635,0.0017816843177062,-0.0017816797443416,0.0017816785164333,-0.0015221048489384,0.0015221263606084,-0.0015221216063529,0.0015221091119501,-0.0015221227584057,0.001522108051429,-0.0015221126626187,0.0015221183669199,-1.5433048510361e-08,1.8557808836018e-08,-0.001160039846968,0.0011600429164025,-7.0490367934117e-09,1.0504062678925e-08,-0.001282263126854,0.0012822488809115,-0.0012822572997108,0.0012822547607227,-0.0012822517592093,0.0012822602181947,-0.0012822459699114,0.0012822660503187,-0.0011478908850979,0.0011479331345486,-0.0011479241602162,0.0011478999517972,0.67139353862718,128566,2924,0.0048228336394923,0.0069048619511274,0.0048228336395473,14.84845374483,-0.00012121237004136,-0.00012121237004136,-0.00012121237004136,2710190.5816563,0.016689271475194
22619200,0.9894801207429,0.016860415278321,0.0050957285943355,0.0066689580897318,0.0050957285942538,-0.0011608808310278,0.0011608803865448,1.6998963531347e-08,-1.7424818220869e-08,4.8658721920806e-09,-5.46054884004e-09,-0.0012831620784966,0.0012831765119594,-0.0012831735948234,0.0012831651134254,-0.0012831654128822,0.001283173096718,-0.0012831769239516,0.0012831616277063,-0.0011487620797296,0.0011487919419987,-0.0011487958145488,0.0011487581937692,-4.5229716402034e-09,5.7990305540678e-09,9.3492685225584e-09,-8.2915647056839e-09,-0.0016642262509713,0.0016642273631299,-0.0017827207570041,0.0017827242466631,-0.0017827265097168,0.0017827183576144,-0.0017827173617464,0.0017827276890296,-0.0017827231335704,0.0017827217816954,-0.0015231136194836,0.0015231354251041,-0.0015231306862344,0.0015231178594839,-0.0015231317129387,0.0015231169289223,-0.0015231216527165,0.00152312720804,-1.5632304606222e-08,1.8761456424297e-08,-0.0011608790717501,0.0011608821458253,-7.0631462912586e-09,1.0523149507872e-08,-0.0012831764819379,0.0012831620993096,-0.0012831706476068,0.0012831679861628,-0.0012831649853359,0.0012831735656864,-0.0012831591787061,0.0012831794149964,-0.001148755662595,0.0011487983389809,-0.0011487893478713,0.0011487647455486,0.67880267616988,128566,2924,0.0048263151381515,0.0069091571712782,0.0048263151381585,15.186640336393,-0.00011850687730886,-0.00011850687730886,-0.00011850687730886,2711315.8091643,0.016700718527927
22819200,0.98968463353175,0.016863722318756,0.0050967207224507,0.0066702808739365,0.005096720722369,-0.0011613053802452,0.0011613049460557,1.716799171877e-08,-1.7583708185408e-08,4.8144221011416e-09,-5.3977947380171e-09,-0.0012836637036474,0.0012836782224688,-0.0012836753338604,0.0012836667116321,-0.0012836670042561,0.0012836748417349,-0.0012836786213183,0.0012836632671383,-0.0011492105748638,0.0011492407954612,-0.0011492446205737,0.0011492067372266,-4.4713218981264e-09,5.7423629308718e-09,9.7136819972121e-09,-8.6604184342204e-09,-0.0016648397556815,0.0016648408633783,-0.0017833342262267,0.0017833379927115,-0.0017833402212876,0.0017833318551612,-0.0017833308700132,0.0017833413952207,-0.001783336876814,0.0017833352464665,-0.0015237000377168,0.0015237225115405,-0.0015237178065683,0.0015237042309957,-0.0015237185379548,0.0015237036020223,-0.0015237085724862,0.0015237137844617,-1.5782587701928e-08,1.8975080387499e-08,-0.0011613035940035,0.0011613067323217,-7.3804959510325e-09,1.0910989515803e-08,-0.0012836782947107,0.0012836636230224,-0.0012836722297328,0.0012836697404456,-0.0012836666807321,0.0012836752069959,-0.0012836606360923,0.0012836812941415,-0.001149204005177,0.0011492473453677,-0.001149238057356,0.0011492133848793,0.67691802778941,128566,2924,0.0048280771585713,0.0069116937147419,0.0048280771586231,15.303377615412,-0.0001175729790767,-0.0001175729790767,-0.0001175729790767,2709969.6165031,0.016706881326289
23019200,0.98988662855853,0.016866768550645,0.0050976288285719,0.0066715108935832,0.0050976288284902,-0.00116170181094,0.0011617013838255,1.737391715358e-08,-1.7782657958304e-08,4.7772157444062e-09,-5.3527567476615e-09,-0.001284132045394,0.0012841466615582,-0.0012841437941648,0.0012841350336239,-0.001284135301734,0.0012841433251963,-0.0012841470714538,0.0012841315994097,-0.0011496245640411,0.001149655265973,-0.0011496590579316,0.0011496207616209,-4.4223182649185e-09,5.6884761646638e-09,1.008762488169e-08,-9.0387169089323e-09,-0.0016654205654097,0.0016654216687515,-0.0017839185754042,0.0017839226027561,-0.0017839247985886,0.0017839162310039,-0.0017839152355491,0.001783925987668,-0.0017839215044222,0.0017839195704717,-0.0015242511222906,0.001524274346747,-0.0015242696715943,0.0015242552693427,-0.0015242700442521,0.0015242550074299,-0.0015242602296986,0.0015242650370035,-1.5892758386767e-08,1.9151858942199e-08,-0.0011616999944281,0.0011617032003509,-7.7214287599457e-09,1.1326094725749e-08,-0.0012841468346849,0.0012841318647875,-0.001284140501352,0.0012841382505986,-0.0012841351077803,0.0012841435615458,-0.001284128828693,0.0012841498827816,-0.00114961796157,0.0011496618492135,-0.0011496522441721,0.0011496276586459,0.63260002860327,128566,2924,0.0048297224360537,0.0069140950963994,0.0048297224360839,15.414617408725,-0.0001166830607302,-0.0001166830607302,-0.0001166830607302,2709335.7282187,0.016712669345863
23219200,0.99008610354654,0.016869906538884,0.0050985679856996,0.006672770567567,0.0050985679856176,-0.0011620905969601,0.0011620901769157,1.7528006658432e-08,-1.7929778989115e-08,4.7429329098722e-09,-5.3106548279639e-09,-0.0012845223550574,0.0012845370653033,-0.0012845342173637,0.0012845253260765,-0.0012845255990273,0.0012845337430373,-0.0012845374567327,0.0012845219284832,-0.001150005045201,0.00115003603797,-0.0011500397977498,0.0011500012748185,-4.3922984373566e-09,5.6555088027941e-09,1.0429913623298e-08,-9.3836411187344e-09,-0.0016659115380445,0.0016659126386608,-0.0017844524549961,0.0017844567397948,-0.0017844589143097,0.0017844501254063,-0.0017844491478563,0.001784460091593,-0.001784455628858,0.0017844534562046,-0.0015247100984565,0.0015247339386026,-0.0015247292812293,0.0015247142152809,-0.0015247294270345,0.0015247141857207,-0.0015247196387302,0.0015247241875033,-1.6058929508708e-08,1.9376330093679e-08,-0.0011620887543388,0.0011620920195399,-8.0245724747604e-09,1.1694488541655e-08,-0.001284537333438,0.0012845220804242,-0.0012845307894342,0.0012845286769173,-0.0012845254885967,0.0012845338955629,-0.0012845189748797,0.0012845404515856,-0.001149998238788,0.0011500428258458,-0.0011500329396254,0.0011500082163223,0.65900009859693,128566,2924,0.0048313344302275,0.0069161267891744,0.0048313344302349,15.525643750943,-0.00011579484999245,-0.00011579484999245,-0.00011579484999245,2714989.2294249,0.016718012672745
23419200,0.99028390718548,0.016872986560629,0.0050994888818436,0.0066740087970238,0.0050994888817616,-0.0011626119271536,0.0011626115077873,1.7693088325381e-08,-1.8094155972681e-08,4.7382311927858e-09,-5.3052471178716e-09,-0.0012850896151223,0.0012851044373726,-0.0012851015931197,0.0012850925841413,-0.0012850928614302,0.0012851011146729,-0.0012851048234489,0.0012850891943688,-0.0011505356690534,0.0011505669732868,-0.0011505707290087,0.0011505319021258,-4.388180191225e-09,5.6514539200209e-09,1.0616272882974e-08,-9.5699344032495e-09,-0.0016665869862441,0.0016665880866438,-0.0017851468364052,0.0017851512516865,-0.0017851534221215,0.0017851445069536,-0.0017851435366224,0.0017851545960779,-0.0017851501343913,0.0017851478400383,-0.0015253536140237,0.0015253778011787,-0.0015253731429177,0.0015253577231698,-0.0015253731780503,0.0015253578049541,-0.0015253633845211,0.0015253678144698,-1.6225073704206e-08,1.9572619505841e-08,-0.0011626100694848,0.001162613365423,-8.1871578328893e-09,1.1890894642479e-08,-0.0012851047523343,0.0012850892945896,-0.0012850980943765,0.0012850960048735,-0.0012850927914722,0.0012851012254624,-0.0012850861544592,0.0012851079055428,-0.0011505287587885,0.0011505738654429,-0.0011505638286201,0.0011505388861102,0.65256368289958,128566,2924,0.0048334970476727,0.0069189205758575,0.0048334970476043,15.704239275982,-0.00011436608579214,-0.00011436608579214,-0.00011436608579214,2716728.9375892,0.016725251238916
23619200,0.99048421842247,0.016876175193275,0.0051004440776434,0.0066752870380699,0.0051004440775618,-0.0011637566719092,0.0011637562462268,1.7859670315677e-08,-1.8267090878239e-08,4.7689571754407e-09,-5.3430368233632e-09,-0.0012862819542887,0.0012862969049857,-0.0012862940433313,0.0012862849397648,-0.001286285221295,0.0012862935607134,-0.0012862972991504,0.0012862815261465,-0.0011516971869957,0.0011517288014255,-0.0011517325868478,0.0011516933929758,-4.4207225354905e-09,5.6856627237889e-09,1.0542406942763e-08,-9.494589927148e-09,-0.0016679162664618,0.0016679173690963,-0.0017864993343247,0.0017865036798008,-0.0017865058696398,0.0017864969881402,-0.0017864960113346,0.0017865070483198,-0.0017865025617694,0.0017865003414314,-0.0015266476438427,0.0015266717131867,-0.0015266670370986,0.0015266517808875,-0.0015266671590204,0.00152665177308,-0.0015266573021573,0.0015266618432875,-1.6409216462953e-08,1.974071742326e-08,-0.0011637548194868,0.0011637580987802,-8.1001790420316e-09,1.178660002616e-08,-0.0012862971918898,0.0012862816613897,-0.0012862905954963,0.0012862883108791,-0.0012862851120901,0.0012862937110982,-0.0012862785399472,0.0012863003267491,-0.0011516903026629,0.0011517356671997,-0.0011517257125963,0.0011517003493458,0.66669033925147,128566,2924,0.0048382448685552,0.0069244196266787,0.0048382448688313,16.218468562031,-0.00011025225150375,-0.00011025225150375,-0.00011025225150375,2721826.6444574,0.016740497266572
23819200,0.99068701024289,0.016879573124201,0.0051014660313243,0.006676641061634,0.0051014660312422,-0.001164930413507,0.0011649299827998,1.8078678897497e-08,-1.849095125401e-08,4.7958324995227e-09,-5.3753697287328e-09,-0.0012875285600835,0.0012875436763556,-0.0012875408004459,0.0012875315602675,-0.0012875318500962,0.00128754030833,-0.0012875440715018,0.0012875281305769,-0.0011529003773276,0.001152932388979,-0.0011529361997539,0.0011528965589887,-4.4497743523303e-09,5.7180069396365e-09,1.0318197927724e-08,-9.2675602521017e-09,-0.0016693074240932,0.001669308529148,-0.0017879019353679,0.0017879061173606,-0.0017879083282324,0.001787899571647,-0.0017878985960679,0.0017879095026152,-0.0017879049966128,0.0017879029495777,-0.0015280057151026,0.0015280293531027,-0.0015280246541249,0.0015280098776862,-0.0015280249722695,0.0015280096708803,-0.0015280150458821,0.0015280198140849,-1.6536865423341e-08,1.9862026458749e-08,-0.0011649285616673,0.0011649318346293,-8.0756934826369e-09,1.1754281725221e-08,-0.0012875439131256,0.0012875283173763,-0.0012875373402445,0.0012875349427007,-0.0012875317537412,0.0012875404467521,-0.0012875251974072,0.0012875470458819,-0.0011528935769292,0.0011529391725116,-0.0011529292415104,0.0011529035993303,0.70079154396313,128566,2924,0.0048431134922189,0.0069301739436557,0.0048431134921985,16.74104780381,-0.00010607161756952,-0.00010607161756952,-0.00010607161756952,2724839.8128228,0.016756249087659
24019200,0.99089214255287,0.016883049638792,0.0051025120528648,0.0066780255331439,0.0051025120527831,-0.0011661100174297,0.0011661095828701,1.8225835245354e-08,-1.8641894146038e-08,4.8158005495971e-09,-5.3995532953532e-09,-0.0012888321031742,0.0012888473269881,-0.0012888444394825,0.0012888351135085,-0.0012888354045879,0.0012888439467823,-0.0012888477282132,0.0012888316664619,-0.0011541326594195,0.0011541649523492,-0.0011541687809394,0.0011541288223391,-4.4706241614418e-09,5.7409725603467e-09,1.0248161717282e-08,-9.1956188550385e-09,-0.0016707726116688,0.0016707737185975,-0.0017893487489289,0.0017893528685388,-0.0017893550925965,0.0017893463729917,-0.0017893453923299,0.0017893562712107,-0.0017893517496477,0.0017893497627211,-0.001529441514369,0.0015294650384399,-0.0015294603234198,0.0015294456946003,-0.0015294607085917,0.001529445421378,-0.0015294507468705,0.001529455599386,-1.6750289943596e-08,2.0042307718272e-08,-0.0011661081804376,0.0011661114198675,-7.9110833031884e-09,1.1553093108581e-08,-0.0012888475327746,0.0012888318907689,-0.0012888410775135,0.0012888383984266,-0.0012888352394082,0.0012888441540111,-0.0012888288063196,0.0012888506296586,-0.0011541258875777,0.0011541717065585,-0.0011541619301794,0.0011541357556051,0.70866200106157,128566,2924,0.0048480076189325,0.0069362329664912,0.0048480076189446,17.263951431563,-0.0001018883885475,-0.0001018883885475,-0.0001018883885475,2723293.9142519,0.016772363609325
24219200,0.99109823505824,0.016886397604573,0.005103515313931,0.0066793669767922,0.0051035153138494,-0.0011670987097278,0.0011670982744269,1.8395296373452e-08,-1.881208438979e-08,4.8199856676711e-09,-5.4045067120886e-09,-0.0012899519567073,0.0012899672965398,-0.0012899644064703,0.0012899549690213,-0.0012899552614323,0.0012899639127521,-0.0012899676978566,0.0012899515194343,-0.001155172660127,0.0011552052808801,-0.0011552091126369,0.0011551688185719,-4.4693674071289e-09,5.7395437633484e-09,1.020728549967e-08,-9.1549061356664e-09,-0.0016720590984988,0.0016720602052449,-0.0017906134352873,0.0017906175286751,-0.0017906197525235,0.0017906110603641,-0.0017906100800185,0.0017906209300569,-0.0017906164099669,0.0017906144495539,-0.001530698410414,0.0015307218525444,-0.0015307171395247,0.0015307025907051,-0.0015307175499271,0.0015307022913564,-0.0015307075900496,0.0015307124678868,-1.6933546219912e-08,2.0211194268521e-08,-0.0011670968796291,0.0011671001045253,-7.8407286422985e-09,1.1466763124999e-08,-0.0012899674837351,0.0012899517626249,-0.0012899610807441,0.0012899582179635,-0.0012899550734994,0.0012899641426998,-0.0012899486918142,0.0012899705668544,-0.0011551659121364,0.0011552120105547,-0.0011552023005194,0.0011551757139663,0.68010062855877,128566,2924,0.0048521102055736,0.006941552279159,0.0048521102055739,17.69190562992,-9.8464754960639e-05,-9.8464754960639e-05,-9.8464754960639e-05,2721109.9744319,0.01678611678106
24419200,0.99130213329538,0.016889706316797,0.0051045064389083,0.0066806934390621,0.0051045064388268,-0.0011676373326829,0.0011676369019609,1.8597897972163e-08,-1.9010149802469e-08,4.7973344447276e-09,-5.3768314708423e-09,-0.0012905669968407,0.001290582464305,-0.0012905795868159,0.0012905699972808,-0.0012905702909339,0.0012905790906001,-0.0012905828551848,0.0012905665706943,-0.0011557365920926,0.0011557696075776,-0.0011557734201571,0.0011557327735475,-4.450365375275e-09,5.7189183930864e-09,1.0171503195324e-08,-9.1205636919222e-09,-0.0016728189880611,0.0016728200931636,-0.001791379577686,0.0017913836653021,-0.0017913858786739,0.0017913772140278,-0.0017913762416341,0.0017913870472274,-0.0017913825426254,0.001791380596306,-0.0015314286407865,0.0015314519807332,-0.0015314472829088,0.0015314328081123,-0.0015314477078422,0.0015314324931645,-0.0015314377686182,0.001531442649414,-1.7064667601894e-08,2.0371077719119e-08,-0.001167635490381,0.0011676387442558,-7.9862010935091e-09,1.164385420663e-08,-0.0012905826723769,0.0012905667822311,-0.0012905761688629,0.001290573337706,-0.0012905701714974,0.00129057925306,-0.0012905636766268,0.0012905857899912,-0.0011557298226185,0.0011557763607373,-0.0011557665145317,0.0011557397605187,0.67934589157267,128566,2924,0.0048543452479427,0.0069446942667666,0.0048543452479292,17.884607969109,-9.692313624713e-05,-9.692313624713e-05,-9.692313624713e-05,2721703.9394786,0.016793857555629
24619200,0.99150372507162,0.016893126745437,0.0051055347310147,0.0066820572834893,0.0051055347309332,-0.001168169295177,0.0011681688675348,1.8720598541705e-08,-1.9129830023806e-08,4.7812416182954e-09,-5.3573663396064e-09,-0.0012911662641522,0.0012911817927103,-0.0012911789236034,0.0012911692555233,-0.0012911695358169,0.0012911784422414,-0.0012911821913685,0.0012911658296404,-0.0011562956619543,0.0011563289620851,-0.0011563327582724,0.0011562918567473,-4.4328122830393e-09,5.6994777651019e-09,1.0357411604303e-08,-9.3082120976275e-09,-0.0016735617735104,0.0016735628770627,-0.0017921282670433,0.0017921324789044,-0.0017921346791685,0.0017921259128515,-0.0017921249319352,0.001792135859396,-0.0017921313664622,0.0017921292715871,-0.0015321438242335,0.0015321675498099,-0.0015321628621597,0.0015321479728012,-0.0015321631118598,0.0015321478382139,-0.0015321532402017,0.0015321579247736,-1.729685858597e-08,2.0588173273224e-08,-0.0011681674619415,0.0011681707007679,-7.9183826533159e-09,1.1559972047811e-08,-0.0012911820331525,0.0012911660168434,-0.0012911755681309,0.0012911725342145,-0.0012911693715713,0.001291178648446,-0.0012911629373421,0.0012911851250655,-0.0011562888632612,0.0011563357429708,-0.0011563259625618,0.0011562987351982,0.70944457817864,128566,2924,0.0048565525280455,0.0069477657413114,0.0048565525280415,18.071441119437,-9.5428471044506e-05,-9.5428471044506e-05,-9.5428471044506e-05,2722155.1717839,0.016801469984977
24819200,0.99170297406491,0.016896270425014,0.0051064735670794,0.0066833232909367,0.005106473566998,-0.0011686908302672,0.0011686904051997,1.8884718012199e-08,-1.9291374670384e-08,4.7683285875829e-09,-5.3414283605007e-09,-0.0012917997090563,0.0012918153371591,-0.0012918124754057,0.0012918026934315,-0.0012918029696278,0.0012918119983097,-0.0012918157352242,0.0012917992750744,-0.0011568564915466,0.0011568901286963,-0.0011568939112302,0.0011568526968238,-4.4193461754197e-09,5.6846465655966e-09,1.0422587183057e-08,-9.3745956282444e-09,-0.0016743465882095,0.0016743476905352,-0.0017928956801708,0.0017928999404653,-0.0017929021319826,0.0017928933334829,-0.0017928923525426,0.0017929033131295,-0.0017928988302043,0.0017928966810031,-0.0015328996697682,0.0015329235188258,-0.0015329188412856,0.0015329038072708,-0.0015329190245448,0.0015329037397354,-0.0015329091866938,0.0015329137923517,-1.7478326906478e-08,2.0772697384171e-08,-0.0011686889967243,0.0011686922387375,-7.9409056700768e-09,1.1586072714418e-08,-0.0012918155961288,0.0012917994434083,-0.0012918091136764,0.0012918059782106,-0.0012918028107448,0.0012918121988773,-0.0012917963626803,0.0012918186892954,-0.001156849674953,0.0011568969258496,-0.0011568871266298,0.0011568595658778,0.66112226892545,128566,2924,0.0048587175089901,0.0069510098560335,0.0048587175089804,18.258046170176,-9.3935630638592e-05,-9.3935630638592e-05,-9.3935630638592e-05,2719119.9717084,0.016809172816316
25019200,0.99190211698734,0.016899375996205,0.0051074000395951,0.0066845759170958,0.0051074000395137,-0.0011695380219908,0.0011695375945152,1.8994063963303e-08,-1.9403155478583e-08,4.779075961679e-09,-5.3550868265969e-09,-0.0012926909997854,0.0012927066948772,-0.0012927038270983,0.0012926939899837,-0.0012926942563409,0.0012927033614337,-0.0012927071078536,0.00129269055072,-0.0011577162813533,0.0011577501621667,-0.0011577539520468,0.0011577124735523,-4.422955602213e-09,5.6881274483168e-09,1.0513058029294e-08,-9.4652451358465e-09,-0.0016753947014828,0.001675395804025,-0.0017939699146741,0.0017939742192119,-0.0017939764110812,0.0017939675662042,-0.0017939665719155,0.001793977606991,-0.0017939731199388,0.0017939709033557,-0.0015339112679915,0.0015339353359186,-0.0015339306541565,0.0015339154038481,-0.0015339307460192,0.001533915429821,-0.0015339209390775,0.0015339254510795,-1.7731889394745e-08,2.0989675192168e-08,-0.0011695362056201,0.0011695394108828,-7.7565945048328e-09,1.136164241814e-08,-0.0012927069556667,0.0012926907321868,-0.0012927005952912,0.0012926971457089,-0.001292694000769,0.0012927036571414,-0.0012926877003788,0.0012927100005993,-0.0011577094592991,0.0011577569620386,-0.0011577473341482,0.0011577191785795,0.65362536805874,128566,2924,0.0048622312930731,0.0069553453381943,0.0048622312930675,18.629351589588,-9.0965187283294e-05,-9.0965187283294e-05,-9.0965187283294e-05,2724538.140842,0.016820727276823
25219200,0.99210436106841,0.016902633746842,0.0051083746354053,0.0066858844761126,0.005108374635324,-0.0011708942652248,0.0011708938331805,1.9159142619911e-08,-1.9572720672096e-08,4.8028875057324e-09,-5.3839184288112e-09,-0.001294089516625,0.0012941053337465,-0.0012941024522185,0.0012940925188709,-0.0012940927871022,0.0012941019852722,-0.0012941057528105,0.001294089058917,-0.0011590889181159,0.0011591231147169,-0.0011591269245801,0.0011590850860867,-4.4470697809531e-09,5.7152515775168e-09,1.0349453162722e-08,-9.2989244492999e-09,-0.0016769674342137,0.0016769685388922,-0.0017955759396105,0.0017955801151536,-0.0017955823238129,0.0017955735756648,-0.0017955725768917,0.0017955835228143,-0.0017955790189261,0.0017955769275417,-0.0015354427935212,0.0015354665668999,-0.0015354618709181,0.0015354469554514,-0.0015354620900203,0.0015354468470983,-0.0015354522464429,0.0015354569130321,-1.7924081467317e-08,2.1154816934431e-08,-0.0011708924603108,0.0011708956380937,-7.6199460275853e-09,1.1195208590133e-08,-0.0012941055569761,0.0012940892857369,-0.0012940992943715,0.0012940956005796,-0.001294092480499,0.0012941023321329,-0.001294086283715,0.0012941085711837,-0.0011590821466277,0.0011591298616313,-0.0011591203614092,0.0011590917388088,0.67454672911808,128566,2924,0.0048678558314797,0.0069618515936338,0.0048678558314789,19.269954349357,-8.5840365205144e-05,-8.5840365205144e-05,-8.5840365205144e-05,2732717.0783722,0.01683878167792
25419200,0.99230959084434,0.016906208332132,0.0051094506121297,0.0066873071079538,0.0051094506120485,-0.0011722856600806,0.0011722852262915,1.940543595116e-08,-1.9820718293239e-08,4.8122407282314e-09,-5.3951463482766e-09,-0.00129555742053,0.0012955734241088,-0.0012955705379606,0.0012955604284605,-0.0012955607148888,0.0012955700510961,-0.0012955738284741,0.0012955569793906,-0.0011605156022056,0.0011605502226117,-0.0011605540441339,0.0011605117648187,-4.4650562251855e-09,5.7347002568436e-09,1.009711177399e-08,-9.0453256286875e-09,-0.0016786163586266,0.0016786174647641,-0.0017972396326466,0.0017972436492507,-0.0017972458715996,0.0017972372609287,-0.0017972362753455,0.0017972470523512,-0.001797242536935,0.0017972406423469,-0.0015370544407172,0.0015370776793326,-0.0015370729740835,0.0015370586215817,-0.0015370734312426,0.0015370582701323,-0.0015370634984514,0.0015370684238884,-1.8016688648514e-08,2.1259902016446e-08,-0.0011722838481264,0.0011722870382406,-7.6719641309973e-09,1.1259917975434e-08,-0.0012955735912606,0.0012955572462521,-0.001295567309082,0.0012955635807766,-0.0012955604654068,0.0012955703419954,-0.0012955542143897,0.0012955766354386,-0.0011605088961573,0.0011605569073223,-0.0011605473561018,0.0011605185391915,0.72789189230795,128566,2924,0.0048736269485388,0.0069686720440623,0.0048736269485291,19.917302167497,-8.0661582660027e-05,-8.0661582660027e-05,-8.0661582660027e-05,2737516.7943117,0.016857454454673
25619200,0.99251759069235,0.016909853777451,0.0051105476937882,0.0066887583899556,0.0051105476937071,-0.0011736846912025,0.0011736842559259,1.9558510222824e-08,-1.9975252538574e-08,4.8201597176959e-09,-5.404760967733e-09,-0.0012971125783192,0.0012971286841691,-0.0012971257933074,0.0012971155903062,-0.0012971158741164,0.0012971253096635,-0.0012971290939823,0.0012971121310779,-0.001161985456365,0.0011620203823884,-0.0011620242112162,0.0011619816117812,-4.471811743809e-09,5.7420103100559e-09,1.0074249791878e-08,-9.0219845585647e-09,-0.0016803749842581,0.0016803760908938,-0.0017989670071436,0.0017989710017648,-0.0017989732282442,0.001798964631285,-0.0017989636407982,0.001798974413859,-0.0017989698935343,0.0017989680130588,-0.0015387806734471,0.0015388038828289,-0.0015387991716133,0.0015387848586665,-0.0015387996432464,0.0015387844947023,-0.0015387897070336,0.0015387946503461,-1.8216604305419e-08,2.1444346839813e-08,-0.001173682886346,0.0011736860607796,-7.5879673846285e-09,1.1158738294917e-08,-0.0012971288432611,0.0012971124117781,-0.0012971226183225,0.0012971186890664,-0.0012971155846066,0.0012971256402696,-0.0012971093995271,0.0012971318677846,-0.0011619787595542,0.0011620270578952,-0.0011620175842124,0.0011619883251243,0.73243473022517,128566,2924,0.004879431595639,0.0069759438854016,0.0048794315956341,20.564902558114,-7.5480779535087e-05,-7.5480779535087e-05,-7.5480779535087e-05,2735399.6523067,0.016876656036327
25819200,0.99272297193306,0.016913359391251,0.005111599726358,0.0066901599386157,0.0051115997262769,-0.0011743119752549,0.0011743115468906,1.9714643656735e-08,-2.0124536674358e-08,4.7860154675844e-09,-5.3629494802217e-09,-0.0012978856617097,0.0012979018478321,-0.0012978989761213,0.0012978886558519,-0.0012978889293424,0.0012978985014491,-0.0012979022545092,0.0012978852187714,-0.0011626718645837,0.0011627071307633,-0.0011627109285005,0.00116266805291,-4.4518457123458e-09,5.720152832081e-09,1.0192385626851e-08,-9.1418020405758e-09,-0.0016813270731808,0.001681328178053,-0.0017998896001983,0.0017998936817486,-0.0017998958955014,0.0017998872352315,-0.0017998862445005,0.0017998970827191,-0.001799892577367,0.0017998906001654,-0.0015397046416707,0.0015397280784777,-0.0015397233801077,0.0015397088094637,-0.0015397237384311,0.0015397085608592,-0.0015397138520995,0.0015397186662422,-1.8388839053867e-08,2.165850474392e-08,-0.0011743101526229,0.001174313369497,-7.798026995334e-09,1.1415084434734e-08,-0.0012979020897408,0.0012978854129755,-0.0012978957066816,0.0012978918482146,-0.0012978886993489,0.0012978987734506,-0.0012978823619858,0.0012979051528701,-0.001162665055276,0.001162713920021,-0.001162704248846,0.0011626748177508,0.7138631729676,128566,2924,0.0048820359170281,0.0069798788327426,0.0048820359169758,20.804633099489,-7.3562935204088e-05,-7.3562935204088e-05,-7.3562935204088e-05,2730666.6442009,0.016885955904498
26019200,0.992921185119,0.016916611368753,0.0051125720339805,0.0066914673008733,0.0051125720338995,-0.0011742317405923,0.0011742313173178,1.9943486148945e-08,-2.0348408614042e-08,4.7578309006238e-09,-5.329127591516e-09,-0.0012979030934129,0.0012979194251262,-0.0012979165694402,0.0012979060725015,-0.0012979063510644,0.0012979160898641,-0.0012979198171323,0.0012979026656333,-0.0011626240196922,0.0011626597254766,-0.0011626634978844,0.0011626202333082,-4.3992627987766e-09,5.6624653763932e-09,1.0543429997745e-08,-9.4973719688644e-09,-0.0016814931631327,0.0016814942634885,-0.0018000443546107,0.0018000487129012,-0.0018000508911228,0.0018000420188317,-0.001800041045064,0.0018000520668251,-0.0018000475991169,0.0018000453565159,-0.0015398443342557,0.0015398683948977,-0.001539863732026,0.0015398484543565,-0.0015398638198749,0.0015398484820456,-0.0015398540129648,0.0015398585064811,-1.8488315526098e-08,2.1798054325246e-08,-0.0011742299001108,0.0011742331577885,-8.0139543610776e-09,1.1676290095909e-08,-0.001297919688674,0.0012979028236118,-0.0012979131572145,0.0012979094073936,-0.0012979062288538,0.0012979162535246,-0.001297899723183,0.0012979228014098,-0.0011626171998342,0.0011626665250946,-0.0011626566565493,0.0011626271599057,0.68688289879986,128566,2924,0.0048817053250575,0.0069805631446084,0.0048817053250359,20.675909756298,-7.4592721949617e-05,-7.4592721949617e-05,-7.4592721949617e-05,2726484.173546,0.016885980611443
26219200,0.9931124106688,0.016919929261561,0.0051135688989727,0.0066927914636966,0.0051135688988917,-0.0011741317808024,0.0011741313627578,2.0088843432163e-08,-2.0488607727588e-08,4.7308851857546e-09,-5.2964357039366e-09,-0.0012978478601648,0.0012978642670368,-0.0012978614267721,0.0012978508254544,-0.0012978510930447,0.0012978609570106,-0.001297864659958,0.0012978474329106,-0.0011625414910658,0.0011625775161388,-0.0011625812646528,0.0011625377306264,-4.3853180929542e-09,5.6471229930336e-09,1.0694784056041e-08,-9.6499633376558e-09,-0.0016815735931093,0.0016815746922149,-0.0018001355254946,0.0018001399861715,-0.0018001421548997,0.0018001331967569,-0.0018001322199408,0.0018001433358341,-0.001800138877672,0.0018001365194652,-0.0015399006020714,0.0015399249647102,-0.0015399203091832,0.0015399047077922,-0.0015399202659903,0.0015399048701062,-0.0015399105015552,0.0015399148500582,-1.8669518005625e-08,2.2023036536081e-08,-0.0011741299207409,0.00117413322281,-8.2421804579859e-09,1.1953305224865e-08,-0.001297864625995,0.0012978474957378,-0.0012978579215968,0.0012978542524925,-0.0012978510254554,0.0012978610665518,-0.0012978443574153,0.0012978677768058,-0.0011625345342245,0.0011625844538857,-0.0011625743737317,0.001162544705617,0.72524659383498,128566,2924,0.0048812918230571,0.0069808945862467,0.0048812918230388,20.537896303423,-7.5696829572619e-05,-7.5696829572619e-05,-7.5696829572619e-05,2725590.8089334,0.016885476880885
26419200,0.99329693075033,0.016923220283893,0.0051145596942723,0.0066941008954294,0.0051145596941913,-0.0011740377347728,0.0011740373177647,2.0271442496762e-08,-2.0670198149967e-08,4.7237033441292e-09,-5.2880378210156e-09,-0.0012978486646184,0.0012978651905793,-0.0012978623547811,0.0012978516259626,-0.0012978518943136,0.0012978618839552,-0.0012978655808071,0.0012978482403901,-0.0011624881929654,0.0011625245756502,-0.0011625283183944,0.0011624844390237,-4.3750003740946e-09,5.6357956424882e-09,1.0827143529962e-08,-9.7832227056148e-09,-0.0016817137414004,0.001681714839594,-0.0018002536896806,0.001800258246735,-0.0018002604080402,0.001800251366124,-0.0018002503931979,0.0018002615871779,-0.0018002571359766,0.0018002546834181,-0.0015400221828811,0.0015400467930934,-0.0015400421434883,0.0015400262783443,-0.0015400420056719,0.0015400265369906,-0.001540032257426,0.0015400365008082,-1.8824054251509e-08,2.2196044769374e-08,-0.0011740358658204,0.0011740391867064,-8.3522479739694e-09,1.2084293581147e-08,-0.0012978655747336,0.0012978482752667,-0.0012978587920121,0.0012978551103219,-0.0012978518669191,0.0012978619533771,-0.0012978451167781,0.001297868745697,-0.0011624812030141,0.0011625315469317,-0.0011625213683031,0.0011624914727963,0.74502753780816,128566,2924,0.0048809040100921,0.0069814716533389,0.0048809040100707,20.399520913204,-7.680383269437e-05,-7.680383269437e-05,-7.680383269437e-05,2719843.0371128,0.016885275967195
26619200,0.9934790681778,0.016926439722622,0.0051155280065066,0.00669538370969,0.0051155280064257,-0.0011746160564171,0.0011746156333878,2.0442629812195e-08,-2.0847314436552e-08,4.7530368987648e-09,-5.3240344916361e-09,-0.0012985573537664,0.0012985740118478,-0.0012985711599527,0.0012985603305436,-0.0012985606051384,0.0012985706830928,-0.0012985744074843,0.0012985569237915,-0.0011631282320957,0.0011631649275004,-0.0011631686978159,0.0011631244508028,-4.4094407053779e-09,5.6734567697901e-09,1.0661596406666e-08,-9.6148223049549e-09,-0.0016826018278492,0.0016826029289509,-0.0018011033845295,0.0018011078106865,-0.0018011099943843,0.001801101041551,-0.0018011000647687,0.0018011111750341,-0.0018011066985426,0.0018011043832789,-0.0015408904914117,0.0015409147999726,-0.0015409101266527,0.0015408946166902,-0.0015409101439305,0.0015408947169348,-0.0015409003243987,0.0015409047533912,-1.9009600313482e-08,2.2354158005697e-08,-0.0011746141983546,0.0011746174914375,-8.2206072855609e-09,1.192227858983e-08,-0.0012985743518006,0.0012985570082779,-0.0012985676667884,0.0012985637456525,-0.0012985605296113,0.0012985708006118,-0.0012985538766765,0.0012985774958668,-0.0011631212922069,0.0011631718487507,-0.0011631617949105,0.0011631314373185,0.73848438338689,128566,2924,0.0048833050556468,0.0069851421229113,0.0048833050556212,20.629557195411,-7.4963542436714e-05,-7.4963542436714e-05,-7.4963542436714e-05,2715401.1896733,0.016893893123284
26819200,0.99366102282377,0.016929578821596,0.0051164699122182,0.0066966389972407,0.0051164699121373,-0.0011755662283962,0.0011755657976151,2.0614301922925e-08,-2.1026616873978e-08,4.7925181524116e-09,-5.3720348619048e-09,-0.001299632889007,0.0012996496859398,-0.0012996468119382,0.0012996358864616,-0.001299636169384,0.0012996463274051,-0.0012996500881422,0.0012996324513395,-0.0011641366210885,0.0011641736222897,-0.001164177428637,0.0011641328026939,-4.4490215637393e-09,5.7167484903754e-09,1.0398509116273e-08,-9.3484669902211e-09,-0.0016838689711981,0.0016838700755829,-0.0018023443076039,0.0018023485353711,-0.0018023507455473,0.0018023419427099,-0.0018023409612556,0.0018023519270301,-0.0018023474222505,0.0018023453126008,-0.0015421320290556,0.0015421558474478,-0.0015421511483069,0.0015421361901582,-0.001542151391026,0.001542136060051,-0.0015421414893574,0.0015421461802759,-1.9203931937214e-08,2.2500826061995e-08,-0.0011755643906521,0.0011755676353483,-7.9775370167201e-09,1.1626057388e-08,-0.0012996499467821,0.0012996326219133,-0.0012996434412168,0.0012996391797645,-0.0012996360112904,0.0012996465273528,-0.0012996295369799,0.0012996530440057,-0.0011641297793125,0.0011641804447964,-0.0011641706173374,0.0011641396983251,0.72121903478787,128566,2924,0.0048872478155274,0.0069903810256782,0.0048872478155056,21.063921700151,-7.1488626398794e-05,-7.1488626398794e-05,-7.1488626398794e-05,2714198.6497731,0.016907240833464
27019200,0.99384269738383,0.016932628457052,0.0051173825004453,0.0066978634562426,0.0051173825003645,-0.0011765173895281,0.0011765169538016,2.0787156245837e-08,-2.1204326357673e-08,4.8185161279358e-09,-5.4035102601177e-09,-0.0013006836394848,0.0013007005677189,-0.0013006976787594,0.0013006866504293,-0.0013006869385893,0.0013006971894426,-0.0013007009740302,0.0013006831966979,-0.0011651306412436,0.0011651679613063,-0.0011651717911013,0.0011651267986485,-4.4752738222802e-09,5.745456127965e-09,1.0177964941275e-08,-9.1257649521449e-09,-0.0016851072966391,0.0016851084031816,-0.0018035764545387,0.00180358051986,-0.0018035827481756,0.0018035740754022,-0.0018035730904162,0.0018035839297304,-0.0018035794066873,0.0018035774638891,-0.0015433391459754,0.0015433625491431,-0.0015433578333555,0.0015433433317752,-0.0015433582552715,0.0015433430191325,-0.0015433482992815,0.0015433531947055,-1.9394147402874e-08,2.2652027367379e-08,-0.0011765155691399,0.0011765187741814,-7.7729744036146e-09,1.1377826966716e-08,-0.0013007007635113,0.0013006834367199,-0.001300694408371,0.0013006898440208,-0.0013006867143545,0.0013006974556631,-0.0013006803900479,0.0013007038221472,-0.0011651238856923,0.0011651746970057,-0.0011651650587731,0.0011651336158031,0.70228504091335,128566,2924,0.0048911939737649,0.0069955015064123,0.0048911939737485,21.503486313157,-6.7972109494742e-05,-6.7972109494742e-05,-6.7972109494742e-05,2715897.5070764,0.016920474842836
27219200,0.99402393473777,0.016935579811881,0.0051182630536612,0.0066990537046392,0.0051182630535803,-0.0011774629783735,0.0011774625395825,2.0959413245158e-08,-2.1379613293224e-08,4.8348371094789e-09,-5.4233172333812e-09,-0.0013016996521631,0.0013017167060118,-0.0013017138076448,0.0013017026717897,-0.0013017029638971,0.0013017133150191,-0.0013017171142169,0.0013016992069047,-0.0011661030201981,0.001166140663399,-0.0011661445077409,0.0011660991622032,-4.491822433555e-09,5.7636635692108e-09,1.00055668648e-08,-8.9519150892565e-09,-0.0016863022913865,0.001686303399402,-0.0018047854930981,0.0018047894348647,-0.0018047916746588,0.0018047831054859,-0.0018047821183664,0.0018047928557231,-0.0018047883211281,0.001804786506405,-0.0015444974323264,0.0015445205062528,-0.0015445157810334,0.0015445016342466,-0.0015445163387735,0.0015445011821523,-0.0015445063470079,0.0015445113946821,-1.9581543357095e-08,2.280907247985e-08,-0.0011774611718746,0.0011774643460733,-7.6100484850072e-09,1.1180907493734e-08,-0.0013017168510855,0.0013016994997385,-0.0013017106162641,0.0013017057867819,-0.0013017026878002,0.0013017136327429,-0.0013016964824392,0.0013017198804789,-0.0011660963311348,0.0011661473322792,-0.0011661378435883,0.0011661059116225,0.68191770915463,128566,2924,0.0048951162833828,0.00700044363286,0.0048951162833666,21.943253949002,-6.4453968407986e-05,-6.4453968407986e-05,-6.4453968407986e-05,2720096.4527115,0.016933478717009
27419200,0.99420315449956,0.016938587284288,0.005119162656353,0.0067002619716628,0.0051191626562722,-0.0011781680084151,0.0011781675722257,2.113431255074e-08,-2.1551925287914e-08,4.822915307406e-09,-5.4084550641162e-09,-0.0013024393380985,0.0013024565013524,-0.0013024536093493,0.0013024423513257,-0.0013024426410308,0.0013024531192129,-0.0013024569070191,0.0013024388953759,-0.0011668188396828,0.0011668568341048,-0.0011668606669298,0.0011668149929991,-4.4784853475821e-09,5.7490908693379e-09,1.0011224566726e-08,-8.958687245313e-09,-0.001687200472725,0.001687201579618,-0.0018057168448633,0.0018057207988317,-0.0018057230304979,0.001805714465327,-0.0018057134792613,0.001805724210288,-0.0018057196860115,0.0018057178569358,-0.0015453582454614,0.0015453813209991,-0.0015453766061541,0.0015453624370394,-0.0015453771419513,0.0015453620073998,-0.0015453671769673,0.0015453721920989,-1.9753310935256e-08,2.2981924022825e-08,-0.0011781662026862,0.0011781693779429,-7.6107363155827e-09,1.1182592610169e-08,-0.001302456648985,0.001302439183093,-0.0013024504133934,0.0013024454709129,-0.0013024423709086,0.0013024534309541,-0.0013024361646668,0.0013024596795385,-0.0011668121564174,0.0011668634970943,-0.0011668540064795,0.0011668217388836,0.70214876733272,128566,2924,0.0048980402781325,0.0070041588432938,0.0048980402781088,22.251706252136,-6.1986349982915e-05,-6.1986349982915e-05,-6.1986349982915e-05,2725518.4328205,0.016943203994747
27619200,0.99437982977906,0.016941596743751,0.0051200638499912,0.0067014690438493,0.0051200638499104,-0.0011788043597589,0.0011788039277556,2.1310287751117e-08,-2.172377598743e-08,4.802141866991e-09,-5.3830716004459e-09,-0.001303136723578,0.0013031539919581,-0.0013031511113925,0.0013031397258423,-0.0013031400117541,0.0013031506248611,-0.0013031543933598,0.0013031362855112,-0.0011674777584145,0.0011675161116567,-0.0011675199252587,0.0011674739312488,-4.4564916238282e-09,5.7249821944885e-09,1.0097119402933e-08,-9.0464634168112e-09,-0.0016880512898565,0.0016880523948542,-0.0018065834997935,0.0018065875248514,-0.0018065897424039,0.0018065811328876,-0.0018065801496094,0.0018065909204783,-0.0018065864125733,0.0018065845094228,-0.0015461736793432,0.001546196907044,-0.0015461922077575,0.0015461778520904,-0.001546192658795,0.0015461775090587,-0.0015461827376311,0.0015461876489252,-1.9916978512609e-08,2.3162225399768e-08,-0.001178802547689,0.0011788057398138,-7.6912707824277e-09,1.1281571199132e-08,-0.0013031541658599,0.0013031365425519,-0.0013031478710297,0.0013031428896293,-0.00130313977356,0.0013031509047336,-0.001303133507289,0.0013031572133064,-0.0011674710476357,0.0011675228023523,-0.0011675132355572,0.0011674807061765,0.71252805465063,128566,2924,0.0049006801697558,0.0070076773043983,0.0049006801697322,22.518775224372,-5.9849798205026e-05,-5.9849798205026e-05,-5.9849798205026e-05,2727481.8087743,0.016952151872466
27819200,0.99455389091006,0.016944609864294,0.0051209672110897,0.0067026754421958,0.0051209672110089,-0.0011794426795694,0.0011794422512925,2.1485759294839e-08,-2.1895579909616e-08,4.7830979402092e-09,-5.3599449339497e-09,-0.0013038480400712,0.0013038654141003,-0.001303862544157,0.001303851032313,-0.0013038513146539,0.0013038620609097,-0.0013038658118851,0.0013038476060825,-0.0011681458622031,0.0011681845724595,-0.0011681883686958,0.0011681420528931,-4.4365008950018e-09,5.7030555403915e-09,1.0205215873072e-08,-9.156278487742e-09,-0.0016889137564756,0.0016889148597358,-0.0018074532297987,0.0018074573392062,-0.0018074595436766,0.0018074508740823,-0.0018074498934988,0.0018074607205844,-0.001807456227318,0.0018074542367794,-0.0015470019870866,0.0015470254125753,-0.0015470207268063,0.0015470061420816,-0.0015470210810706,0.0015470058980061,-0.0015470112002238,0.0015470159968015,-2.0079104918205e-08,2.3344613771453e-08,-0.0011794408590753,0.0011794440717752,-7.7930036994393e-09,1.1405889962008e-08,-0.0013038656201553,0.0013038478271935,-0.0013038592504422,0.0013038542491632,-0.0013038511132771,0.0013038623040488,-0.0013038447716757,0.0013038686879062,-0.0011681391135062,0.0011681913013595,-0.0011681816393306,0.0011681488671783,0.72383354773635,128566,2924,0.0049033285822215,0.007011243522852,0.0049033285821987,22.784769432861,-5.7721844537114e-05,-5.7721844537114e-05,-5.7721844537114e-05,2727780.3592729,0.016961165930062
28019200,0.99472528217859,0.016947628433736,0.0051218733133355,0.0067038818071457,0.0051218733132548,-0.0011800815477678,0.0011800811226582,2.1660630732787e-08,-2.2067285017708e-08,4.7668375548591e-09,-5.3400876548113e-09,-0.0013045735414976,0.0013045910221459,-0.0013045881614466,0.0013045765250718,-0.0013045768043239,0.0013045876810189,-0.0013045914170963,0.00130457311077,-0.0011688219093723,0.0011688609739293,-0.0011688647552512,0.0011688181153319,-4.4194249852474e-09,5.6843380013759e-09,1.0312068886374e-08,-9.2645828901757e-09,-0.0016897922911028,0.0016897933928909,-0.0018083300856464,0.0018083342765378,-0.0018083364697073,0.0018083277393467,-0.0018083267610369,0.0018083376458541,-0.0018083331649548,0.0018083310900616,-0.0015478482837486,0.0015478719069958,-0.001547867232574,0.0015478524234179,-0.0015478674945749,0.0015478522738418,-0.0015478576482759,0.001547862336908,-2.0242131245598e-08,2.3526797727116e-08,-0.0011800797191243,0.0011800829512862,-7.8920552470119e-09,1.1526318435876e-08,-0.0013045912595159,0.0013045732976146,-0.0013045848169525,0.0013045797924409,-0.0013045766376469,0.0013045878895167,-0.0013045702230771,0.0013045943463059,-0.0011688151228333,0.0011688677407775,-0.001168857986881,0.0011688249685206,0.73612508066183,128566,2924,0.0049059796298814,0.0070148757444516,0.0049059796298498,23.050721486385,-5.5594228108923e-05,-5.5594228108923e-05,-5.5594228108923e-05,2726832.7572309,0.016970252758936
28219200,0.99489328902534,0.016950642482975,0.0051227791756959,0.0067050841316641,0.0051227791756152,-0.0011805950567546,0.0011805946343165,2.183167275767e-08,-2.2235723845978e-08,4.7597834062794e-09,-5.3303159990345e-09,-0.0013051861936803,0.0013052037838823,-0.001305200926471,0.0013051891747962,-0.0013051894503945,0.0013052004491369,-0.0013052041771808,0.0013051857653628,-0.0011693784669238,0.0011694178738698,-0.0011694216477251,0.001169374681817,-4.416505989656e-09,5.6810819429051e-09,1.0411030633396e-08,-9.3638469237276e-09,-0.0016905580339583,0.0016905591354777,-0.0018090845412149,0.0018090887987199,-0.0018090909893884,0.0018090821961198,-0.0018090812180338,0.0018090921667309,-0.0018090876872916,0.0018090855440553,-0.0015485852844222,0.0015486091020283,-0.0015486044279939,0.0015485894197715,-0.0015486046201929,0.0015485893414587,-0.0015485947817107,0.0015485993962852,-2.0401676642939e-08,2.3719562146689e-08,-0.0011805932126673,0.0011805964783907,-8.0025247893608e-09,1.1672442977679e-08,-0.0013052040518718,0.0013051859195821,-0.0013051975233553,0.0013051925004256,-0.0013051893118579,0.0013052006296899,-0.00130518281268,0.0013052071711463,-0.0011693716212126,0.0011694247007923,-0.0011694148282531,0.0011693815851851,0.74948915538818,128566,2924,0.0049081111854229,0.0070180408907012,0.0049081111853966,23.250636225571,-5.3994910195432e-05,-5.3994910195432e-05,-5.3994910195432e-05,2724349.719759,0.01697780822148
28419200,0.99505781879544,0.016953652885224,0.005123685093633,0.0067062826980387,0.0051236850935524,-0.0011810870492542,0.0011810866270636,2.1996235155747e-08,-2.2399978675427e-08,4.7570000944805e-09,-5.3272560000448e-09,-0.0013057907242019,0.0013058084207992,-0.0013058055656992,0.0013057937041203,-0.0013057939774921,0.0013058050894701,-0.0013058088158535,0.0013057902951782,-0.0011699219177796,0.0011699616534729,-0.001169965426662,0.0011699181365998,-4.4221188689511e-09,5.6872386542336e-09,1.046257150721e-08,-9.4149019652076e-09,-0.0016913211406425,0.0016913222426276,-0.0018098251427344,0.00180982942929,-0.0018098316229031,0.0018098227936097,-0.001809821814275,0.001809832802671,-0.0018098283184691,0.0018098261441124,-0.0015493233968428,0.0015493473243279,-0.0015493426447166,0.0015493275355572,-0.0015493428070997,0.001549327487887,-0.0015493329616437,0.0015493375503535,-2.0571672092257e-08,2.3912524659838e-08,-0.0011810851935293,0.0011810884827751,-8.0951532103909e-09,1.1790532465689e-08,-0.0013058087206375,0.0013057904188626,-0.0013058021204403,0.0013057970713115,-0.001305793858137,0.0013058052513612,-0.001305787290207,0.0013058118615601,-0.0011699150153063,0.0011699685387312,-0.0011699585733153,0.0011699250722796,0.7640241508383,128566,2924,0.0049101538573701,0.007021194661657,0.004910153857343,23.441273821183,-5.2469809430532e-05,-5.2469809430532e-05,-5.2469809430532e-05,2720677.0541862,0.016985171558978
28619200,0.99521887641717,0.016956619278835,0.0051245779021798,0.0067074634745561,0.0051245779020992,-0.0011815709742766,0.0011815705485641,2.2194059717052e-08,-2.2601301015678e-08,4.7729372604603e-09,-5.3470249223531e-09,-0.0013064019829937,0.0013064198258856,-0.0013064169620041,0.0013064049710586,-0.0013064052527817,0.0013064164781557,-0.0013064202194319,0.0013064015545773,-0.0011704652908097,0.0011705053886758,-0.0011705091766247,0.0011704614933333,-4.4147855348618e-09,5.6790924942108e-09,1.0579979023903e-08,-9.5330508105474e-09,-0.001692098481567,0.0016920995828113,-0.0018105685838833,0.0018105729584667,-0.0018105751462357,0.0018105662380312,-0.0018105652651038,0.0018105763219034,-0.0018105718425292,0.0018105695876623,-0.0015500787800501,0.001550102919348,-0.0015500982436559,0.0015500829105726,-0.0015500983338539,0.0015500829372077,-0.0015500884910358,0.0015500929975352,-2.0719434710573e-08,2.4057376229682e-08,-0.0011815691181712,0.001181572404655,-8.0595186623548e-09,1.1751563189243e-08,-0.0013064200874671,0.0013064017156507,-0.0013064135171805,0.0013064083381732,-0.0013064051321294,0.0013064166408226,-0.001306398585046,0.0013064232301172,-0.0011704584335652,0.0011705122277327,-0.0011705022914255,0.0011704684618545,0.76896077954065,128566,2924,0.0049121634088991,0.0070244068128643,0.0049121634088698,23.631657416739,-5.0946740666086e-05,-5.0946740666086e-05,-5.0946740666086e-05,2715995.6207545,0.016992527176233
28819200,0.99537649208249,0.016959448023245,0.0051254271675305,0.0067085936882645,0.00512542716745,-0.00118204460802,0.0011820441804151,2.2372048970533e-08,-2.2781163243605e-08,4.7788724930676e-09,-5.3550035720814e-09,-0.0013070042915318,0.0013070222568213,-0.0013070193903424,0.0013070072825401,-0.0013070075664576,0.0013070189042064,-0.0013070226518739,0.0013070038616708,-0.0011709975092231,0.0011710379494596,-0.0011710417431026,0.0011709937045944,-4.4205291021056e-09,5.6853504733868e-09,1.0587808895471e-08,-9.5404279150054e-09,-0.0016928725855405,0.0016928736872455,-0.0018113078998053,0.0018113122748042,-0.0018113144662188,0.0018113055502002,-0.0018113045772208,0.0018113156421551,-0.0018113111580738,0.0018113089043827,-0.0015508308298703,0.0015508549861815,-0.0015508503055442,0.0015508349643609,-0.0015508504008579,0.0015508349864644,-0.0015508405445775,0.0015508450600698,-2.0886752793789e-08,2.4223964724854e-08,-0.0011820427513011,0.0011820460371214,-8.0575776657097e-09,1.1748938760812e-08,-0.0013070225122764,0.0013070040304643,-0.0013070159440287,0.0013070106509951,-0.0013070074459752,0.0013070190666033,-0.0013070009001304,0.0013070256546362,-0.0011709906594837,0.0011710447801168,-0.0011710348460552,0.0011710006858623,0.74978433360775,128566,2924,0.0049141302786305,0.0070276054988805,0.0049141302786049,23.824250385929,-4.940599691257e-05,-4.940599691257e-05,-4.940599691257e-05,2711787.4925479,0.016999782374478
29019200,0.99553180153248,0.016962088527665,0.0051262160040919,0.0067096565195616,0.0051262160040114,-0.0011827347849026,0.0011827343574584,2.2521976578413e-08,-2.2930923180344e-08,4.7754226383057e-09,-5.3513056961666e-09,-0.0013077946067526,0.0013078126666208,-0.0013078098023777,0.0013077975954006,-0.001307797876364,0.0013078093190965,-0.0013078130643548,0.0013077941743364,-0.0011717329984955,0.0011717737428759,-0.0011717775339769,0.0011717291966588,-4.43085629197e-09,5.6966870057694e-09,1.0441566247319e-08,-9.3932894331027e-09,-0.0016938340959563,0.0016938351985582,-0.0018122533815222,0.0018122576496813,-0.0018122598489258,0.001812251026912,-0.0018122500490203,0.0018122610271913,-0.0018122565363501,0.0018122543857119,-0.0015517647197061,0.0015517886043889,-0.0015517839182234,0.0015517688651197,-0.0015517841135805,0.0015517687846949,-0.0015517742437287,0.001551778871694,-2.1091363798257e-08,2.4411464467047e-08,-0.0011827329369634,0.001182736205384,-8.0154907044963e-09,1.1688519858766e-08,-0.0013078129333952,0.0013077943342639,-0.0013078063959394,0.0013078009239969,-0.0013077977334181,0.0013078095041675,-0.0013077912239064,0.0013078160558985,-0.0011717261380899,0.0011717805844501,-0.0011717707004355,0.0011717361141816,0.71130252243116,128566,2924,0.0049169942928815,0.0070315804096396,0.0049169942928541,24.13991429937,-4.6880685605038e-05,-4.6880685605038e-05,-4.6880685605038e-05,2710976.1718418,0.017009651437323
29219200,0.99568475896683,0.016964628377588,0.0051269730782967,0.0067106822210748,0.0051269730782163,-0.001183424666779,0.0011834242399434,2.2661463369813e-08,-2.3069791786216e-08,4.7706156860537e-09,-5.3458387605307e-09,-0.0013085275541744,0.001308545700422,-0.0013085428388947,0.0013085305399657,-0.0013085308164972,0.001308542359694,-0.0013085461013363,0.0013085271189184,-0.0011724407045815,0.0011724817365225,-0.0011724855247142,0.001172436907938,-4.4404003047011e-09,5.7071832437048e-09,1.0291827656141e-08,-9.2427094523354e-09,-0.0016947213342058,0.0016947224376394,-0.0018131606310979,0.001813164791453,-0.0018131669978189,0.0018131582721554,-0.0018131572886205,0.0018131681791969,-0.0018131636824467,0.0018131616340287,-0.0015526180182565,0.001552641627019,-0.0015526369364272,0.001552622174342,-0.0015526372297764,0.0015526219926416,-0.0015526273513985,0.0015526320890178,-2.1306355030472e-08,2.4609934231569e-08,-0.0011834228275327,0.0011834260791777,-7.9778280864164e-09,1.1633275820436e-08,-0.0013085459875478,0.0013085272612266,-0.0013085394772027,0.0013085338238094,-0.0013085306461723,0.0013085425725992,-0.0013085241710772,0.0013085490899567,-0.0011724338153955,0.0011724886082774,-0.0011724787714097,0.0011724437439056,0.69516966008292,128566,2924,0.004919855645005,0.0070352498545618,0.0049198556449807,24.458643614772,-4.4330851081822e-05,-4.4330851081822e-05,-4.4330851081822e-05,2714691.2741633,0.017019203623054
29419200,0.99583529276826,0.01696696387196,0.0051276646822634,0.0067116345075138,0.005127664682183,-0.001184110539161,0.0011841101094135,2.2904337722179e-08,-2.3315602311611e-08,4.7859292415586e-09,-5.3644522509013e-09,-0.0013092338933591,0.0013092522190458,-0.0013092493483658,0.0013092368869028,-0.0013092371747415,0.0013092488591486,-0.001309252614109,0.0013092334624841,-0.0011731285051343,0.0011731699788367,-0.0011731737800458,0.0011731246930209,-4.4281953136728e-09,5.6937600010697e-09,1.0305209805326e-08,-9.2572076777187e-09,-0.0016955664112187,0.0016955675135337,-0.0018140425732497,0.0018140467586017,-0.0018140489571619,0.0018140402213669,-0.0018140392470742,0.0018140501297989,-0.0018140456422346,0.0018140435824162,-0.0015534227053009,0.0015534463090529,-0.0015534416278881,0.0015534268513342,-0.0015534419185505,0.0015534266728172,-0.0015534320431689,0.0015534367671714,-2.1426739636764e-08,2.4692684032537e-08,-0.001184108717393,0.0011841119311682,-7.8109452755129e-09,1.1425488917121e-08,-0.0013092524023632,0.0013092337035934,-0.0013092460243188,0.0013092401338457,-0.0013092370012626,0.0013092490745053,-0.0013092306426732,0.0013092554752782,-0.0011731218065131,0.0011731766586181,-0.0011731669840132,0.0011731315730208,0.65089856646662,128566,2924,0.0049226997293387,0.0070387456928168,0.0049226997293118,24.77749245197,-4.1780060384241e-05,-4.1780060384241e-05,-4.1780060384241e-05,2719985.2953997,0.017028543950909
29619200,0.99598325324916,0.016969226627107,0.0051283339451505,0.0067125587368865,0.0051283339450701,-0.0011847775972014,0.0011847771672543,2.30890574271e-08,-2.3500471803862e-08,4.7871931904624e-09,-5.3657984290118e-09,-0.0013098570418643,0.0013098754930236,-0.0013098726216749,0.0013098600358453,-0.0013098603263334,0.0013098721299492,-0.0013098758860322,0.0013098566129963,-0.0011737675556986,0.0011738093828272,-0.0011738131846562,0.0011737637424402,-4.4295854738514e-09,5.6953172596142e-09,1.0259037432507e-08,-9.2109091647535e-09,-0.0016963042352823,0.0016963053377573,-0.0018148568114618,0.0018148609665486,-0.0018148631664729,0.0018148544590709,-0.0018148534864481,0.0018148643365262,-0.0018148598481495,0.0018148578235776,-0.0015541143022119,0.0015541378091314,-0.0015541331268204,0.0015541184494601,-0.0015541334576588,0.0015541182326781,-0.0015541235703016,0.0015541283360425,-2.1594268971838e-08,2.4847400838018e-08,-0.0011847757817935,0.0011847789826442,-7.7688280873406e-09,1.1369555018972e-08,-0.0013098756566601,0.0013098568716361,-0.0013098693131313,0.0013098632675108,-0.0013098601499127,0.0013098723482396,-0.0013098538211683,0.0013098787191997,-0.0011737608943325,0.0011738160249776,-0.0011738063951248,0.0011737706164137,0.64191385358479,128566,2924,0.0049254642579036,0.0070417998456057,0.0049254642578668,25.087126139457,-3.9302990884342e-05,-3.9302990884342e-05,-3.9302990884342e-05,2729865.7541734,0.017037272316264
29819200,0.99612809396759,0.016971571168025,0.0051290314301234,0.0067135083078589,0.0051290314300431,-0.0011853528718549,0.00118535244229,2.3228496582767e-08,-2.3639522669596e-08,4.7839534342969e-09,-5.3621475106037e-09,-0.0013103750025748,0.0013103935409544,-0.0013103906717054,0.0013103779949484,-0.0013103782806964,0.00131039018417,-0.0013103939378745,0.0013103745702645,-0.0011743103248126,0.0011743524387784,-0.0011743562385825,0.0011743065147001,-4.436201896136e-09,5.7025791507096e-09,1.0242771326367e-08,-9.1940912401178e-09,-0.001696915662529,0.0016969167655393,-0.0018155519274638,0.0018155560640467,-0.0018155582681894,0.0018155495712284,-0.0018155485938736,0.0018155594426536,-0.0018155549494547,0.0018155529363297,-0.001554680184795,0.0015547036761472,-0.0015546989891819,0.0015546843376555,-0.0015546993274353,0.0015546841121038,-0.0015546894387613,0.0015546942174928,-2.1795397411243e-08,2.5059546518646e-08,-0.0011853510510825,0.0011853542630422,-7.8241961681778e-09,1.1436982517525e-08,-0.0013103937465622,0.0013103747906134,-0.0013103873586086,0.001310381230806,-0.00131037809829,0.0013103904087263,-0.0013103717333277,0.0013103968159301,-0.0011743035850601,0.0011743591599115,-0.0011743494788302,0.0011743133582527,0.67837702835326,128566,2924,0.0049278479994723,0.0070443314736441,0.004927847999431,25.339451394151,-3.7284388846792e-05,-3.7284388846792e-05,-3.7284388846792e-05,2739204.574772,0.017044694567908
30019200,0.99626978555037,0.016973900343622,0.0051297253755893,0.0067144495925233,0.005129725375509,-0.001185941398667,0.0011859409691223,2.3385142309433e-08,-2.3796140342636e-08,4.783230837357e-09,-5.3613772634872e-09,-0.0013109666572286,0.0013109852974038,-0.0013109824287905,0.001310969649303,-0.0013109699325916,0.0013109819434285,-0.0013109856967562,0.0013109662227703,-0.0011748927541994,0.0011749351822812,-0.0011749389820004,0.0011748889449895,-4.4388172334157e-09,5.7054322726075e-09,1.0265794100625e-08,-9.2169172656808e-09,-0.0016975976224958,0.0016975987257088,-0.0018162823087127,0.001816286456635,-0.0018162886622274,0.0018162799507172,-0.0018162789710395,0.0018162898393784,-0.0018162853440223,0.0018162833153223,-0.0015553204985456,0.0015553440436551,-0.0015553393545166,0.0015553246532613,-0.001555339674619,0.0015553244455995,-0.0015553297875835,0.0015553345498013,-2.1978925480211e-08,2.5254513570302e-08,-0.0011859395721181,0.0011859427956474,-7.8688182241223e-09,1.149400738519e-08,-0.0013109855274964,0.0013109664209481,-0.001310979103583,0.0013109728971022,-0.00131096975091,0.0013109821673835,-0.001310963354599,0.0013109886059454,-0.0011748859673911,0.0011749419508989,-0.0011749322248304,0.0011748957855286,0.68873089473099,128566,2924,0.0049302882363095,0.0070471530195017,0.0049302882362609,25.590344570907,-3.5277243432742e-05,-3.5277243432742e-05,-3.5277243432742e-05,2742575.0075052,0.017052527697011
30219200,0.9964083140934,0.016976079870851,0.0051303720885378,0.0067153356938556,0.0051303720884575,-0.0011865291518906,0.0011865287220585,2.3571377636674e-08,-2.3982635989633e-08,4.7850272189825e-09,-5.3634426726256e-09,-0.0013115762443421,0.0013115950114295,-0.0013115921419054,0.0013115792374059,-0.0013115795227531,0.0013115916545048,-0.001311595409357,0.0013115758112776,-0.0011754795328204,0.0011755223194521,-0.0011755261205957,0.0011754757219793,-4.4376662451071e-09,5.7041833057626e-09,1.0317636732751e-08,-9.2688548312003e-09,-0.0016982938035288,0.0016982949066431,-0.0018170167108943,0.0018170208954551,-0.0018170230999325,0.0018170143531277,-0.001817013375753,0.0018170242756871,-0.001817019780705,0.0018170177186326,-0.0015559754071051,0.0015559990481615,-0.0015559943591005,0.0015559795601045,-0.0015559946493432,0.0015559793830297,-0.0015559847596193,0.0015559894899596,-2.213446342475e-08,2.5417997159233e-08,-0.0011865273211693,0.0011865305527564,-7.8906161295054e-09,1.1524317759457e-08,-0.0013115952351227,0.0013115760145066,-0.0013115887955618,0.0013115825063097,-0.0013115793539045,0.0013115918655477,-0.0013115729384865,0.0013115983232172,-0.0011754727539544,0.0011755290799361,-0.0011755193287274,0.0011754825974376,0.66008312081235,128566,2924,0.0049327257044742,0.0070500328333367,0.0049327257044262,25.841181808941,-3.3270545528475e-05,-3.3270545528475e-05,-3.3270545528475e-05,2744281.497095,0.017060414905825
30419200,0.9965439607322,0.016978098051655,0.005130967753448,0.0067161625448398,0.0051309677533677,-0.0011871780292957,0.0011871775999982,2.3738686330733e-08,-2.4149436211941e-08,4.7829956437369e-09,-5.3609318010369e-09,-0.0013122058056603,0.0013122246823562,-0.0013122218138044,0.0013122087978724,-0.0013122090816864,0.0013122213277919,-0.0013122250806153,0.0013122053723721,-0.0011761076306727,0.0011761507489533,-0.0011761545482734,0.0011761038220531,-4.4366596262703e-09,5.7031061098466e-09,1.0327055596893e-08,-9.2783457214365e-09,-0.0016989969261733,0.0016989980292042,-0.001817783620667,0.0018177878112734,-0.0018177900150642,0.0018177812633947,-0.0018177802853547,0.0018177911916633,-0.0018177866974018,0.0018177846273871,-0.00155663119554,0.0015566548569183,-0.0015566501683482,0.0015566353475392,-0.001556650448552,0.0015566351805782,-0.0015566405635953,0.0015566452831028,-2.2310858241039e-08,2.559932433043e-08,-0.0011871761963413,0.0011871794329312,-7.9094793604231e-09,1.1548580593623e-08,-0.0013122249160074,0.0013122055659106,-0.0013122184612804,0.0013122120728577,-0.00131220891472,0.0013122215370423,-0.0013122024858751,0.0013122280081197,-0.001176100834313,0.0011761575272053,-0.0011761477567706,0.0011761106968714,0.62526526884683,128566,2924,0.0049354156121181,0.0070529426359362,0.0049354156120742,26.129083127619,-3.0967334979045e-05,-3.0967334979045e-05,-3.0967334979045e-05,2749650.4229195,0.017068845590709
30619200,0.99667751052036,0.016980209451243,0.0051315949385732,0.0067170195741766,0.0051315949384929,-0.0011880333414722,0.001188032913378,2.3916310866399e-08,-2.4325860663965e-08,4.7795012377202e-09,-5.3561697680432e-09,-0.0013129907963345,0.0013130097901149,-0.0013130069230094,0.0013129937869039,-0.001312994070229,0.0013130064375623,-0.0013130101864574,0.001312990364861,-0.0011769262384146,0.0011769697053499,-0.0011769735007062,0.0011769224337157,-4.4321181647736e-09,5.6981480836051e-09,1.0286198999505e-08,-9.2378819029902e-09,-0.001699841294273,0.0016998423969036,-0.0018187196587631,0.0018187238258875,-0.0018187260273083,0.0018187173045586,-0.0018187163272202,0.0018187272024217,-0.0018187227120522,0.001818720666055,-0.0015574275731146,0.0015574511491347,-0.001557446464662,0.0015574317222062,-0.001557446766926,0.001557431532842,-0.0015574368892118,0.0015574416279559,-2.2485167917544e-08,2.5762940077845e-08,-0.0011880315145049,0.0011880347403191,-7.8731704341064e-09,1.1500754710537e-08,-0.0013130100125203,0.0013129905677268,-0.0013130035863995,0.001312997046058,-0.0013129938992222,0.0013130066508918,-0.0013129874976287,0.0013130130946762,-0.001176919469288,0.0011769764563614,-0.0011769667245437,0.0011769292932155,0.66318229746289,128566,2924,0.0049389603261195,0.0070564382878053,0.0049389603260658,26.523177909356,-2.7814576725155e-05,-2.7814576725155e-05,-2.7814576725155e-05,2759077.5547869,0.017079610160953
30819200,0.9968088854858,0.016982380309113,0.0051322424815658,0.006717895346062,0.0051322424814855,-0.0011889127518265,0.0011889123247477,2.4088784156113e-08,-2.4497321597913e-08,4.776200403711e-09,-5.3517802977267e-09,-0.0013138679007346,0.0013138870075345,-0.0013138841419048,0.0013138708896812,-0.0013138711719594,0.0013138836575966,-0.0013138874029538,0.0013138674701378,-0.0011777996314408,0.0011778434389406,-0.0011778472307679,0.0011777958303336,-4.4286484120663e-09,5.6943327790424e-09,1.0255631638434e-08,-9.2076257381188e-09,-0.0017007792172726,0.0017007803195953,-0.0018197100279078,0.0018197141769255,-0.0018197163764856,0.001819707676089,-0.0018197066986465,0.0018197175511124,-0.0018197130636878,0.0018197110350525,-0.0015583223113126,0.0015583458251719,-0.0015583411441287,0.0015583264583144,-0.0015583414609195,0.0015583262540661,-0.0015583315905072,0.0015583363416198,-2.2663239506286e-08,2.5932895768199e-08,-0.001188910929461,0.0011889141470901,-7.8453600139898e-09,1.1464234690421e-08,-0.0013138872248078,0.0013138676771954,-0.0013138808199235,0.0013138741342943,-0.0013138709954339,0.0013138838764357,-0.0013138646152739,0.001313890298798,-0.0011777928770449,0.0011778501752054,-0.0011778404728433,0.0011778026715674,0.69236327682947,128566,2924,0.0049426066390905,0.0070603188826171,0.0049426066390434,26.919936158093,-2.4640510735252e-05,-2.4640510735252e-05,-2.4640510735252e-05,2762129.5776422,0.017090974177938
31019200,0.99693799011216,0.016984576328115,0.0051328991805083,0.0067187779671784,0.005132899180428,-0.0011898004355252,0.0011898000089953,2.4261099008825e-08,-2.4669204642644e-08,4.7736870977867e-09,-5.3488872209906e-09,-0.0013148010630703,0.0013148202833703,-0.0013148174187957,0.0013148040509093,-0.0013148043323469,0.0013148169353639,-0.0013148206782389,0.0013148006330216,-0.0011787040800673,0.0011787482272342,-0.0011787520168925,0.0011787002812147,-4.4261746083451e-09,5.6915430393258e-09,1.0232146868525e-08,-9.1844318798517e-09,-0.0017017801095221,0.0017017812115721,-0.0018207329697564,0.0018207371046781,-0.0018207393029443,0.0018207306196196,-0.0018207296420995,0.0018207404773084,-0.0018207359920706,0.0018207339767124,-0.0015592854711376,0.0015593089375991,-0.0015593042588208,0.0015592896163182,-0.0015593045865676,0.0015592894005243,-0.0015592947222308,0.0015592994828523,-2.2839909301949e-08,2.6103978019012e-08,-0.0011897986162489,0.0011898018282554,-7.8265099678458e-09,1.1439478476355e-08,-0.0013148204974341,0.0013148008426895,-0.0013148141068892,0.0013148072854504,-0.0013148041520246,0.0013148171580224,-0.0013147977865115,0.0013148235657362,-0.0011786973357095,0.001178754953813,-0.0011787452712662,0.0011787071098574,0.71215831619893,128566,2924,0.0049462884320469,0.0070644584730925,0.0049462884320142,27.316798566409,-2.1465611468729e-05,-2.1465611468729e-05,-2.1465611468729e-05,2760897.662117,0.017102674697736
31219200,0.99706584117374,0.016986855681152,0.005133583408004,0.006719688865224,0.0051335834079237,-0.0011909786858472,0.0011909782608067,2.4435188813652e-08,-2.4841709945077e-08,4.767606554806e-09,-5.3410413363828e-09,-0.0013160562756115,0.0013160756082233,-0.0013160727468539,0.001316059260053,-0.0013160595402338,0.0013160722646026,-0.0013160760016449,0.0013160558469539,-0.0011799208361832,0.0011799653284895,-0.0011799691122918,0.0011799170438491,-4.4261438069332e-09,5.6916251367001e-09,1.013090734197e-08,-9.0830692366462e-09,-0.0017031188230683,0.0017031199251688,-0.0018220714686856,0.0018220755366546,-0.0018220777359509,0.0018220691192806,-0.0018220681410797,0.0018220789092164,-0.0018220744249075,0.0018220724764567,-0.0015605905273852,0.0015606137949357,-0.0015606091179255,0.0015605946748973,-0.0015606095110127,0.0015605943924124,-0.0015605996461103,0.0015606044748358,-2.3020388985446e-08,2.6268986728916e-08,-0.0011909768751433,0.001190980071488,-7.7827357572943e-09,1.1379096036887e-08,-0.0013160758140187,0.0013160560634186,-0.0013160694581497,0.0013160624713919,-0.0013160593535335,0.0013160724938141,-0.0013160530225077,0.0013160788669593,-0.0011799141199491,0.0011799720270795,-0.0011799623943923,0.0011799238446078,0.74546029103902,128566,2924,0.0049511757981608,0.0070699945811284,0.0049511757981142,27.866096038516,-1.7071231691875e-05,-1.7071231691875e-05,-1.7071231691875e-05,2757824.8236792,0.017118248662898
31419200,0.99719239452388,0.016989009226671,0.0051342271020457,0.0067205550226595,0.0051342271019654,-0.0011921810523439,0.0011921806264863,2.4606179021956e-08,-2.5013522177879e-08,4.7724516598281e-09,-5.3468048241946e-09,-0.0013173864505573,0.0013174058999138,-0.0013174030354964,0.0013173894374549,-0.0013173897185307,0.0013174025530628,-0.0013174062941186,0.0013173860205523,-0.0011811825351264,0.001181227359564,-0.0011812311468409,0.0011811787374698,-4.4175421340613e-09,5.6821151245774e-09,1.013148365207e-08,-9.0844507332659e-09,-0.0017045529795419,0.00170455408087,-0.0018234754745397,0.0018234795485447,-0.0018234817423185,0.0018234731303844,-0.0018234721526081,0.001823482915229,-0.0018234784375002,0.0018234764811454,-0.0015619966456968,0.0015620199085518,-0.0015620152382934,0.0015620007859876,-0.0015620156187007,0.0015620005168124,-0.0015620057722821,0.0015620105803938,-2.32051306224e-08,2.6433530991847e-08,-0.0011921792514059,0.0011921824274029,-7.6925173721099e-09,1.126692459681e-08,-0.0013174060818419,0.0013173862619671,-0.0013173997931546,0.0013173926028595,-0.0013173895046225,0.0013174028090353,-0.0013173832412688,0.0013174091145477,-0.0011811758578156,0.001181234018181,-0.00118122447351,0.0011811854946864,0.71242629622203,128566,2924,0.0049561642224432,0.0070759239466131,0.0049561642223995,28.434154986141,-1.2526760110873e-05,-1.2526760110873e-05,-1.2526760110873e-05,2751741.4265503,0.017134429321007
31619200,0.99731746564046,0.016991039971779,0.0051348314575503,0.0067213770567586,0.00513483145747,-0.0011933645480379,0.0011933641231385,2.4781527829681e-08,-2.5187975491933e-08,4.7660240589332e-09,-5.3395287294743e-09,-0.0013186441720167,0.0013186637348827,-0.0013186608741177,0.0013186471555863,-0.0013186474356775,0.0013186603921678,-0.0013186641279214,0.001318643743728,-0.001182402665693,0.0011824478372709,-0.001182451619795,0.0011823988744164,-4.4234700167333e-09,5.6886692399419e-09,1.0057550543735e-08,-9.0099466430794e-09,-0.0017059137704022,0.0017059148722928,-0.0018248355039693,0.0018248395252359,-0.0018248417233857,0.0018248331569382,-0.0018248321782834,0.0018248428958485,-0.0018248384141175,0.0018248365123412,-0.0015633220072682,0.00156334512858,-0.0015633404549684,0.0015633261537078,-0.0015633408913275,0.0015633258263673,-0.0015633310324119,0.0015633359039291,-2.3375659153149e-08,2.6605300627875e-08,-0.0011933627469795,0.0011933659241738,-7.7142028465159e-09,1.1290271431972e-08,-0.0013186639240511,0.0013186439763481,-0.0013186576204517,0.0013186503321308,-0.0013186472331471,0.0013186606371397,-0.0013186409542004,0.0013186669582638,-0.0011823959860496,0.0011824544992215,-0.0011824449375405,0.0011824056393417,0.68057766474537,128566,2924,0.0049610730347765,0.0070815513435742,0.0049610730347293,29.002736827307,-7.9781053815421e-06,-7.9781053815421e-06,-7.9781053815421e-06,2750968.3383297,0.017150140249052
31819200,0.9974387601861,0.016992942408381,0.0051353957733173,0.0067221508618269,0.005135395773237,-0.0011939606431234,0.0011939602168212,2.4962441712077e-08,-2.5370203402736e-08,4.7689262584366e-09,-5.3436225636458e-09,-0.0013192576726892,0.001319277357966,-0.0013192744971108,0.0013192606578062,-0.0013192609394006,0.0013192740124134,-0.0013192777526379,0.0013192572440841,-0.0011830004413379,0.0011830459628986,-0.0011830497508065,0.0011829966480001,-4.4393675348985e-09,5.7059722933455e-09,1.0162968850101e-08,-9.1141321806945e-09,-0.0017066076990173,0.0017066088022088,-0.0018255621972673,0.0018255662796689,-0.0018255684867015,0.0018255598400567,-0.001825558861431,0.0018255696607356,-0.0018255651660528,0.0018255632069993,-0.0015639796687733,0.001564003006269,-0.0015639983190508,0.0015639838262978,-0.0015639987112169,0.0015639835437604,-0.0015639888173763,0.0015639936553874,-2.3512719203162e-08,2.6797099136306e-08,-0.0011939588137588,0.001193962046165,-7.9277550902297e-09,1.1562955999119e-08,-0.0013192775941707,0.001319257430696,-0.0013192711301199,0.0013192639469711,-0.0013192607942021,0.0013192742005577,-0.0013192543536938,0.0013192806833658,-0.0011829936678167,0.0011830527203924,-0.0011830429432509,0.0011830035367275,0.65805652772915,128566,2924,0.0049635448887722,0.0070844217298406,0.0049635448887298,29.265411104502,-5.8767111639814e-06,-5.8767111639814e-06,-5.8767111639814e-06,2753597.2538368,0.017158088617522
32019200,0.99755468041767,0.016994930275791,0.0051359903912972,0.0067229494932771,0.0051359903912169,-0.0011940947186303,0.0011940942876862,2.512909997094e-08,-2.5541456189342e-08,4.7873414166346e-09,-5.3670189310204e-09,-0.0013193631938247,0.0013193830006901,-0.0013193801309442,0.001319366188533,-0.0013193664743418,0.0013193796418447,-0.0013193834001589,0.0013193627603666,-0.0011831162561174,0.0011831620907165,-0.0011831658969529,0.0011831124441996,-4.4467084799906e-09,5.7140452885446e-09,1.0481673472541e-08,-9.4322155152317e-09,-0.0017067721658299,0.0017067732696483,-0.0018257795024721,0.001825783790977,-0.0018257859996089,0.0018257771378773,-0.0018257761613324,0.0018257871774009,-0.0018257826742025,0.0018257805097132,-0.001564112272536,0.0015641362419091,-0.0015641315425665,0.0015641164294247,-0.0015641317399527,0.0015641163472507,-0.0015641218316034,0.001564126473306,-2.3660648673509e-08,2.7003054710606e-08,-0.0011940928575768,0.0011940961487215,-8.0997633342018e-09,1.1797191958698e-08,-0.0013193832740659,0.0013193629150292,-0.0013193766745797,0.0013193695667103,-0.0013193663557927,0.001319379803079,-0.0013193597803693,0.001319386420774,-0.0011831093698944,0.0011831689607239,-0.0011831589912797,0.0011831194313432,0.71766338532912,128566,2924,0.0049641000955358,0.0070851031250507,0.0049641000954986,29.280951977291,-5.7523841816732e-06,-5.7523841816732e-06,-5.7523841816732e-06,2757612.2153773,0.017159910529122
32219200,0.99766541967101,0.016996871851419,0.0051365721726252,0.006723727506249,0.0051365721725449,-0.0011942252428606,0.0011942248099116,2.5296516849712e-08,-2.5710850848979e-08,4.7929517470094e-09,-5.3747432938112e-09,-0.001319555729179,0.001319575650343,-0.0013195727786247,0.0013195587267224,-0.0013195590137794,0.0013195722876746,-0.0013195760525164,0.0013195552935789,-0.0011832697270328,0.0011833158865735,-0.0011833196994401,0.0011832659091155,-4.4583168811267e-09,5.726799517147e-09,1.0650606996914e-08,-9.6001205287312e-09,-0.0017070346893815,0.0017070357942108,-0.0018260381187548,0.0018260425107299,-0.0018260447250571,0.0018260357456593,-0.0018260347691678,0.0018260459057634,-0.0018260413921319,0.0018260391252657,-0.0015643510485762,0.0015643753593953,-0.0015643706479935,0.0015643552116345,-0.0015643707511931,0.0015643552256031,-0.0015643608205131,0.0015643653746247,-2.381544852938e-08,2.7203210448553e-08,-0.0011942233578897,0.0011942266948578,-8.2578755959219e-09,1.2004241722956e-08,-0.0013195759643856,0.0013195554101409,-0.001319569242855,0.0013195621838521,-0.0013195589274066,0.0013195724168674,-0.0013195522308348,0.001319579155745,-0.0011832627469899,0.0011833228506995,-0.0011833127144625,0.0011832729752223,0.73340851745814,128566,2924,0.0049646428677884,0.0070861873499723,0.0049646428677378,29.290196991111,-5.6784240711085e-06,-5.6784240711085e-06,-5.6784240711085e-06,2753405.1016608,0.017162118375608
32419200,0.9977712047246,0.016998772591589,0.0051371427844705,0.0067244870227285,0.0051371427843902,-0.0011943477984577,0.0011943473639058,2.5467482003855e-08,-2.5883406339111e-08,4.7992634301421e-09,-5.3827600436108e-09,-0.0013197595618701,0.0013197796006767,-0.0013197767259837,0.0013197625627697,-0.0013197628513164,0.0013197762334223,-0.0013197800045033,0.0013197591246704,-0.0011834263281091,0.001183472817849,-0.0011834766368812,0.0011834225036255,-4.4601838612093e-09,5.7287799027064e-09,1.0776082344552e-08,-9.7254998719489e-09,-0.0017073175661747,0.001707318671103,-0.0018263021015322,0.0018263065748731,-0.0018263087892974,0.0018262997261523,-0.0018262987506286,0.0018263099712514,-0.0018263054551371,0.0018263031070137,-0.0015646146780201,0.0015646392364558,-0.0015646345214931,0.0015646188401512,-0.0015646345466844,0.0015646189340243,-0.0015646246124347,0.0015646290867197,-2.3978134163008e-08,2.7388759073335e-08,-0.0011943459010877,0.0011943492612502,-8.3317356330191e-09,1.2102730136805e-08,-0.0013197799312416,0.0013197592265025,-0.001319773152472,0.0013197660574493,-0.0013197627781419,0.0013197763493192,-0.0013197560244001,0.0013197831453483,-0.0011834193027667,0.0011834798270413,-0.0011834696110521,0.0011834296108539,0.75109425412705,128566,2924,0.0049651530721744,0.0070873551184719,0.0049651530721223,29.2991945107,-5.6064439144e-06,-5.6064439144e-06,-5.6064439144e-06,2747951.1865957,0.017164345230374
32619200,0.99787199675401,0.01700044868,0.0051376424546617,0.0067251637707565,0.0051376424545814,-0.0011943664210261,0.0011943659866367,2.5645582783811e-08,-2.6061344579239e-08,4.7986713801517e-09,-5.3819858540853e-09,-0.0013198813179351,0.0013199014757831,-0.0013198986013703,0.0013198843185383,-0.0013198846075577,0.0013198981083949,-0.0013199018788231,0.0013198808814225,-0.0011834859081035,0.0011835327454004,-0.0011835365635528,0.0011834820839217,-4.455883124888e-09,5.7240118087801e-09,1.0797945469413e-08,-9.7477752549218e-09,-0.0017075261994655,0.001707527303969,-0.0018264784841741,0.0018264829750691,-0.0018264851867183,0.0018264761110756,-0.0018264751367542,0.0018264863678058,-0.0018264818549509,0.0018264794895053,-0.0015648069729633,0.0015648315695194,-0.0015648268576977,0.0015648111313782,-0.0015648268644264,0.0015648112439876,-0.0015648169375436,0.0015648213895153,-2.4145458818403e-08,2.7557112935374e-08,-0.0011943645231909,0.0011943678844464,-8.3409927898664e-09,1.2113258541617e-08,-0.0013199018052123,0.0013198809837161,-0.0013198950204944,0.0013198878205846,-0.0013198845408606,0.0013198982177702,-0.0013198777799756,0.0013199050208893,-0.0011834788874198,0.0011835397495901,-0.0011835295260909,0.0011834892031319,0.69653886265939,128566,2924,0.0049652328108209,0.0070882150099575,0.0049652328107687,29.262952404175,-5.8963807666029e-06,-5.8963807666029e-06,-5.8963807666029e-06,2741241.5517769,0.017165383650198
32819200,0.99796791988592,0.017001921371348,0.0051380782001774,0.0067257649710737,0.0051380782000972,-0.0011943214023061,0.0011943209695603,2.5801961475803e-08,-2.6216098021794e-08,4.790342002125e-09,-5.3718616459024e-09,-0.001319852911236,0.0013198731664618,-0.0013198702964409,0.0013198559072381,-0.0013198561929662,0.0013198698069672,-0.001319873569644,0.0013198524745224,-0.0011834418718717,0.0011834890266632,-0.001183492836931,0.00118343805532,-4.451582784731e-09,5.719289771741e-09,1.0738291848143e-08,-9.6884987976592e-09,-0.0017075696467501,0.0017075707508858,-0.0018265385828896,0.0018265430352999,-0.0018265452448638,0.0018265362129702,-0.001826535236633,0.0018265464268461,-0.0018265419177831,0.0018265395866015,-0.0015648280901205,0.0015648525717463,-0.0015648478642273,0.0015648322460984,-0.0015648478983398,0.0015648323308785,-0.0015648379852124,0.0015648424620778,-2.434135217122e-08,2.7741808635431e-08,-0.0011943195109623,0.0011943228608774,-8.2808581689966e-09,1.2040614877969e-08,-0.0013198734949736,0.0013198525778192,-0.0013198667525819,0.0013198593724044,-0.0013198561019526,0.001319869940594,-0.0013198493869594,0.0013198766978568,-0.0011834348536924,0.0011834960282512,-0.00118348585987,0.0011834451142042,0.64446135306578,128566,2924,0.0049650465315572,0.0070883942014046,0.0049650465315026,29.204514009847,-6.3638879212228e-06,-6.3638879212228e-06,-6.3638879212228e-06,2741772.986495,0.017165187070197
33019200,0.99805921990018,0.017003437052244,0.0051385301965656,0.0067263766591928,0.0051385301964854,-0.0011942758067652,0.0011942753750023,2.5989520278459e-08,-2.6402686162765e-08,4.7857255873978e-09,-5.3660321232844e-09,-0.001319740256241,0.001319760635097,-0.0013197577674297,0.0013197432494401,-0.0013197435358873,0.0013197572774983,-0.001319761035777,0.0013197398217767,-0.0011833624433755,0.0011834099647472,-0.0011834137704653,0.0011833586310329,-4.4426273047266e-09,5.709485946947e-09,1.0644557977649e-08,-9.5955365060052e-09,-0.0017075056971868,0.0017075068005476,-0.0018265378630453,0.0018265422606962,-0.0018265444656292,0.0018265354993929,-0.0018265345244151,0.001826545644445,-0.0018265411431373,0.0018265388681833,-0.0015647392850759,0.0015647635721348,-0.0015647588736477,0.0015647434360975,-0.0015647589596673,0.0015647434675494,-0.0015647490603935,0.0015647535841848,-2.4507556671283e-08,2.789320403048e-08,-0.0011942739234353,0.0011942772583074,-8.1979453709845e-09,1.1941021780736e-08,-0.0013197609308836,0.0013197399553186,-0.0013197542505876,0.001319746687807,-0.0013197434335103,0.0013197574224743,-0.001319736777635,0.0013197641205893,-0.0011833554884799,0.0011834169029043,-0.0011834068097944,0.0011833656737969,0.69524135113272,128566,2924,0.0049648558630495,0.0070881317504719,0.0049648558629989,29.145503848777,-6.8359692097853e-06,-6.8359692097853e-06,-6.8359692097853e-06,2748408.2084606,0.01716453090592
33219200,0.9981461325046,0.017004952183155,0.0051389839667532,0.0067269842497291,0.005138983966673,-0.001194245764009,0.0011942453333643,2.6160408711894e-08,-2.6572461529007e-08,4.7793824018689e-09,-5.3585362355139e-09,-0.001319724499077,0.0013197449877478,-0.0013197421232758,0.001319727488571,-0.001319727773774,0.0013197416349426,-0.0013197453874544,0.0013197240653084,-0.001183334518525,0.0011833823799692,-0.0011833861797893,0.0011833307117467,-4.4364201540566e-09,5.7027004845912e-09,1.0542549172301e-08,-9.494039156856e-09,-0.0017075413404422,0.0017075424432828,-0.0018265889612977,0.0018265932952289,-0.0018265954972509,0.0018265866022793,-0.0018265856266137,0.0018265966749107,-0.0018265921793038,0.001826589966445,-0.0015647555492723,0.0015647796326044,-0.0015647749408032,0.0015647596973165,-0.0015647750828395,0.0015647596713159,-0.0015647651973218,0.0015647697743525,-2.4691652505176e-08,2.806017037811e-08,-0.0011942438899293,0.0011942472074163,-8.1045348053778e-09,1.1828437371659e-08,-0.0013197452614293,0.001319724220016,-0.0013197386492525,0.0013197308843953,-0.0013197276467572,0.0013197418044821,-0.0013197210595814,0.0013197484338971,-0.0011833276047747,0.0011833892767526,-0.0011833792690467,0.0011833377047035,0.72922790447688,128566,2924,0.0049647317042645,0.0070882788181818,0.0049647317042076,29.08647117271,-7.308230618319e-06,-7.308230618319e-06,-7.308230618319e-06,2747611.2403271,0.017164427965624
33419200,0.99823021844364,0.01700644602484,0.0051394320182517,0.0067275819884168,0.0051394320181715,-0.0011947468167853,0.0011947463872159,2.6329520754244e-08,-2.6740497550125e-08,4.7793057699453e-09,-5.3574446261559e-09,-0.0013202974427277,0.0013203180435714,-0.0013203151781151,0.0013203004326523,-0.0013203007158432,0.0013203146917915,-0.0013203184430602,0.0013202970091685,-0.0011838688578466,0.0011839170535602,-0.001183920852259,0.0011838650529993,-4.4475248170521e-09,5.7148656283661e-09,1.026407584447e-08,-9.2146148021959e-09,-0.0017081925859966,0.0017081936897902,-0.0018272232715767,0.0018272274133127,-0.0018272296245399,0.0018272209082026,-0.0018272199284279,0.0018272308017495,-0.0018272262999055,0.0018272242792989,-0.0015653894750356,0.0015654130224192,-0.0015654083268491,0.0015653936368201,-0.0015654086602018,0.0015653934148485,-0.001565398754748,0.0015654035384944,-2.4903369069783e-08,2.8203340383826e-08,-0.0011947449778244,0.0011947482261498,-7.9537927703259e-09,1.160558052833e-08,-0.0013203182928416,0.0013202971877846,-0.0013203118037587,0.0013203037290432,-0.0013203005589729,0.0013203148914735,-0.0013202940967131,0.0013203213959959,-0.0011838620350671,0.0011839238599055,-0.0011839140440666,0.0011838719428714,0.74278652255064,128566,2924,0.0049668110148104,0.0070909708025534,0.0049668110147551,29.31156371066,-5.5074903147231e-06,-5.5074903147231e-06,-5.5074903147231e-06,2744433.6324411,0.017171397160531
33619200,0.99831186909542,0.01700789714049,0.0051398671484217,0.0067281628437268,0.0051398671483415,-0.0011953890076501,0.0011953885777238,2.6503952414697e-08,-2.69152850941e-08,4.7811205143498e-09,-5.3596608638632e-09,-0.0013210312880407,0.0013210520065999,-0.0013210491396522,0.0013210342784665,-0.0013210345626645,0.0013210486529905,-0.0013210524058388,0.0013210308541603,-0.001184555745546,0.0011846042805788,-0.0011846080807126,0.0011845519387154,-4.4453132105563e-09,5.7123922462792e-09,1.0074809449546e-08,-9.0255790331677e-09,-0.0017090111416217,0.0017090122452042,-0.0018280129153652,0.0018280169342636,-0.0018280191456112,0.0018280105550195,-0.0018280095741046,0.0018280203207698,-0.0018280158222415,0.0018280139247856,-0.0015661924171002,0.0015662155904582,-0.001566210899961,0.0015661965801905,-0.0015662113529612,0.0015661962362186,-0.0015662014510448,0.0015662063559967,-2.5100922909877e-08,2.8348663664138e-08,-0.0011953871949128,0.0011953903904353,-7.7685938369673e-09,1.1364053820406e-08,-0.0013210522088388,0.0013210310796441,-0.0013210458618525,0.0013210374788634,-0.001321034360981,0.0013210488972987,-0.0013210280401707,0.0013210552604082,-0.001184549020883,0.0011846109885047,-0.0011846013665399,0.0011845587348513,0.74303041854132,128566,2924,0.0049694758990337,0.0070943543018114,0.0049694758989808,29.613201930037,-3.094384559703e-06,-3.094384559703e-06,-3.094384559703e-06,2740212.6720264,0.017180261450445
33819200,0.99839109534109,0.017009309423862,0.0051402906453106,0.0067287281333205,0.0051402906452304,-0.0011960242088364,0.0011960237778225,2.6685216941749e-08,-2.7097634653183e-08,4.7876768927408e-09,-5.3674159344805e-09,-0.0013217556830881,0.0013217765282476,-0.0013217736567987,0.0013217586764122,-0.0013217589640473,0.0013217731681396,-0.0013217769261628,0.0013217552490005,-0.0011852360541474,0.0011852849344156,-0.0011852887388819,0.0011852322397113,-4.435942775052e-09,5.7020898871268e-09,1.0040647916863e-08,-8.9922506791496e-09,-0.0017098263281122,0.0017098274308388,-0.00182880023678,0.0018288042412493,-0.0018288064469325,0.00182879788206,-0.0018287969035468,0.0018288076194439,-0.0018288031283588,0.0018288012467734,-0.0015669928554748,0.0015670159499978,-0.0015670112672331,0.0015669970114659,-0.0015670117348935,0.0015669966534562,-0.0015670018475718,0.0015670067584831,-2.5287773750874e-08,2.8490291310349e-08,-0.0011960224183749,0.0011960255682619,-7.5791145852519e-09,1.1125426257374e-08,-0.0013217766717887,0.0013217555326435,-0.0013217704691057,0.0013217617875157,-0.0013217587160653,0.0013217734580316,-0.0013217525362786,0.0013217796800693,-0.0011852294319575,0.0011852915380256,-0.0011852821042447,0.0011852389581096,0.74517768520806,128566,2924,0.0049721117410302,0.0070977238304394,0.0049721117409851,29.916857284462,-6.651417243016e-07,-6.651417243016e-07,-6.651417243016e-07,2736856.5328514,0.017189052473558
34019200,0.99846790154905,0.017010639147012,0.0051406882910925,0.0067292625649075,0.0051406882910123,-0.0011966489800971,0.0011966485508285,2.6847990987055e-08,-2.7258703856609e-08,4.7781312014966e-09,-5.3560286691183e-09,-0.0013224689873965,0.0013224899332755,-0.0013224870674752,0.0013224719759445,-0.0013224722593426,0.0013224865819682,-0.001322490331926,0.0013224685537082,-0.0011859054510927,0.0011859546628735,-0.0011859584594166,0.0011859016463477,-4.4431115966377e-09,5.7099203197949e-09,9.8562520260309e-09,-8.8072219151807e-09,-0.0017106350428096,0.0017106361461641,-0.0018295810194901,0.0018295848936662,-0.0018295871057308,0.0018295786621776,-0.0018295776793201,0.0018295882790432,-0.001829583784101,0.0018295820302111,-0.0015677868700578,0.0015678096132279,-0.0015678049282869,0.0015677910352959,-0.0015678055179066,0.0015677905515539,-0.0015677956213925,0.00156780066608,-2.5472746689789e-08,2.8673554827606e-08,-0.0011966471914524,0.0011966503394466,-7.6105906728555e-09,1.1155539995588e-08,-0.0013224901005125,0.0013224688136437,-0.0013224838748125,0.0013224750915321,-0.0013224720200984,0.0013224868638738,-0.0013224658211501,0.0013224931050622,-0.0011858988075445,0.0011859612889194,-0.0011859518346073,0.0011859083538007,0.7242654456561,128566,2924,0.0049747042901461,0.0071010665774661,0.0049747042900915,30.220592447043,1.7647395763475e-06,1.7647395763475e-06,1.7647395763475e-06,2733988.7695868,0.017197728237887
34219200,0.99854357817467,0.017011915318293,0.0051410689930567,0.0067297773322596,0.0051410689929764,-0.0011978443868207,0.001197843959797,2.7005673879484e-08,-2.7414169109282e-08,4.7684889507814e-09,-5.3440680955645e-09,-0.0013237252137101,0.0013237462574973,-0.0013237433981713,0.0013237281993263,-0.0013237284779875,0.001323742915,-0.0013237466585796,0.0013237247843367,-0.0011871409827022,0.0011871905152709,-0.0011871943067198,0.0011871371928868,-4.4384227049977e-09,5.7041261433324e-09,9.4870881743802e-09,-8.4390424542223e-09,-0.0017119931599704,0.0017119942631972,-0.0018309275594637,0.0018309311957024,-0.0018309334065307,0.0018309252136431,-0.0018309242219614,0.0018309345786318,-0.0018309300897294,0.0018309285762325,-0.0015691256179651,0.0015691476375874,-0.0015691429654706,0.0015691297821925,-0.0015691437798302,0.0015691290661349,-0.0015691338933562,0.0015691391630885,-2.5659463065971e-08,2.8866145808818e-08,-0.0011978425966713,0.0011978457499543,-7.7069710487953e-09,1.125885531731e-08,-0.0013237464714603,0.0013237249950295,-0.0013237401783848,0.0013237313424719,-0.0013237282628278,0.0013237431734404,-0.0013237219990603,0.00132374948156,-0.0011871342829426,0.0011871972025786,-0.0011871876770061,0.0011871438998974,0.70594348123256,128566,2924,0.0049796621426653,0.007106682933213,0.0049796621426832,30.831716753058,6.6537340244607e-06,6.6537340244607e-06,6.6537340244607e-06,2734955.0706639,0.017213528374174
34419200,0.99861813178191,0.017013177549937,0.0051414456367308,0.0067302862765555,0.0051414456366506,-0.0011991012334539,0.0011991008075621,2.7193549638993e-08,-2.760088265492e-08,4.7680070526354e-09,-5.3422282491235e-09,-0.0013250180252019,0.0013250391959003,-0.0013250363343446,0.0013250210085273,-0.0013250212892889,0.0013250358522422,-0.0013250395909855,0.0013250175949619,-0.0011884252264947,0.0011884751222325,-0.001188478910449,0.0011884214353959,-4.4261989199554e-09,5.6914560317485e-09,9.6693373006769e-09,-8.6217156052123e-09,-0.0017133801941466,0.0017133812959559,-0.0018323212272567,0.0018323249952343,-0.0018323271983341,0.0018323188818025,-0.0018323178989641,0.0018323283683035,-0.001832323888193,0.0018323222381287,-0.0015704892393042,0.0015705116067905,-0.0015705069385765,0.0015704933933742,-0.0015705076231523,0.0015704928107582,-0.0015704977616175,0.0015705028905297,-2.5840166319838e-08,2.9003361028006e-08,-0.0011990994655779,0.0011991025753701,-7.4894572769859e-09,1.0993616932431e-08,-0.0013250393380817,0.0013250178760457,-0.0013250332069866,0.0013250240593553,-0.0013250210254429,0.0013250361584051,-0.0013250149208431,0.0013250423056999,-0.0011884186515778,0.0011884816829298,-0.0011884723612475,0.0011884280647203,0.70867957932,128566,2924,0.0049848740146578,0.0071124197445555,0.0049848740145165,31.475481113667,1.1803848909335e-05,1.1803848909335e-05,1.1803848909335e-05,2738290.8031062,0.017229967710614
34619200,0.99869142792006,0.017014467863209,0.0051418319410126,0.006730803981264,0.0051418319409324,-0.0012003648123731,0.0012003643872305,2.7369183956585e-08,-2.7775792508829e-08,4.7639411322803e-09,-5.3374704832935e-09,-0.0013263219812048,0.0013263432668169,-0.0013263404072637,0.0013263249625006,-0.0013263252423291,0.0013263399256373,-0.0013263436611398,0.0013263215519772,-0.0011897185706363,0.0011897688132132,-0.0011897725970841,0.0011897147830459,-4.4229598580241e-09,5.6877670095633e-09,9.7001955829187e-09,-8.6529482798991e-09,-0.0017147739057914,0.0017147750073704,-0.0018337193635002,0.0018337231519389,-0.001833725352865,0.0018337170201714,-0.0018337160376404,0.0018337265226268,-0.0018337220448385,0.0018337203742138,-0.0015718600161638,0.0015718824413282,-0.0015718777753502,0.0015718641681862,-0.0015718784366375,0.0015718636103467,-0.0015718685806815,0.0015718736835603,-2.600588647249e-08,2.9179604765748e-08,-0.0012003630395541,0.0012003661600182,-7.5247595085269e-09,1.1040419040861e-08,-0.001326343416816,0.0013263218242084,-0.0013263372587028,0.0013263280346441,-0.0013263249904107,0.0013263402204666,-0.0013263188583782,0.0013263463948617,-0.0011897119822974,0.0011897753863346,-0.0011897660275719,0.0011897214329742,0.73613738116464,128566,2924,0.0049901138635645,0.0071181840706662,0.0049901138635003,32.120172974423,1.6961383795385e-05,1.6961383795385e-05,1.6961383795385e-05,2740919.2449236,0.017246492295597
34819200,0.99876445844901,0.017015764570628,0.0051422203463935,0.0067313238779213,0.0051422203463133,-0.0012021695079462,0.0012021690831123,2.7572786605708e-08,-2.7979114548573e-08,4.7694790855481e-09,-5.3427400541352e-09,-0.0013282147089443,0.0013282361387381,-0.0013282332748464,0.0013282176937465,-0.0013282179780235,0.0013282327896435,-0.001328236527971,0.0013282142837837,-0.001191581682078,0.0011916323078673,-0.0011916360935654,0.0011915778894001,-4.3956682841748e-09,5.6578060521441e-09,9.7229375745783e-09,-8.6780731097645e-09,-0.001716772652563,0.001716773751715,-0.0018356948552013,0.0018356986801163,-0.0018357008637629,0.0018356925276305,-0.0018356915520809,0.0018357020269798,-0.0018356975704402,0.0018356958669291,-0.001573836490792,0.0015738589282995,-0.0015738542840927,0.001573840621343,-0.0015738549048232,0.0015738401041059,-0.0015738450933066,0.0015738501338246,-2.61557229849e-08,2.9315631951765e-08,-0.0012021677422581,0.0012021708487733,-7.4573732126614e-09,1.0958115429027e-08,-0.0013282362439004,0.0013282145964183,-0.0013282301397031,0.0013282207528996,-0.0013282177267818,0.0013282330833071,-0.0013282116400193,0.0013282392122855,-0.0011915751705756,0.0011916388022882,-0.0011916295078022,0.0011915845574832,0.74236046683775,128566,2924,0.0049975983954004,0.0071264497587905,0.004997598395345,33.050476530744,2.4403812245954e-05,2.4403812245954e-05,2.4403812245954e-05,2741024.8483815,0.01727012940741
35019200,0.99883737623953,0.017017021602039,0.0051425957795847,0.0067318300429499,0.0051425957795045,-0.0012041598994614,0.001204159496912,2.7467224651443e-08,-2.7851295910883e-08,4.6432939614814e-09,-5.1919472895154e-09,-0.001330307939811,0.0013303291815016,-0.0013303263900633,0.0013303108561193,-0.0013303110794638,0.0013303259626692,-0.0013303295892546,0.0013303075016672,-0.0011936375436315,0.0011936881640975,-0.0011936918398231,0.0011936338717066,-4.5104135161396e-09,5.7841505057019e-09,9.4903774309545e-09,-8.4350273422341e-09,-0.0017189803402782,0.0017189814501737,-0.0018378747672588,0.0018378783260375,-0.0018378805832968,0.0018378723747054,-0.0018378713484171,0.0018378817932149,-0.0018378772471995,0.0018378757575555,-0.0015760202534701,0.0015760424253152,-0.001576037690479,0.0015760244765964,-0.0015760385151651,0.0015760237550859,-0.0015760285713024,0.0015760339105595,-2.6598322469426e-08,2.9799283769117e-08,-0.0012041581243035,0.0012041612720478,-7.6840217133524e-09,1.1229359591096e-08,-0.0013303296185423,0.0013303074969726,-0.001330323310515,0.0013303138578619,-0.001330310753408,0.0013303263330304,-0.0013303045382176,0.0013303325915743,-0.0011936305286081,0.0011936951693895,-0.0011936856628909,0.0011936401233711,0.72136487544244,128566,2924,0.0050058531293632,0.0071355792608939,0.0050058531293184,34.082371334432,3.2658970675455e-05,3.2658970675455e-05,3.2658970675455e-05,2741262.6592632,0.017296213164534
35219200,0.99890990319343,0.017018237619086,0.0051429579743819,0.006732321670402,0.0051429579743017,-0.0012061482813667,0.0012061478599133,2.7931820902251e-08,-2.83347616836e-08,4.7564807332712e-09,-5.3261024799899e-09,-0.0013323683319797,0.0013323899949042,-0.0013323871375229,0.001332371310205,-0.0013323715917718,0.0013323866549373,-0.0013323903802886,0.0013323679110029,-0.0011956771209231,0.001195728460568,-0.0011957322360371,0.0011956733430649,-4.390633871855e-09,5.652315708635e-09,9.8126201051326e-09,-8.7681581460226e-09,-0.0017211512406753,0.00172115233945,-0.0018400372159956,0.0018400411097991,-0.0018400432881308,0.001840034893468,-0.0018400339200562,0.0018400444504369,-0.0018400399984118,0.0018400382279502,-0.0015781637521835,0.0015781863649353,-0.0015781817257158,0.0015781678792345,-0.0015781822771076,0.0015781674279816,-0.0015781724800252,0.0015781774471458,-2.6483884438407e-08,2.9658543298546e-08,-0.0012061465099352,0.0012061496313224,-7.4941254791402e-09,1.1010263068439e-08,-0.0013323901020047,0.0013323682176523,-0.0013323839688283,0.0013323744028578,-0.0013323713624866,0.0013323869266349,-0.001332365245711,0.0013323930860096,-0.0011956706186207,0.0011957349493235,-0.0011957256101702,0.001195680047722,0.70214228578234,128566,2924,0.0050140986039759,0.0071445574113932,0.00501409860393,35.11692074677,4.0935365974159e-05,4.0935365974159e-05,4.0935365974159e-05,2744216.0284795,0.017322124274848
35419200,0.9989809045332,0.017019392195353,0.0051433008342194,0.0067327905269939,0.0051433008341393,-0.0012077149089912,0.0012077144737517,2.8322940332956e-08,-2.8739633388272e-08,4.8258993278345e-09,-5.4104389947438e-09,-0.0013339732487556,0.0013339952404248,-0.0013339923460659,0.0013339762646374,-0.0013339765869956,0.0013339918229606,-0.0013339956118973,0.0013339728406874,-0.001197273058612,0.0011973250296307,-0.0011973288658927,0.0011972692130504,-4.3496931638008e-09,5.6071878710242e-09,1.0164717589914e-08,-9.1240563254011e-09,-0.0017228500498651,0.0017228511449133,-0.0018417484793572,0.0018417526521585,-0.0018417548042206,0.0018417461762518,-0.0018417452356665,0.0018417559390961,-0.001841751514213,0.0018417495102712,-0.0015798330544655,0.0015798562448861,-0.0015798516271009,0.0015798371381638,-0.0015798519839109,0.0015798368975364,-0.0015798421825445,0.0015798469095707,-2.6412824694215e-08,2.9626363418371e-08,-0.0012077131108443,0.0012077162718891,-7.5803105038351e-09,1.1137796831183e-08,-0.001333995169024,0.0013339733133785,-0.001333988992079,0.0013339795426236,-0.0013339764898506,0.0013339919616866,-0.0013339702748215,0.0013339982187419,-0.0011972668222983,0.001197331246786,-0.0011973217987242,0.001197276364686,0.68162296850883,128566,2924,0.0050205945547571,0.0071515837349305,0.0050205945547377,35.929293031573,4.7434344252586e-05,4.7434344252586e-05,4.7434344252586e-05,2748648.2274646,0.017342490066965
35619200,0.99904957645159,0.017020467792648,0.0051436190776839,0.0067332296373606,0.0051436190776037,-0.0012089628112023,0.0012089623733423,2.8477450224113e-08,-2.889672593319e-08,4.8241414325682e-09,-5.4113214813138e-09,-0.0013352233052348,0.0013352453957342,-0.0013352425054315,0.0013352263190602,-0.0013352266429692,0.0013352419794086,-0.0013352457708586,0.0013352228949032,-0.0011985302129028,0.0011985824846797,-0.0011985863228488,0.0011985263659292,-4.3971744359276e-09,5.6593236554294e-09,1.039872875768e-08,-9.3539117636517e-09,-0.0017241763432952,0.0017241774425195,-0.0018431070954747,0.0018431113888771,-0.0018431135687323,0.0018431047603798,-0.0018431038174453,0.001843114710662,-0.0018431102460661,0.0018431081285828,-0.0015811281802987,0.0015811518606156,-0.0015811471973792,0.0015811322939344,-0.0015811474761138,0.0015811321406005,-0.001581137571548,0.0015811422505773,-2.6562907107537e-08,2.9857195904833e-08,-0.0012089609709316,0.0012089642136041,-7.875176724698e-09,1.1520003173622e-08,-0.0013352454123144,0.0013352232827345,-0.0013352390098204,0.0013352297375746,-0.0013352266043074,0.0013352420601076,-0.001335220164479,0.0013352485420626,-0.0011985237861681,0.0011985888924376,-0.0011985791383182,0.0011985336347494,0.65729898619941,128566,2924,0.0050257681964147,0.0071570702308102,0.0050257681963967,36.573832677815,5.2590661422519e-05,5.2590661422519e-05,5.2590661422519e-05,2754507.1811372,0.017358598562952
35819200,0.99911580549322,0.017021568340112,0.0051439466290367,0.0067336750821185,0.0051439466289565,-0.0012102112333152,0.0012102107960766,2.8520834565986e-08,-2.8939451710779e-08,4.80728035944e-09,-5.3936182449591e-09,-0.0013364323953889,0.0013364544901558,-0.0013364516113078,0.0013364353994064,-0.0013364357081058,0.001336451099269,-0.0013364548793311,0.0013364319723928,-0.0011997711353143,0.0011998235443167,-0.0011998273717518,0.0011997673016876,-4.4480947666405e-09,5.7152392531874e-09,1.0540323906928e-08,-9.4910504522766e-09,-0.001725442984495,0.001725444088175,-0.0018444281850498,0.001844432526381,-0.0018444347358754,0.0018444258182164,-0.0018444248585607,0.0018444358977695,-0.0018444313925914,0.0018444292081146,-0.0015823650533829,0.0015823890876518,-0.0015823843819353,0.0015823692048151,-0.0015823845999739,0.0015823691123178,-0.0015823746318965,0.0015823792883027,-2.6833807690054e-08,3.0192713262899e-08,-0.0012102093607385,0.0012102126686475,-8.1173207474819e-09,1.1832082164927e-08,-0.001336454672685,0.0013364322076057,-0.0013364480725474,0.0013364388601062,-0.0013364356488848,0.001336451201061,-0.001336429039455,0.0013364578528115,-0.0011997643777925,0.0011998302847688,-0.0011998202822494,0.0011997744735964,0.69619234599438,128566,2924,0.0050309430732467,0.0071623111523009,0.0050309430732352,37.214063029186,5.771250423349e-05,5.771250423349e-05,5.771250423349e-05,2761997.6190074,0.017374459282817
36019200,0.99917950634015,0.017022688752159,0.0051442817768977,0.0067341251984436,0.0051442817768175,-0.0012114724338906,0.001211471993483,2.8625803486677e-08,-2.904746397707e-08,4.818608788265e-09,-5.4081197857705e-09,-0.0013377180540808,0.0013377402137928,-0.0013377373299382,0.0013377210638003,-0.0013377213634127,0.0013377368266553,-0.0013377406185993,0.0013377176157267,-0.0012010529065395,0.0012011055487491,-0.0012011093881013,0.0012010490614175,-4.4593765519309e-09,5.727647642355e-09,1.0702269449956e-08,-9.651997016646e-09,-0.001726788455202,0.0017267895598826,-0.0018457910106028,0.0018457954395815,-0.0018457976545602,0.0018457886355988,-0.0018457876641777,0.0018457988311235,-0.0018457943157364,0.0018457920210333,-0.0015836851983713,0.0015837095944145,-0.0015837048782731,0.0015836893567333,-0.001583704971036,0.0015836893899456,-0.0015836950166242,0.0015836995537782,-2.7054302687074e-08,3.0451750598643e-08,-0.0012114705402499,0.0012114738871137,-8.2442226364222e-09,1.2000376465401e-08,-0.0013377404794209,0.0013377177835488,-0.001337733769179,0.0013377245461919,-0.0013377212843477,0.0013377369482186,-0.0013377145892302,0.0013377436856913,-0.0012010459809442,0.001201112457244,-0.0012011023187842,0.0012010562131587,0.7358630931395,128566,2924,0.0050361725322688,0.0071678761020918,0.0050361725322487,37.85412271681,6.2832981734483e-05,6.2832981734483e-05,6.2832981734483e-05,2763810.6506774,0.017390762086089
36219200,0.99923853760774,0.01702369467702,0.0051445817594898,0.0067345311581201,0.0051445817594096,-0.0012114698637725,0.0012114694216818,2.8803166045644e-08,-2.9226575620412e-08,4.8229008300505e-09,-5.4143932832371e-09,-0.00133778989593,0.0013378121794694,-0.0013378092941963,0.001337792908335,-0.0013377932116996,0.0013378087864073,-0.0013378125834767,0.0013377894590075,-0.0012010758345757,0.0012011288142242,-0.0012011326591682,0.0012010719845546,-4.4692303101407e-09,5.738374661946e-09,1.1012258724408e-08,-9.9612131122477e-09,-0.0017269111141135,0.0017269122195628,-0.001845901966712,0.0018459065974465,-0.0018459088159838,0.0018458995834073,-0.0018458986168054,0.0018459099931982,-0.0018459054675248,0.0018459029782676,-0.0015837881629058,0.0015838131682049,-0.00158380844067,0.0015837923255169,-0.0015838083517747,0.0015837925400848,-0.001583798373858,0.0015838027332078,-2.7185602888292e-08,3.065590846955e-08,-0.0012114679324522,0.0012114713529973,-8.4956658829448e-09,1.2330423325295e-08,-0.0013378124981912,0.0013377895729141,-0.0013378055975388,0.0013377965259226,-0.0013377931942547,0.0013378088464607,-0.0013377863034933,0.0013378157795591,-0.0012010687779415,0.0012011358543863,-0.0012011254503487,0.0012010792752133,0.71361054606383,128566,2924,0.0050361636154396,0.0071683812550118,0.0050361636154303,37.82717901781,6.2617432142483e-05,6.2617432142483e-05,6.2617432142483e-05,2759420.614781,0.017391259130404
36419200,0.99929239176146,0.017024600227408,0.0051448515013197,0.0067348972248491,0.0051448515012396,-0.0012108918815177,0.0012108914410858,2.8933657780336e-08,-2.9355438467237e-08,4.8134000018715e-09,-5.4030425050544e-09,-0.0013372316174992,0.0013372539741084,-0.0013372510945241,0.0013372346249706,-0.0013372349182281,0.0013372505965935,-0.0013372543849954,0.0013372311739724,-0.0012005014323497,0.001200554700206,-0.0012005585367334,0.001200497590793,-4.454892790495e-09,5.7227193347937e-09,1.121955779874e-08,-1.0169677695915e-08,-0.0017263745844232,0.0017263756886492,-0.0018453711381542,0.001845375906933,-0.0018453781145084,0.0018453687617097,-0.0018453677897829,0.0018453793006584,-0.0018453747845719,0.0018453721380001,-0.0015832377526754,0.0015832631799455,-0.0015832584591975,0.0015832418994455,-0.0015832581926329,0.0015832422962274,-0.0015832482687172,0.0015832524343384,-2.7387752450036e-08,3.0886203690544e-08,-0.0012108899366846,0.0012108933859142,-8.6536323852354e-09,1.2520338993388e-08,-0.001337254376544,0.001337231211143,-0.0013372473519022,0.0013372382881545,-0.0013372349204284,0.0013372506369438,-0.0013372279223446,0.0013372576772644,-0.001200494249646,0.0012005618666562,-0.0012005513194587,0.0012005048896959,0.70434019470251,128566,2924,0.005033767918446,0.0071661610878493,0.0050337679184373,37.496735673157,5.9973885385254e-05,5.9973885385254e-05,5.9973885385254e-05,2755386.1031911,0.017384125925493
36619200,0.99934156412244,0.017025381776905,0.0051450831269549,0.0067352155230753,0.0051450831268748,-0.0012102935758322,0.0012102931365171,2.8994614728096e-08,-2.941530688753e-08,4.8066145820235e-09,-5.3949623814849e-09,-0.0013366316469527,0.0013366540175974,-0.0013366511417735,0.0013366346503679,-0.0013366349202683,0.0013366506676107,-0.0013366544498102,0.001336631181834,-0.0011998976944859,0.0011999511529315,-0.0011999549831207,0.0011998938584482,-4.4324884979307e-09,5.6980834102279e-09,1.1256428223903e-08,-1.0208545954399e-08,-0.001725788197292,0.0017257892995828,-0.0018447975600709,0.0018448023448855,-0.0018448045385159,0.0018447951970634,-0.0018447942047546,0.0018448057453421,-0.0018448012461516,0.0018447985350252,-0.0015826384035246,0.0015826639542738,-0.0015826592506745,0.0015826425324463,-0.0015826588623345,0.0015826430516715,-0.0015826490511788,0.0015826530765347,-2.7678073779882e-08,3.1166856282426e-08,-0.0012102916363462,0.001210295075999,-8.6091610300401e-09,1.2465366277554e-08,-0.0013366545075659,0.0013366311529784,-0.0013366474933026,0.0013366382196517,-0.0013366348387665,0.0013366507914004,-0.0013366278960566,0.001336657776335,-0.0011998903815688,0.0011999584489916,-0.001199947944269,0.0011999009795198,0.66675280353932,128566,2924,0.0050312874822692,0.0071637353432082,0.0050312874822619,37.15838793421,5.7267103473678e-05,5.7267103473678e-05,5.7267103473678e-05,2752415.7458441,0.017376610819127
36819200,0.99938651768606,0.017026077404651,0.005145288840647,0.0067354997234375,0.0051452888405668,-0.0012096900593614,0.0012096896251745,2.9315908530684e-08,-2.9731530319915e-08,4.7812160528264e-09,-5.363964772617e-09,-0.001335966862793,0.0013359894632708,-0.0013359866011633,0.001335969852714,-0.0013359701480171,0.0013359861011245,-0.0013359898600832,0.0013359664337323,-0.0011992613838931,0.0011993154020621,-0.0011993192092714,0.0011992575724012,-4.4324802111839e-09,5.6981592182649e-09,1.1076321791678e-08,-1.0028348826004e-08,-0.0017251201032075,0.001725121205545,-0.0018441753309959,0.0018441800272119,-0.0018441822226824,0.0018441729697297,-0.0018441720065115,0.001844183397139,-0.0018441788994408,0.0018441763384482,-0.0015819551831572,0.0015819802912264,-0.0015819755918881,0.0015819593166576,-0.0015819754069043,0.0015819596273611,-0.0015819655078158,0.0015819697419954,-2.7706419804158e-08,3.1192810882528e-08,-0.0012096881237577,0.0012096915607775,-8.5849106948124e-09,1.2437976387861e-08,-0.0013359898245372,0.0013359664975643,-0.0013359828582039,0.0013359735162815,-0.0013359701686917,0.0013359861232612,-0.0013359632125653,0.0013359931216306,-0.0011992542904126,0.0011993224797927,-0.0011993119942026,0.0011992648685914,0.64957833185531,128566,2924,0.005028783968612,0.0071609735259139,0.0050287839686116,36.819726127636,5.4557809021088e-05,5.4557809021088e-05,5.4557809021088e-05,2753976.909362,0.017368705902045
37019200,0.99942883531573,0.017026773821711,0.0051454961258967,0.0067357815699982,0.0051454961258166,-0.0012100787256277,0.0012100782859818,2.9452666820341e-08,-2.9873659156164e-08,4.8082627854864e-09,-5.397045009862e-09,-0.0013362875038596,0.0013363102037396,-0.0013363073259405,0.0013362905072273,-0.0013362908002453,0.0013363068294651,-0.0013363106132997,0.0013362870604693,-0.0011996229620907,0.0011996772513862,-0.0011996810830603,0.0011996191246702,-4.4569350454584e-09,5.7250330859338e-09,1.0651703061665e-08,-9.6016002258216e-09,-0.0017254688253149,0.0017254699298059,-0.0018445809015312,0.0018445852934102,-0.0018445875073502,0.0018445785289411,-0.0018445775520056,0.0018445886886357,-0.0018445841755706,0.0018445819068392,-0.0015822819832594,0.0015823062992404,-0.0015823015888728,0.0015822861441055,-0.0015823016864264,0.0015822861651408,-0.0015822917619254,0.001582296306438,-2.7951309675555e-08,3.1361446183122e-08,-0.0012100768259802,0.001210080185629,-8.1849093755781e-09,1.1952756565482e-08,-0.0013363104785055,0.0013362872239973,-0.0013363037978327,0.0013362939570361,-0.0013362906766354,0.0013363069955869,-0.0013362840226502,0.0013363136918329,-0.0011996159976696,0.0011996841991944,-0.0011996740832193,0.0011996262064898,0.68961815079628,128566,2924,0.0050303938753027,0.0071624181706156,0.0050303938753028,37.015983902081,5.6127871216646e-05,5.6127871216646e-05,5.6127871216646e-05,2761367.3867808,0.017373450064184
37219200,0.99946891183578,0.017027476541557,0.0051457064504063,0.0067360636408248,0.0051457064503262,-0.0012107215785578,0.0012107211357437,2.9667714077656e-08,-3.0091815468656e-08,4.8244401089898e-09,-5.4167156669369e-09,-0.001336940476854,0.0013369633421789,-0.0013369604546886,0.0013369434881221,-0.0013369437970854,0.0013369599430992,-0.001336963741906,0.001336940042347,-0.0012002706567453,0.0012003253185976,-0.0012003291651474,0.0012002668042615,-4.479607522771e-09,5.7498606016467e-09,1.0208355681094e-08,-9.1563453154064e-09,-0.0017261645112571,0.0017261656177107,-0.0018452965707413,0.0018453006678403,-0.0018453028996074,0.0018452941884734,-0.0018452932182418,0.0018453040666449,-0.0018452995398015,0.0018452975946433,-0.0015829566875018,0.0015829801121204,-0.0015829753924854,0.0015829608747146,-0.0015829758431586,0.0015829605351612,-0.0015829658353459,0.0015829707602196,-2.8113748982212e-08,3.1458322366774e-08,-0.0012107197106374,0.0012107230036649,-7.8314425406885e-09,1.1525525205361e-08,-0.0013369634735951,0.0013369403394341,-0.0013369570647014,0.0013369468006988,-0.0013369435975067,0.0013369601851723,-0.0013369371904433,0.0013369666345629,-0.0012002638952678,0.0012003320633412,-0.0012003222713977,0.0012002737801307,0.73362542646582,128566,2924,0.0050330594577088,0.0071652957173106,0.0050330594577112,37.342549346106,5.8740394768845e-05,5.8740394768845e-05,5.8740394768845e-05,2764146.8247279,0.01738180150642
37419200,0.99950682217712,0.017028097515612,0.0051458911118761,0.0067363152919403,0.005145891111796,-0.0012113691322752,0.0012113686884919,2.9878814991116e-08,-3.0303841810187e-08,4.8300862900102e-09,-5.4234554501588e-09,-0.0013376688461621,0.001337691866059,-0.001337688974725,0.0013376718598429,-0.0013376721801872,0.0013376884525649,-0.0013376922563115,0.0013376684202955,-0.0012009521547745,0.0012010071965501,-0.0012010110475712,0.0012009482969047,-4.4892447759478e-09,5.7604100686618e-09,9.8854476110082e-09,-8.832615718888e-09,-0.0017269508890411,0.0017269519962868,-0.0018460632409954,0.0018460671283006,-0.0018460693686891,0.0018460608555036,-0.0018460598917495,0.0018460705237953,-0.0018460659923896,0.001846064278573,-0.0015837259197569,0.0015837486887169,-0.0015837439683157,0.0015837301210128,-0.0015837446675749,0.0015837295266065,-0.0015837346123314,0.0015837398007451,-2.8271985334942e-08,3.1569451879458e-08,-0.0012113672878353,0.0012113705329337,-7.5622877640645e-09,1.1203269761705e-08,-0.0013376918847642,0.0013376688207343,-0.0013376856820506,0.0013376750758198,-0.0013376719292766,0.0013376887458484,-0.0013376657083718,0.0013376950091039,-0.0012009455578414,0.0012010137762513,-0.0012010042272095,0.001200955199877,0.68665558541655,128566,2924,0.0050357461986723,0.0071685461950333,0.0050357461986769,37.67259480041,6.1380758403279e-05,6.1380758403279e-05,6.1380758403279e-05,2761668.0889165,0.017390576736643
37619200,0.99954263462141,0.01702866441425,0.0051460591431297,0.0067365461280708,0.0051460591430495,-0.0012120142534672,0.0012120138101404,2.999330310216e-08,-3.0416274142796e-08,4.8342204973197e-09,-5.4268336673684e-09,-0.0013383154864078,0.0013383385652106,-0.0013383356701306,0.0013383185001319,-0.0013383188041395,0.0013383351676736,-0.0013383389745006,0.0013383150404954,-0.0012015995502382,0.0012016548628932,-0.0012016587178987,0.001201595687294,-4.4849553630452e-09,5.7588035647394e-09,9.6952249931786e-09,-8.6388476903095e-09,-0.0017276332621774,0.001727634367637,-0.0018467662482931,0.0018467699914891,-0.0018467722338928,0.0018467638673755,-0.0018467628796619,0.0018467734061616,-0.0018467688769689,0.0018467672674706,-0.0015843893579607,0.0015844118086382,-0.0015844070903307,0.0015843935598832,-0.0015844078514539,0.0015843929035547,-0.0015843978572776,0.0015844031125833,-2.8575782539192e-08,3.1730698937164e-08,-0.0012120124821677,0.0012120155794722,-7.3859744614325e-09,1.0875007013225e-08,-0.0013383386279564,0.0013383154202141,-0.0013383325764083,0.0013383215195708,-0.0013383184989436,0.00133833551525,-0.0013383124652161,0.0013383415912027,-0.0012015930405793,0.0012016613546864,-0.0012016521170099,0.0012016023683901,0.66415285398904,128566,2924,0.0050384208935632,0.0071713688832885,0.0050384208895439,38.002779162828,6.4022233302621e-05,6.4022233302621e-05,6.4022233302621e-05,2764128.2968989,0.017398890986774
37819200,0.99957550782854,0.017029165451814,0.0051462071139301,0.006736751224032,0.005146207113852,-0.0012116689995296,0.001211668557063,3.0157349622446e-08,-3.0580873203895e-08,4.8173939867771e-09,-5.40909793183e-09,-0.0013379247212317,0.001337947900108,-0.001337945016511,0.001337927727122,-0.0013379280281693,0.0013379445138312,-0.001337948307401,0.0013379242782663,-0.0012012240410424,0.0012012796898566,-0.0012012835303638,0.001201220192398,-4.470715342421e-09,5.7407244486322e-09,9.9467919553335e-09,-8.8948563048926e-09,-0.001727238070631,0.0017272391763198,-0.0018464154091855,0.0018464193306396,-0.0018464215590487,0.001846413034133,-0.0018464120542016,0.0018464227313739,-0.0018464182131627,0.0018464164263088,-0.0015839775726233,0.0015840005005739,-0.0015839957904393,0.0015839817563762,-0.0015839963753032,0.0015839812815415,-0.0015839864073802,0.0015839914647735,-2.8737519890336e-08,3.1932710616504e-08,-0.0012116672070324,0.0012116703493582,-7.5979207677948e-09,1.1136773340273e-08,-0.0013379480327971,0.0013379245823828,-0.0013379418225761,0.0013379308443399,-0.0013379277826035,0.0013379448017863,-0.0013379215905209,0.0013379510361328,-0.0012012174245012,0.0012012862886153,-0.0012012768526001,0.0012012269529893,0.64016140840035,128566,2924,0.0050369883623357,0.007169735635202,0.0050369883619239,37.804419815267,6.2435358522136e-05,6.2435358522136e-05,6.2435358522136e-05,2766378.9616965,0.01739431370433
38019200,0.99960563456292,0.017029643513463,0.0051463489298558,0.0067369456538295,0.0051463489297779,-0.0012112386708972,0.0012112382318244,3.032800399023e-08,-3.0748182567486e-08,4.7996859914336e-09,-5.3876228327619e-09,-0.0013374061438559,0.0013374294215471,-0.0013374265484109,0.0013374091408491,-0.001337409433962,0.0013374260527486,-0.0013374298302274,0.0013374057005743,-0.0012007484684843,0.001200804476445,-0.0012008083013729,0.0012007446368552,-4.450352610312e-09,5.7183188264615e-09,1.0232980473235e-08,-9.1828852398652e-09,-0.0017266979136866,0.0017266990176379,-0.0018459370614751,0.0018459411808509,-0.0018459433943791,0.0018459346964119,-0.0018459337163088,0.0018459445714485,-0.0018459400665454,0.0018459380700958,-0.0015834212532708,0.0015834447415712,-0.0015834400417875,0.0015834254158882,-0.0015834404018394,0.0015834251706694,-0.0015834304880173,0.0015834352988567,-2.8889885989457e-08,3.2134262461101e-08,-0.0012112368550879,0.0012112400474353,-7.8647713161643e-09,1.145878589232e-08,-0.0013374296396665,0.0013374059203421,-0.0013374232297941,0.0013374123819954,-0.001337409267387,0.0013374262619221,-0.0013374028839595,0.001337432687583,-0.0012007417424061,0.0012008111854622,-0.0012008015050456,0.0012007515152771,0.6656981311818,128566,2924,0.00503520225784,0.0071675039469824,0.0050352022574353,37.560233099869,6.0481864798956e-05,6.0481864798956e-05,6.0481864798956e-05,2770432.7714638,0.017388407387296
38219200,0.99963326829966,0.017030085415615,0.0051464801529333,0.0067371251098268,0.0051464801528553,-0.001210815515048,0.0012108150788989,3.0501550538873e-08,-3.0918857972828e-08,4.7840464260847e-09,-5.3687643209353e-09,-0.0013369399559799,0.0013369633409372,-0.0013369604769649,0.0013369429450555,-0.0013369432359982,0.0013369599827923,-0.001336963746106,0.0013369395169855,-0.0012002997013321,0.0012003560579238,-0.0012003598687825,0.0012002958842294,-4.4352261146514e-09,5.7018431770754e-09,1.0481551011988e-08,-9.4326482584823e-09,-0.0017262080252115,0.0017262091278864,-0.0018454822862485,0.0018454865803346,-0.0018454887824464,0.0018454799280868,-0.0018454789524324,0.0018454899592341,-0.0018454854639343,0.0018454832922793,-0.0015829179607927,0.0015829419230931,-0.0015829372303251,0.0015829221065767,-0.0015829374129553,0.0015829220431062,-0.0015829275268363,0.0015829321430936,-2.904352926447e-08,3.2328263380849e-08,-0.0012108136802028,0.0012108169135496,-8.0881652451625e-09,1.1727703501233e-08,-0.001336963624975,0.0013369396671443,-0.0013369570526269,0.0013369462912839,-0.0013369431379315,0.0013369601235908,-0.0013369365899496,0.0013369667137661,-0.0012002928765493,0.0012003628659403,-0.0012003529821755,0.0012003028526299,0.67076170999498,128566,2924,0.0050334470600479,0.0071654787483444,0.0050334470596513,37.314698696741,5.8517589573926e-05,5.8517589573926e-05,5.8517589573926e-05,2770229.353858,0.017382774885163
38419200,0.99965880860828,0.017030520025564,0.0051466099813486,0.0067373000629447,0.0051466099812707,-0.001210631573021,0.0012106311365948,3.0672272586476e-08,-3.108985439495e-08,4.7845806635399e-09,-5.3696036745289e-09,-0.0013367269054048,0.0013367504058412,-0.0013367475418691,0.0013367298948761,-0.0013367301873265,0.0013367470459701,-0.0013367508099911,0.0013367264675941,-0.0012000990121347,0.0012001556986795,-0.0012001595102183,0.0012000951943029,-4.4367992747689e-09,5.7035962226387e-09,1.0575698075742e-08,-9.5266370438365e-09,-0.001725979849422,0.0017259809522528,-0.0018452813152451,0.0018452856717718,-0.00184528787397,0.0018452789552161,-0.0018452779817156,0.0018452890503914,-0.0018452845530101,0.0018452823219423,-0.0015826771634831,0.0015827013076032,-0.0015826966116535,0.0015826813085896,-0.0015826967402337,0.0015826813007733,-0.0015826868468074,0.001582691408252,-2.9213219322283e-08,3.2508870313633e-08,-0.0012106297324623,0.0012106329769639,-8.1614869391763e-09,1.1813695183264e-08,-0.0013367507110337,0.0013367265955886,-0.0013367440870781,0.001336733271329,-0.0013367301086066,0.0013367471674299,-0.0013367235063089,0.0013367538119084,-0.0012000921470325,0.0012001625469986,-0.0012001525995437,0.001200102186794,0.7125373162715,128566,2924,0.0050326839915829,0.0071645357088906,0.0050326839911961,37.196801045233,5.7574408361861e-05,5.7574408361861e-05,5.7574408361861e-05,2770049.0654938,0.017380262341138
38619200,0.99968256672675,0.017030926470997,0.0051467314475893,0.0067374635758966,0.0051467314475114,-0.0012106639178652,0.0012106634792316,3.0843088769383e-08,-3.1262850167616e-08,4.7948234415069e-09,-5.3822458307315e-09,-0.0013368021428584,0.0013368257640714,-0.0013368228945117,0.0013368051375747,-0.0013368054330519,0.001336822395807,-0.0013368261694596,0.0013368017034693,-0.0012001473489608,0.0012002043602438,-0.0012002081811949,0.0012001435210594,-4.4467799675126e-09,5.7145095029514e-09,1.0534865653909e-08,-9.4849770190511e-09,-0.0017260611422152,0.0017260622458959,-0.0018453497601431,0.0018453540841228,-0.0018453562927198,0.0018453473943421,-0.0018453464205559,0.0018453574689665,-0.0018453529641837,0.0018453507688521,-0.0015827494470474,0.0015827735156055,-0.0015827688126257,0.0015827536006965,-0.0015827689837503,0.0015827535496202,-0.0015827590676823,0.0015827636801381,-2.9394468629405e-08,3.2675920596683e-08,-0.0012106620833689,0.0012106653135416,-8.1066199675599e-09,1.1743430294705e-08,-0.0013368260527074,0.0013368018494142,-0.0013368194710871,0.0013368084828151,-0.0013368053349114,0.0013368225365813,-0.0013367987734597,0.0013368291402204,-0.0012001405023289,0.0012002111897323,-0.0012002012980551,0.0012001504863963,0.71625965398646,128566,2924,0.0050328193666171,0.0071648705723819,0.0050328193662369,37.193735543103,5.7549884344826e-05,5.7549884344826e-05,5.7549884344826e-05,2765397.8700435,0.017380879258018
38819200,0.99970467064165,0.01703130583921,0.0051468448468763,0.0067376161455353,0.0051468448467985,-0.0012106948867875,0.0012106944471176,3.1018104292272e-08,-3.1438884724876e-08,4.799563436536e-09,-5.3881129087315e-09,-0.0013368791735627,0.0013369029121039,-0.0013369000400532,0.0013368821707899,-0.0013368824649529,0.0013368995423874,-0.0013369033208175,0.0013368787310903,-0.0012001959260513,0.001200253282984,-0.0012002571090063,0.0012001920942015,-4.4550608443611e-09,5.7235614111277e-09,1.0412664427014e-08,-9.3620887256747e-09,-0.0017261512711061,0.0017261523754993,-0.0018454239951769,0.0018454282309578,-0.001845430445764,0.0018454216255308,-0.0018454206477754,0.0018454316237942,-0.0018454271137402,0.0018454250036781,-0.0015828326377828,0.0015828564786355,-0.0015828517715785,0.0015828368003075,-0.0015828520260165,0.0015828366634882,-0.0015828420993413,0.001582846804796,-2.956985335041e-08,3.2841599141474e-08,-0.0012106930567304,0.0012106962769917,-8.0660453742035e-09,1.1692054114279e-08,-0.0013369031895699,0.0013368788912807,-0.0013368966362938,0.0013368854963496,-0.0013368823558858,0.0013368996943248,-0.0013368758271783,0.001336906265246,-0.0012001891087428,0.0012002600837214,-0.0012002502319623,0.0012001990528837,0.71844599017693,128566,2924,0.005032949039898,0.0071652419003706,0.0050329490395244,37.193613797022,5.7548910376178e-05,5.7548910376178e-05,5.7548910376178e-05,2761119.8527231,0.017381521714073
38880000,0.99971124076764,0.017031418718463,0.0051468785920598,0.0067376615344213,0.005146878591982,-0.001210702499293,0.0012107020592855,3.1065757423534e-08,-3.1486875741141e-08,4.8009835322597e-09,-5.3898913126378e-09,-0.0013369015734098,0.0013369253478818,-0.0013369224747691,0.0013369045710247,-0.0013369048691943,0.0013369219737929,-0.0013369257532437,0.0013369011335628,-0.0012002096407571,0.0012002670801927,-0.0012002709066919,0.0012002058065757,-4.4532816207151e-09,5.7215992307769e-09,1.0425265862284e-08,-9.3748540617024e-09,-0.0017261797124092,0.0017261808166384,-0.0018454466614589,0.0018454509100289,-0.0018454531235235,0.0018454442926357,-0.0018454433185941,0.0018454542982811,-0.0018454497894003,0.0018454476728512,-0.0015828594132413,0.0015828832677349,-0.0015828785617117,0.0015828635739607,-0.0015828788158193,0.0015828634383153,-0.0015828688830581,0.0015828735856136,-2.9635438085992e-08,3.2890769808744e-08,-0.0012107006773249,0.0012107038810712,-7.9897126884676e-09,1.1597796272627e-08,-0.0013369256044694,0.0013369013116714,-0.0013369191111606,0.0013369078567706,-0.0013369047358507,0.0013369221496388,-0.0013368982604597,0.0013369286672263,-0.0012002028397484,0.0012002738636718,-0.0012002640850991,0.0012002127107685,0.71909629317123,128566,2924,0.005032980997767,0.0071653590642792,0.0050329809973946,37.193609117656,5.7548872941245e-05,5.7548872941245e-05,5.7548872941245e-05,2759815.2571444,0.017381706198179
