time,ASR_ext,ASR_strain,ASR_strain_xx,ASR_strain_yy,ASR_strain_zz,disp_x_101,disp_x_102,disp_x_103,disp_x_104,disp_x_105,disp_x_106,disp_x_p10_neg,disp_x_p10_pos,disp_x_p11_neg,disp_x_p11_pos,disp_x_p12_neg,disp_x_p12_pos,disp_x_p13_neg,disp_x_p13_pos,disp_x_p14_neg,disp_x_p14_pos,disp_x_p15_neg,disp_x_p15_pos,disp_x_p16_neg,disp_x_p16_pos,disp_x_p1_neg,disp_x_p1_pos,disp_x_p2_neg,disp_x_p2_pos,disp_x_p3_neg,disp_x_p3_pos,disp_x_p4_neg,disp_x_p4_pos,disp_x_p5_neg,disp_x_p5_pos,disp_x_p6_neg,disp_x_p6_pos,disp_x_p7_neg,disp_x_p7_pos,disp_x_p8_neg,disp_x_p8_pos,disp_x_p9_neg,disp_x_p9_pos,disp_y_101,disp_y_102,disp_y_103,disp_y_104,disp_y_105,disp_y_106,disp_y_p10_neg,disp_y_p10_pos,disp_y_p11_neg,disp_y_p11_pos,disp_y_p12_neg,disp_y_p12_pos,disp_y_p1_neg,disp_y_p1_pos,disp_y_p2_neg,disp_y_p2_pos,disp_y_p3_neg,disp_y_p3_pos,disp_y_p4_neg,disp_y_p4_pos,disp_y_p5_neg,disp_y_p5_pos,disp_y_p6_neg,disp_y_p6_pos,disp_y_p7_neg,disp_y_p7_pos,disp_y_p8_neg,disp_y_p8_pos,disp_y_p9_neg,disp_y_p9_pos,disp_z_101,disp_z_102,disp_z_103,disp_z_104,disp_z_105,disp_z_106,disp_z_p10_neg,disp_z_p10_pos,disp_z_p11_neg,disp_z_p11_pos,disp_z_p12_neg,disp_z_p12_pos,disp_z_p13_neg,disp_z_p13_pos,disp_z_p14_neg,disp_z_p14_pos,disp_z_p15_neg,disp_z_p15_pos,disp_z_p16_neg,disp_z_p16_pos,disp_z_p1_neg,disp_z_p1_pos,disp_z_p2_neg,disp_z_p2_pos,disp_z_p3_neg,disp_z_p3_pos,disp_z_p4_neg,disp_z_p4_pos,disp_z_p5_neg,disp_z_p5_pos,disp_z_p6_neg,disp_z_p6_pos,disp_z_p7_neg,disp_z_p7_pos,disp_z_p8_neg,disp_z_p8_pos,disp_z_p9_neg,disp_z_p9_pos,humidity,ndof,nelem,strain_xx,strain_yy,strain_zz,temp,thermal_strain_xx,thermal_strain_yy,thermal_strain_zz,vonmises,vstrain
14391759,0,0,0,0,0,0,0,0,0,0,0,0,0,0,0,0,0,0,0,0,0,0,0,0,0,0,0,0,0,0,0,0,0,0,0,0,0,0,0,0,0,0,0,0,0,0,0,0,0,0,0,0,0,0,0,0,0,0,0,0,0,0,0,0,0,0,0,0,0,0,0,0,0,0,0,0,0,0,0,0,0,0,0,0,0,0,0,0,0,0,0,0,0,0,0,0,0,0,0,0,0,0,0,0,0,0,0,0,0,0,0,0,0,0,0,0,0,0,0,0,0,0,0
14591759,0.019291978503165,0.00033917412687932,0.00011305804229311,0.00011305804229311,0.00011305804229311,-2.833129951662e-05,2.8332333421917e-05,5.2006701677838e-10,5.067835214385e-10,-1.00233036734e-09,2.0789426084537e-09,-2.4249926978779e-05,2.4254028053169e-05,-2.5641502763234e-05,2.5645613329285e-05,-2.5641498573121e-05,2.5645599471513e-05,-2.4252939002996e-05,2.4250932960516e-05,-2.4253009928874e-05,2.4250964391794e-05,-2.5644493296766e-05,2.5642527070887e-05,-2.5644521717618e-05,2.5642542801857e-05,-3.0020713648854e-05,3.0020733953515e-05,-3.0020728913065e-05,3.0020740691469e-05,-3.0019735813464e-05,3.0021767958786e-05,-3.0019737011179e-05,3.0021761647283e-05,-2.8346783119152e-05,2.8348841087484e-05,-2.8346800506961e-05,2.8348833620889e-05,-2.8347783911455e-05,2.8347792672312e-05,-2.8347833087835e-05,2.8347814256862e-05,-2.4249926835584e-05,2.4254057345605e-05,1.0091593836447e-09,-2.0736900254569e-09,3.2490107050829e-09,-4.267256902887e-09,-3.049699847346e-05,3.0495974373823e-05,-2.9204074005224e-05,2.9196716160111e-05,-3.017568828923e-05,3.0180170377031e-05,-3.0178689238659e-05,3.0177087744424e-05,-3.0594270899481e-05,3.0596730397772e-05,-3.0596683330527e-05,3.0594209441676e-05,-3.0595254238429e-05,3.0595701383855e-05,-3.0597667330885e-05,3.0593180045274e-05,-2.9197811071035e-05,2.920314467933e-05,-2.9205094009682e-05,2.9195680623184e-05,-3.0178159403338e-05,3.0177657469028e-05,-3.0181164793298e-05,3.0174576479401e-05,-2.9196793406664e-05,2.9204181357888e-05,1.2297906049607e-09,1.2431009700975e-09,-2.8481822686927e-05,2.8484310425977e-05,-2.4279341346496e-09,5.0170983392528e-09,-2.6155014910269e-05,2.6164909169499e-05,-2.7158641057555e-05,2.7168537260045e-05,-2.7158640854663e-05,2.7168530320056e-05,-2.6162415019006e-05,2.6157553984689e-05,-2.616242045258e-05,2.615753397728e-05,-2.7165978254002e-05,2.7161214712809e-05,-2.7165979676567e-05,2.7161209178684e-05,-2.9860703126582e-05,2.9860688955487e-05,-2.9858231945692e-05,2.9863157753368e-05,-2.9860700396645e-05,2.9860694676433e-05,-2.9858229340861e-05,2.9863163381005e-05,-2.8046803785209e-05,2.8051768542059e-05,-2.804680597764e-05,2.8051744677774e-05,-2.8049304142622e-05,2.8049256600549e-05,-2.8049298981492e-05,2.8049279052964e-05,-2.6155017644866e-05,2.6164934939882e-05,0.70642002878423,129794,2964,0.00011804224498235,0.000127060521997,0.00011867232325322,31.357931922579,1.0863455380635e-05,1.0863455380635e-05,1.0863455380635e-05,649250.80235214,0.00036384167165995
14791759,0.038362009443042,0.0006708266442997,0.00022217669550668,0.00022639017362898,0.00022225977516405,-5.2702530244859e-05,5.2702785471374e-05,1.7395755259853e-10,7.7093391689877e-11,-1.4506797442553e-10,4.2265388880389e-10,-4.3344676266698e-05,4.3345413415895e-05,-4.6463715241616e-05,4.6464579963879e-05,-4.6463740987565e-05,4.6464541437875e-05,-4.3345118417405e-05,4.334491151659e-05,-4.3345273016762e-05,4.3344859863645e-05,-4.6464245256476e-05,4.6464000326123e-05,-4.6464302100913e-05,4.6463988392063e-05,-5.7246777702783e-05,5.7246871661423e-05,-5.7246816990688e-05,5.724684725264e-05,-5.724660449453e-05,5.7247067559971e-05,-5.7246632543898e-05,5.7247033453458e-05,-5.2452198748695e-05,5.2452731844271e-05,-5.2452297723866e-05,5.2452642563306e-05,-5.2452374065796e-05,5.2452526840572e-05,-5.2452499223999e-05,5.2452459699252e-05,-4.3344590502408e-05,4.3345520707787e-05,3.7820008825059e-11,-5.3064066672409e-10,1.8164131423345e-09,-2.2919421533599e-09,-5.7742964649119e-05,5.7742487079299e-05,-5.4445498698269e-05,5.4441187687058e-05,-5.6549589438601e-05,5.6551016795367e-05,-5.6550126212912e-05,5.6550439280979e-05,-5.8888977467517e-05,5.889003754391e-05,-5.8890288931233e-05,5.8888652823384e-05,-5.8889153823808e-05,5.888984599286e-05,-5.8890464722689e-05,5.8888461040117e-05,-5.4441729479488e-05,5.4445091366008e-05,-5.4445682755857e-05,5.4440993259147e-05,-5.6550934556953e-05,5.654963821302e-05,-5.6551473475386e-05,5.6549064435333e-05,-5.4441544756505e-05,5.4445287117671e-05,8.2367701065264e-10,9.142168084989e-10,-5.2947918847293e-05,5.2949670461071e-05,-1.1053771134438e-09,2.9413068692697e-09,-4.7141913405316e-05,4.7147629818853e-05,-4.978878114097e-05,4.9794613392511e-05,-4.9788809325686e-05,4.9794581523895e-05,-4.7145870527413e-05,4.7143703519448e-05,-4.7145945522335e-05,4.7143602549858e-05,-4.9792763732495e-05,4.979063760539e-05,-4.9792786399178e-05,4.9790603117773e-05,-5.6821599610959e-05,5.6821953641196e-05,-5.6820258452818e-05,5.6823294526114e-05,-5.6821571005615e-05,5.682198387472e-05,-5.6820229380726e-05,5.6823324755921e-05,-5.1756068816458e-05,5.1759244642035e-05,-5.175615253116e-05,5.1759149097751e-05,-5.1757515264229e-05,5.1757792663392e-05,-5.1757431364158e-05,5.1757885995035e-05,-4.714182819505e-05,4.7147729931373e-05,0.70581018463208,129794,2964,0.00021957014153098,0.00024056509776582,0.00022059522689756,31.086844470609,8.6947557648721e-06,8.6947557648721e-06,8.6947557648721e-06,1304452.785603,0.00068096473404807
14991759,0.056207003931844,0.00097680277601283,0.00032200966488594,0.00033280672609997,0.00032198638502693,-7.400785312638e-05,7.4007391553953e-05,-1.4204297871391e-10,-3.1641029570619e-10,5.3364404908105e-10,-1.0028245175777e-09,-5.789575828123e-05,5.7893603744582e-05,-6.2299263027613e-05,6.2297339515556e-05,-6.229932056974e-05,6.2297283104177e-05,-5.7894051724968e-05,5.7895296351554e-05,-5.7894252062734e-05,5.7895141216258e-05,-6.2297748916391e-05,6.2298863314581e-05,-6.2297820104281e-05,6.2298813198655e-05,-8.2161671464542e-05,8.2161771810744e-05,-8.216172804035e-05,8.2161711913815e-05,-8.2162174180961e-05,8.2161263877958e-05,-8.2162225899502e-05,8.2161201644211e-05,-7.4208221166745e-05,7.4207423114203e-05,-7.4208376866301e-05,7.4207240515135e-05,-7.4207705275147e-05,7.4207928659394e-05,-7.4207875820929e-05,7.4207754133586e-05,-5.7895592986456e-05,5.7893771863226e-05,-7.3066273990558e-10,7.9354909009393e-10,5.5210311890834e-10,-4.9862690074559e-10,-8.3202027095251e-05,8.3202082767973e-05,-7.8622278946734e-05,7.8620797811999e-05,-8.2740403065605e-05,8.2739309037853e-05,-8.2738906718936e-05,8.2740820759224e-05,-8.4264336955112e-05,8.4264238729598e-05,-8.426466914163e-05,8.4263877536121e-05,-8.4263845053411e-05,8.426474709963e-05,-8.4264175960907e-05,8.4264386180533e-05,-7.8620789029207e-05,7.8622373475049e-05,-7.8621772376656e-05,7.8621305541383e-05,-8.2740741824642e-05,8.2738943846931e-05,-8.2739245028609e-05,8.2740460221912e-05,-7.8621292758433e-05,7.8621868424237e-05,2.9471752109444e-10,4.685678757973e-10,-7.4268293709509e-05,7.4269056756098e-05,-1.0371383478863e-10,9.1268650211986e-10,-6.4215294590948e-05,6.4216922440033e-05,-6.7931040359241e-05,6.7932900672648e-05,-6.7931098334337e-05,6.7932840340643e-05,-6.42161379605e-05,6.4216082967255e-05,-6.4216304079444e-05,6.4215916208199e-05,-6.793202959341e-05,6.7931905793542e-05,-6.7932084766819e-05,6.7931848872826e-05,-8.1183924573441e-05,8.1184273162411e-05,-8.1183590764723e-05,8.1184609030786e-05,-8.1183865463727e-05,8.1184327964408e-05,-8.1183531580429e-05,8.1184665168055e-05,-7.3393817697454e-05,7.3395089327771e-05,-7.3393994887043e-05,7.3394922524357e-05,-7.3394340538235e-05,7.3394580096165e-05,-7.3394164767843e-05,7.3394743153788e-05,-6.4215121021158e-05,6.4217099846489e-05,0.70496388514835,129794,2964,0.00030831780507999,0.00034661369621783,0.00030940432504068,30.085270762674,6.8216610139417e-07,6.8216610139417e-07,6.8216610139417e-07,1466233.4570932,0.00096480708020913
15191759,0.072424676102307,0.001236063672442,0.00040580537407864,0.00042489573203778,0.00040536256632555,-9.1440764334997e-05,9.1439829234651e-05,-3.3761576390472e-10,-5.9282934550719e-10,1.0226547210598e-09,-1.9870549016161e-09,-6.6161150027635e-05,6.6156974556266e-05,-7.2270285405091e-05,7.2266448449833e-05,-7.2270373329229e-05,7.2266367819132e-05,-6.6157915589682e-05,6.6160210910219e-05,-6.6158175788387e-05,6.6159960934149e-05,-7.2267330090178e-05,7.2269427501886e-05,-7.2267419767046e-05,7.2269342744118e-05,-0.00010380989958998,0.00010381004459995,-0.00010380997932919,0.00010380995406072,-0.00010381087896542,0.00010380904579887,-0.00010381095888401,0.00010380895767836,-9.226139839472e-05,9.2259719356916e-05,-9.2261632513053e-05,9.2259456389874e-05,-9.226039621177e-05,9.2260722701727e-05,-9.2260634140792e-05,9.2260458295454e-05,-6.6160900469005e-05,6.6157218841384e-05,-1.3929863506974e-09,1.6196193167809e-09,-5.9042997269219e-10,8.0328719101018e-10,-0.00010564877060331,0.00010564898606317,-0.00010021083175138,0.00010021141329095,-0.00010678642129051,0.00010678321223012,-0.0001067834811155,0.00010678621162209,-0.00010604184683052,0.00010604061722856,-0.00010604139074556,0.00010604107642125,-0.00010604088057079,0.00010604162337482,-0.0001060404237557,0.00010604208311737,-0.00010021121680701,0.0001002110566636,-0.000100209834013,0.00010021241983839,-0.00010678595620521,0.00010678366443672,-0.0001067830160669,0.00010678666802291,-0.00010021221163022,0.00010021005122263,-1.104585999638e-10,1.4339646896866e-10,-9.1604647956154e-05,9.1604675666427e-05,7.2248218768256e-10,-6.8248318683673e-10,-7.5692802076662e-05,7.5691208275344e-05,-8.0285641141944e-05,8.0284383303603e-05,-8.0285725082191e-05,8.0284295823777e-05,-7.5691165507645e-05,7.5692842541221e-05,-7.5691420286957e-05,7.569260541921e-05,-8.0284246541065e-05,8.0285769526459e-05,-8.0284331407385e-05,8.028568758527e-05,-0.00010222741555411,0.00010222781462808,-0.00010222788359547,0.00010222734739415,-0.00010222732890382,0.00010222789585729,-0.0001022277985543,0.00010222743121389,-9.1407260617548e-05,9.1407074524e-05,-9.1407510934817e-05,9.1406825544525e-05,-9.1407052302087e-05,9.1407297346161e-05,-9.1406793750953e-05,9.1407534348819e-05,-7.5692553884794e-05,7.5691464036411e-05,0.66036286461997,129794,2964,0.00038093022874844,0.00044010444370825,0.00038161272177556,28.683257444178,-1.0533940446578e-05,-1.0533940446578e-05,-1.0533940446578e-05,1583849.2886229,0.0012033837443042
15391759,0.087122168364768,0.0014977770117912,0.00049019764558847,0.0005184308725917,0.00048914849361107,-0.00010853315612696,0.00010853203068773,-3.9242010872475e-10,-7.2818510722056e-10,1.2523358204966e-09,-2.4137735554887e-09,-7.6452193778184e-05,7.6447097441085e-05,-8.41879716018e-05,8.4183323043431e-05,-8.4188086365264e-05,8.4183215559219e-05,-7.6448237162421e-05,7.6451065634123e-05,-7.6448568971015e-05,7.6450730228948e-05,-8.4184378517706e-05,8.4186949282703e-05,-8.4184490578786e-05,8.4186833766288e-05,-0.00012392075814174,0.00012392095949909,-0.00012392086397239,0.00012392084140521,-0.00012392195164243,0.0001239197396459,-0.00012392205988403,0.00012391962607967,-0.00011084706274827,0.00011084505279238,-0.00011084738315905,0.0001108447178374,-0.00011084584359283,0.00011084627996952,-0.00011084616317179,0.00011084593956818,-7.6451864538373e-05,7.6447421396143e-05,-1.6561996127093e-09,2.0161897960212e-09,-1.3771560805325e-09,1.7197446917521e-09,-0.00012772445213414,0.00012772479794649,-0.00012143699877831,0.00012143916098409,-0.00013002439633543,0.00013002010819337,-0.00013002081346768,0.00013002375655685,-0.00012740785839226,0.00012740597928974,-0.00012740684858388,0.00012740700792911,-0.0001274066772942,0.00012740720478891,-0.00012740566678314,0.00012740823367452,-0.00012143882372836,0.00012143734183146,-0.00012143578220669,0.00012144038943709,-0.00013002336880864,0.00013002113077433,-0.00013001978602684,0.00013002478264308,-0.00012144003784445,0.00012143611494221,-3.2275971319333e-10,1.1469044095487e-11,-0.00010859431091235,0.00010859399479502,1.3884412304577e-09,-1.7088916861163e-09,-8.9470371369147e-05,8.946667940053e-05,-9.4715562546391e-05,9.4712311086382e-05,-9.4715673953479e-05,9.4712198504002e-05,-8.9466985641855e-05,8.9470058259356e-05,-8.9467321754209e-05,8.9469743366362e-05,-9.4712504046572e-05,9.471536124116e-05,-9.4712617351799e-05,9.4715253865692e-05,-0.00012188180566254,0.0001218824025331,-0.00012188283620697,0.00012188137284557,-0.0001218816928427,0.00012188251117517,-0.00012188272492265,0.00012188148388138,-0.00010929447377922,0.00010929345788179,-0.0001092948013083,0.00010929312897531,-0.00010929377580786,0.00010929416610361,-0.00010929343988004,0.00010929448363433,-8.9470043903082e-05,8.9467011602122e-05,0.73442855114782,129794,2964,0.00045212072374966,0.00053204180506915,0.00045237349114963,27.27046038165,-2.1836316946796e-05,-2.1836316946796e-05,-2.1836316946796e-05,1473614.2574062,0.0014375853253389
15591759,0.10060468521006,0.001742403275792,0.00056892177717876,0.0006062822128066,0.00056719928580659,-0.00012400518700927,0.00012400392002334,-4.2308833435725e-10,-8.3885318781681e-10,1.1529846541139e-09,-2.4595716086507e-09,-8.6353828942491e-05,8.6348562451533e-05,-9.541107625641e-05,9.5406362509e-05,-9.5411218297696e-05,9.5406230240494e-05,-8.6349847439341e-05,8.635256348957e-05,-8.6350250452967e-05,8.6352140168886e-05,-9.5407540715125e-05,9.5409939059155e-05,-9.5407674619082e-05,9.5409791180847e-05,-0.00014208156134833,0.00014208163127897,-0.00014208169299715,0.00014208148523002,-0.00014208273450223,0.00014208042733731,-0.00014208287027196,0.00014208028822357,-0.00012764844441395,0.00012764638822116,-0.00012764884392637,0.00012764597692157,-0.00012764724378812,0.00012764760161201,-0.00012764763970002,0.00012764717992016,-8.6353422458391e-05,8.6348961815165e-05,-1.5873654405313e-09,2.0295162491529e-09,-1.7996673011769e-09,2.2235575572276e-09,-0.00014770730147578,0.00014770772876286,-0.00014066584353947,0.00014066901346276,-0.00015076671681935,0.0001507622617775,-0.00015076319243929,0.00015076585458211,-0.00014685792885806,0.00014685584555865,-0.00014685662090331,0.00014685718480665,-0.00014685676763548,0.00014685705194422,-0.00014685545876481,0.00014685839194218,-0.00014066858256993,0.00014066625410177,-0.00014066464526418,0.00014067022467811,-0.00015076538663352,0.00015076359356404,-0.00015076186088684,0.0001507671906431,-0.00014066977703044,0.00014066504542309,-5.6521862262864e-10,-1.5011093219936e-10,-0.0001238624392399,0.00012386171759355,1.6355273101043e-09,-2.3782062363559e-09,-0.00010209907649043,0.00010209398111293,-0.00010794932371375,0.00010794477878798,-0.00010794946286009,0.00010794463904014,-0.00010209469932724,0.00010209834785325,-0.00010209511460436,0.00010209795760274,-0.00010794536391605,0.00010794872991125,-0.00010794550493391,0.00010794859721162,-0.00013954564185954,0.00013954611576664,-0.00013954697646503,0.00013954478173107,-0.00013954550284563,0.00013954625192488,-0.00013954683852568,0.00013954492059634,-0.00012553050100374,0.00012552885517737,-0.00012553090758812,0.00012552844615803,-0.00012552957388521,0.00012552979110788,-0.00012552915998306,0.00012553018777737,-0.00010209866766592,0.00010209439261618,0.74589760675883,129794,2964,0.00051655852569104,0.00061525575269286,0.00051595996860989,26.025360973169,-3.1797112214652e-05,-3.1797112214652e-05,-3.1797112214652e-05,1549015.317867,0.0016491534379431
15791759,0.11376297059404,0.0019938417610676,0.00064972321192576,0.00069690622946435,0.00064721231967745,-0.00014111696722625,0.00014111572722636,-3.6985281144166e-10,-8.6595541503884e-10,7.6802494152332e-10,-2.0442385638379e-09,-9.9074689866676e-05,9.9070162445902e-05,-0.00010913779547843,0.0001091339247273,-0.00010913796424114,0.00010913376592162,-9.9071419271019e-05,9.9073453650317e-05,-9.9071897172667e-05,9.9072945274446e-05,-0.00010913504695618,0.00010913671213032,-0.00010913520401372,0.00010913653262698,-0.00016162137469758,0.00016162123398038,-0.00016162153293833,0.00016162106082722,-0.00016162228446291,0.00016162029544703,-0.00016162244777074,0.00016162013055514,-0.00014648670037726,0.00014648501534814,-0.00014648718028538,0.00014648452701344,-0.00014648576634208,0.00014648596327059,-0.00014648624128061,0.00014648546237087,-9.9074205891573e-05,9.9070639835143e-05,-1.2063072408257e-09,1.6083126958039e-09,-1.8125065713743e-09,2.2013010764531e-09,-0.00016947563568975,0.00016947602730025,-0.00016165977545724,0.00016166316711511,-0.00017310033245043,0.00017309663353054,-0.00017309759521811,0.00017309943211846,-0.00016811993240795,0.00016811808167668,-0.00016811862846844,0.00016811941878134,-0.00016811903209952,0.00016811901984178,-0.00016811772695986,0.00016812035795685,-0.00016166276568725,0.00016166014548337,-0.00016165884342996,0.0001616641113176,-0.00017309900777948,0.00017309796373064,-0.00017309626948338,0.00017310076770317,-0.00016166369353302,0.00016165920472604,-7.1794485218935e-10,-2.2203155925004e-10,-0.00014071011243966,0.00014070916592939,1.5122598069442e-09,-2.4874467652061e-09,-0.00011727725593284,0.00011727186138098,-0.00012372748889705,0.0001237227541201,-0.0001237276553621,0.00012372258725661,-0.00011727280916065,0.000117276298211,-0.00011727330342664,0.00011727582947951,-0.00012372354527485,0.00012372669091327,-0.00012372371319484,0.0001237265317928,-0.00015851459757722,0.00015851481828806,-0.00015851592708731,0.00015851348865651,-0.00015851443275779,0.00015851498218971,-0.00015851576294289,0.00015851365515584,-0.00014364230531536,0.00014364051849435,-0.00014364278994115,0.00014364002830209,-0.00014364145948026,0.00014364136995337,-0.00014364096801027,0.00014364184727893,-0.00011727676626048,0.00011727235297682,0.78512881554994,129794,2964,0.0005878213826283,0.00070589688547617,0.00058612074569026,25.604109079567,-3.5167127363461e-05,-3.5167127363461e-05,-3.5167127363461e-05,1634448.5164542,0.0018816301963201
15991759,0.12661988900847,0.0022374967371875,0.00072755800951863,0.00078555286157854,0.00072438586609032,-0.00015766604054679,0.00015766487904581,-2.9079210761837e-10,-8.6726020599455e-10,4.0752818529368e-10,-1.5999698473687e-09,-0.00011059282559161,0.00011058909415496,-0.00012204715513906,0.00012204418416922,-0.00012204735047647,0.00012204399874111,-0.00011059027071632,0.00011059166837648,-0.0001105908235206,0.00011059107879574,-0.00012204519612678,0.00012204617586668,-0.00012204537697408,0.00012204596720772,-0.0001807059734673,0.00018070567150736,-0.00018070615879622,0.00018070547192027,-0.00018070662070594,0.00018070500079023,-0.00018070681143494,0.00018070480958009,-0.00016484673938224,0.00016484547792792,-0.00016484729973066,0.0001648449127043,-0.00016484607321534,0.00016484615798281,-0.00016484662724401,0.00016484557969166,-0.00011059226347196,0.00011058965066723,-8.482635270874e-10,1.1599998567485e-09,-1.6906611182543e-09,1.995449598353e-09,-0.00019097903793714,0.0001909793444982,-0.00018222318573678,0.00018222644015066,-0.00019526219309889,0.00019525930852127,-0.00019526024551432,0.000195261309091,-0.0001890833027122,0.00018908174037671,-0.00018908210544337,0.00018908296920618,-0.00018908266361918,0.00018908240953808,-0.00018908146494057,0.00018908363873772,-0.0001822261205413,0.0001822234707433,-0.00018222252194977,0.00018222711425238,-0.00019526097873333,0.0001952605314432,-0.00019525903004819,0.00019526253600464,-0.00018222678049046,0.00018222279969578,-8.1646114184627e-10,-2.3987470231603e-10,-0.00015698170293902,0.00015698064027054,1.288184405537e-09,-2.3819517210288e-09,-0.00013182872559458,0.00013182345678957,-0.00013894552747683,0.00013894102551797,-0.00013894572027089,0.00013894083152523,-0.00013182452279895,0.00013182765104956,-0.0001318250961889,0.0001318271026328,-0.00013894191031214,0.00013894463682576,-0.00013894210621545,0.00013894445155067,-0.00017697205560431,0.0001769720251073,-0.00017697327501491,0.0001769708047281,-0.00017697186451694,0.0001769722167083,-0.00017697308459176,0.00017697099865283,-0.00016116911378955,0.00016116739845682,-0.00016116967555012,0.00016116682803484,-0.00016116845458968,0.00016116806067018,-0.0001611678851408,0.00016116861805655,-0.00013182815814937,0.00013182402697772,0.77894717560533,129794,2964,0.00065673694090803,0.00079542658113841,0.00065387832463375,25.204070759249,-3.8367433926005e-05,-3.8367433926005e-05,-3.8367433926005e-05,1739931.0145283,0.0021082870571347
16191759,0.13917311324587,0.0024730602002837,0.0008022141197026,0.00087212781848242,0.00079871826209864,-0.00017356713849626,0.00017356606858393,-2.0501435226109e-10,-8.6222176813595e-10,1.3374752116754e-10,-1.2296497020971e-09,-0.00012093844737586,0.00012093536687321,-0.00013400635568856,0.00013400414021692,-0.0001340065775596,0.00013400392726092,-0.00012093644863394,0.00012093738052706,-0.0001209370801286,0.00012093671203864,-0.00013400502657704,0.00013400549306616,-0.00013400523376752,0.00013400525691962,-0.00019926531674185,0.00019926492025318,-0.0001992655300563,0.00019926469499108,-0.00019926575451025,0.00019926446460887,-0.00019926597281483,0.00019926424707245,-0.00018259041619593,0.00018258953892235,-0.0001825910579542,0.00018258889660207,-0.00018258996394601,0.00018259000357786,-0.00018259059910102,0.00018258934851496,-0.00012093780664957,0.00012093600359461,-5.8166344553689e-10,7.8488257065013e-10,-1.4703426433876e-09,1.6727217981165e-09,-0.00021209936388428,0.00021209956713262,-0.00020218775925066,0.00020219059175165,-0.00021715216700507,0.0002171499872014,-0.00021715084746992,0.0002171513520135,-0.0002096515275118,0.00020965025274558,-0.00020965050563626,0.00020965130025418,-0.00020965109662871,0.00020965070767044,-0.00020965007361375,0.00020965175573132,-0.00020219037537378,0.00020218794408257,-0.00020218730875923,0.00020219105070796,-0.00021715113201817,0.0002171510303867,-0.00021714981195535,0.00021715239892014,-0.00020219082243384,0.00020218748770232,-8.6778059973291e-10,-2.1084741846198e-10,-0.00017262012552405,0.00017261904127491,1.006707824188e-09,-2.1203849989384e-09,-0.00014560967389673,0.00014560484009465,-0.00015362888601808,0.00015362492492608,-0.00015362910505473,0.00015362470375641,-0.0001456059281779,0.00014560857971879,-0.00014560657992547,0.00014560795175447,-0.00015362580559847,0.00015362799991517,-0.00015362602849191,0.00015362778792219,-0.00019485430460316,0.0001948540458565,-0.00019485534337356,0.00019485300562267,-0.00019485408722739,0.00019485426494819,-0.00019485512672178,0.00019485322689789,-0.00017798394148137,0.00017798246303538,-0.0001779845799063,0.00017798181222261,-0.00017798354018643,0.00017798286435245,-0.00017798289312758,0.00017798350182827,-0.0001456090291349,0.00014560548922178,0.77198523868396,129794,2964,0.00072295062855824,0.00088335337124337,0.00071899547920559,24.804892269999,-4.1560861840006e-05,-4.1560861840006e-05,-4.1560861840006e-05,1850427.8900378,0.0023280342883858
16391759,0.15146013352292,0.0027044164075346,0.00087508388720015,0.00095804463346662,0.00087128788686782,-0.00018912575822895,0.00018912474969236,-1.3405404995403e-10,-8.7215882912439e-10,-5.3977719289786e-11,-9.7764415978171e-10,-0.00013069990844195,0.0001306972446404,-0.00014556605176553,0.00014556435914576,-0.00014556630043597,0.00014556411830658,-0.00013069826308357,0.00013069890017926,-0.00013069897382936,0.00013069815484548,-0.0001455651518388,0.00014556527465164,-0.00014556538552432,0.00014556501176045,-0.0002175283907292,0.00021752793718207,-0.00021752863193056,0.00021752768613767,-0.00021752868621764,0.00021752762894533,-0.00021752893200035,0.00021752738464244,-0.00020009542403593,0.00020009483339387,-0.00020009614725592,0.00020009411330613,-0.00020009511735947,0.00020009515034777,-0.00020009583399621,0.00020009441918203,-0.00013069918858046,0.00013069796268946,-4.1589862855297e-10,5.1585696131226e-10,-1.199803567445e-09,1.3039434506724e-09,-0.00023314846277952,0.0002331485669053,-0.00022198597891866,0.00022198823101454,-0.00023905424139447,0.00023905259880448,-0.00023905334783561,0.00023905353424442,-0.00023010875599647,0.00023010773607549,-0.000230107940751,0.00023010857002695,-0.00023010846606211,0.00023010804653474,-0.00023010765000412,0.00023010888083022,-0.00022198811694869,0.00022198607129934,-0.00022198567377607,0.00022198854400631,-0.00023905341719049,0.000239053430087,-0.00023905252403305,0.0002390543683202,-0.00022198841958946,0.00022198575995715,-8.797100239856e-10,-1.4260594667739e-10,-0.00018788661624913,0.00018788558933625,7.1870451940437e-10,-1.7703490137754e-09,-0.00015900025242469,0.00015899602993392,-0.00016808545055162,0.00016808220495586,-0.00016808569549885,0.00016808195690662,-0.00015899705910414,0.00015899921850007,-0.00015899779062874,0.0001589985112502,-0.00016808299937267,0.00016808465068055,-0.00016808324985804,0.00016808441212218,-0.00021239121794924,0.00021239077729559,-0.00021239204436837,0.00021238994880875,-0.00021239097390312,0.00021239102350415,-0.00021239180151505,0.0002123901971213,-0.00019446775025227,0.00019446661816113,-0.00019446846566314,0.00019446588818058,-0.00019446763942027,0.00019446672772193,-0.00019446691365739,0.00019446744429484,-0.00015899953118309,0.00015899675700775,0.77561769272518,129794,2964,0.00078773485416314,0.00097097584752276,0.00078256041618647,24.447606182131,-4.4419150542951e-05,-4.4419150542951e-05,-4.4419150542951e-05,1957103.5068187,0.0025445354099844
16591759,0.16357575043376,0.0029403648830235,0.00094892346038096,0.0010465957873685,0.00094484563527411,-0.00020495871807415,0.00020495772383638,-8.6384288041356e-11,-9.0535456766442e-10,-1.8330388583917e-10,-8.3367671824116e-10,-0.00014079601131148,0.00014079355097599,-0.00015761267899713,0.0001576112960133,-0.00015761295456469,0.00015761102753106,-0.00014079455403493,0.0001407950142767,-0.00014079534439833,0.00014079419238431,-0.00015761204510861,0.00015761193946667,-0.00015761230541654,0.0001576116499794,-0.0002360102794281,0.00023600977757719,-0.00023601054885394,0.00023600950105808,-0.00023601048690741,0.00023600956144272,-0.00023601076026227,0.00023600929050383,-0.00021821373358539,0.00021821332773735,-0.00021821453784276,0.00021821252968123,-0.0002182135168843,0.00021821355260503,-0.00021821431497848,0.00021821274504754,-0.00014079521234249,0.00014079434994391,-3.2369925409234e-10,3.3955839568411e-10,-9.1335717008563e-10,9.3695259544885e-10,-0.00025484085120793,0.00025484087415848,-0.00024249257539187,0.00024249419553805,-0.00026169765398058,0.00026169640867018,-0.00026169702512992,0.00026169708089212,-0.00025108644684594,0.00025108564902991,-0.0002510858428608,0.00025108626489105,-0.00025108624383238,0.00025108587100552,-0.00025108563925718,0.00025108648699428,-0.00024249416697052,0.00024249259339913,-0.0002424923607591,0.00024249441845757,-0.00026169704552025,0.00026169702286819,-0.00026169641766726,0.00026169769714189,-0.00024249437979921,0.00024249237146562,-8.7888414123e-10,-6.1559865579539e-11,-0.0002033747818043,0.00020337383767928,4.3703315500282e-10,-1.4006938744826e-09,-0.00017302588471809,0.00017302231261905,-0.00018316971320389,0.00018316722183961,-0.00018316998406133,0.00018316694688909,-0.0001730232563715,0.00017302493597093,-0.00017302406867244,0.00017302415052008,-0.00018316790346904,0.00018316902502503,-0.0001831681819943,0.00018316876043235,-0.00023007441661039,0.00023007381480549,-0.00023007502623634,0.0002300732024335,-0.00023007414554355,0.00023007408770293,-0.00023007475701413,0.0002300734776196,-0.00021138607176098,0.00021138531610319,-0.00021138686522359,0.00021138450770463,-0.00021138625695788,0.00021138513028409,-0.00021138545146422,0.00021138592495245,-0.00017302508638749,0.00017302311751102,0.8031541206353,129794,2964,0.00085365792102399,0.0010612680925795,0.00084704471342064,24.193084703719,-4.6455322370246e-05,-4.6455322370246e-05,-4.6455322370246e-05,2053373.8809667,0.0027658233931876
16791759,0.17551999989658,0.0031736215810229,0.001021426667089,0.0011352840233774,0.0010169108905565,-0.00022050054449393,0.00022049953743215,-5.2447370937937e-11,-9.5165673578261e-10,-2.6361355129431e-10,-7.6726017691209e-10,-0.00015009348246652,0.00015009107483962,-0.00016908319410173,0.00016908196718608,-0.00016908349583601,0.00016908167183962,-0.00015009208826869,0.00015009247063764,-0.00015009296031166,0.00015009157172614,-0.00016908270119933,0.0001690824639944,-0.00016908298886997,0.00016908214787042,-0.00025434372937172,0.00025434319407167,-0.00025434402675432,0.00025434289180501,-0.00025434389039661,0.00025434302765122,-0.00025434419069642,0.00025434273029477,-0.00023615550112287,0.00023615520991169,-0.00023615638461961,0.00023615433463293,-0.00023615533157126,0.00023615538551913,-0.00023615621078167,0.00023615450129333,-0.00015009260659078,0.00015009195258009,-2.8820770449658e-10,2.2790770655349e-10,-6.5340027689266e-10,6.0388643480412e-10,-0.00027664355714122,0.00027664350641004,-0.00026316466423599,0.00026316567831904,-0.00028452274938055,0.00028452177008767,-0.00028452226774084,0.00028452229926707,-0.00027205948609392,0.00027205885806549,-0.00027205907419716,0.00027205927579377,-0.00027205933055715,0.00027205903205333,-0.00027205891785693,0.00027205945009333,-0.00026316572806101,0.0002631646142506,-0.00026316449938256,0.00026316585233213,-0.0002845223371673,0.00028452218646792,-0.0002845218558412,0.00028452271829824,-0.00026316589051349,0.00026316444183539,-8.7553078971349e-10,2.2636171796666e-11,-0.00021850918815296,0.00021850833238642,1.8945575700483e-10,-1.0598347321969e-09,-0.00018652010436007,0.0001865171236863,-0.00019770671707353,0.0001977049240445,-0.00019770701453777,0.0001977046213607,-0.00018651797827591,0.00018651924409541,-0.00018651887056115,0.00018651838209928,-0.00019770548687415,0.00019770614623747,-0.0001977057932275,0.000197705856188,-0.00024752811559835,0.00024752737897862,-0.00024752852962395,0.00024752696169265,-0.00024752781737193,0.00024752767839681,-0.00024752823347354,0.00024752726402415,-0.00022806803474098,0.00022806764170675,-0.00022806890782954,0.00022806675403768,-0.00022806849599705,0.00022806718101143,-0.00022806761048984,0.00022806805344457,-0.00018651922661192,0.00018651800882579,0.80668160003305,129794,2964,0.00091836582620456,0.0011520111976282,0.00091005273225855,23.941213044338,-4.8470295645292e-05,-4.8470295645292e-05,-4.8470295645292e-05,2148722.6262463,0.002984913199693
16991759,0.18729015085975,0.003398730513807,0.0010910619997373,0.0012218376271728,0.001085830886897,-0.00023547960650604,0.00023547858019945,-2.1568719281608e-11,-1.00130356029e-09,-3.1471550648084e-10,-7.3683740640979e-10,-0.00015827095522854,0.00015826852859206,-0.00017952608301958,0.00017952494173492,-0.00017952641113827,0.00017952461916185,-0.00015826955998803,0.00015826992179615,-0.00015827051333913,0.00015826894647024,-0.00017952566775321,0.0001795253564296,-0.00017952598289692,0.00017952501404571,-0.00027230923218289,0.00027230867845031,-0.00027230955731682,0.00027230835023776,-0.00027230936783137,0.00027230854008568,-0.00027230969511906,0.00027230821600661,-0.00025344603372709,0.00025344582986678,-0.00025344699693176,0.00025344487658746,-0.0002534458902072,0.00025344597755986,-0.00025344685020972,0.00025344501643114,-0.0001582700015627,0.00015826948601457,-2.7952534047213e-10,1.5729811922028e-10,-4.205225928115e-10,3.1124837790636e-10,-0.00029816199024681,0.00029816187933407,-0.00028352091644178,0.00028352138175829,-0.00030706661399575,0.00030706582519583,-0.00030706621268784,0.00030706627878196,-0.00029272262449703,0.00029272213518413,-0.0002927223830071,0.00029272237733071,-0.00029272249424417,0.00029272228373141,-0.0002927222519315,0.00029272252619856,-0.00028352149613986,0.00028352081194096,-0.00028352077897637,0.0002835215293723,-0.00030706637527811,0.00030706606655216,-0.00030706597429697,0.00030706652275826,-0.00028352163119501,0.00028352066596948,-8.6945018105739e-10,1.0926408123379e-10,-0.00023301358084582,0.00023301281855037,-2.2507228404916e-11,-7.4955608272153e-10,-0.00019889136316962,0.00019888891515445,-0.00021118296012631,0.00021118180501225,-0.00021118328404105,0.00021118147506945,-0.00019888967455613,0.00019889059731595,-0.0001988906470131,0.0001988896580053,-0.00021118224386893,0.00021118251198065,-0.00021118257802833,0.00021118219611655,-0.00026455747172853,0.00026455662730137,-0.00026455771204501,0.00026455638332873,-0.00026455714637467,0.00026455695331148,-0.00026455738912493,0.00026455671260556,-0.00024410182071191,0.00024410177293576,-0.00024410277294767,0.00024410080662439,-0.00024410253588815,0.00024410105969443,-0.00024410157041068,0.00024410200988884,-0.00019889040664749,0.00019888987920712,0.79134032248917,129794,2964,0.00098072810557683,0.0012415629691485,0.00097043478581931,23.689448690607,-5.0484410475146e-05,-5.0484410475146e-05,-5.0484410475146e-05,2244964.6832316,0.0031978692876214
17191759,0.19861271004774,0.003609901642591,0.001156190917087,0.0013037165340381,0.0011499941914659,-0.0002489645734008,0.00024896349538939,-3.9480079793016e-12,-1.0668274333748e-09,-2.8857355596713e-10,-8.1672633579165e-10,-0.00016481749999958,0.00016481485057552,-0.00018825331707591,0.00018825204160704,-0.00018825367138562,0.00018825170235206,-0.00016481594071454,0.00016481642455408,-0.00016481693669976,0.00016481538083303,-0.00018825280625916,0.00018825256040553,-0.00018825313845935,0.00018825219970405,-0.00028884728776788,0.00028884674497463,-0.00028884764294038,0.00028884638959481,-0.00028884745980042,0.00028884657313096,-0.00028884781740827,0.00028884621883484,-0.00026903133210782,0.00026903112802435,-0.00026903237493229,0.00026903009140762,-0.00026903115370431,0.00026903131274193,-0.00026903218548361,0.0002690302667532,-0.00016481647313028,0.00016481586576942,-3.6220216351665e-10,2.1145617701694e-10,-2.6707062337799e-10,1.2933129022236e-10,-0.00031813854179375,0.00031813840080924,-0.00030226004187053,0.00030226010786726,-0.00032798890468812,0.00032798806564291,-0.00032798837899696,0.00032798866690754,-0.00031192117473722,0.00031192071456119,-0.00031192104106634,0.0003119208477412,-0.00031192099725107,0.00031192091211423,-0.00031192086441491,0.00031192104222201,-0.00030226025625266,0.00030225992140233,-0.00030225986405231,0.00030226029509072,-0.00032798878518139,0.00032798820418226,-0.00032798824506418,0.00032798877767873,-0.00030226043172323,0.00030225972437466,-8.7080392081646e-10,1.8449612762289e-10,-0.00024596891028269,0.00024596822044643,-1.5655438595783e-10,-5.3775755553528e-10,-0.0002093429828847,0.00020934089235725,-0.00022279302468391,0.00022279231513708,-0.00022279337469219,0.00022279195987153,-0.00020934154820924,0.0002093422980936,-0.00020934262406073,0.00020934130421951,-0.00022279264878245,0.00022279268106249,-0.00022279302167005,0.00022279234056752,-0.00028013405140269,0.00028013313327338,-0.00028013417655835,0.00028013300548936,-0.0002801336988033,0.00028013348744079,-0.00028013382804779,0.00028013336129203,-0.00025846742654538,0.00025846763705844,-0.00025846845366122,0.00025846660642078,-0.00025846833671999,0.00025846674708146,-0.00025846728419785,0.00025846776353335,-0.00020934196499172,0.00020934190696257,0.77293680410502,129794,2964,0.0010368682052969,0.0013246906980849,0.0010243657138789,23.132042492915,-5.4943660056678e-05,-5.4943660056678e-05,-5.4943660056678e-05,2331540.9720758,0.0033917093226059
17391759,0.20913057096749,0.0037984494574915,0.001214297529416,0.0013772320854401,0.0012069198426354,-0.00026015103474447,0.00026014985932932,-1.2115122413385e-11,-1.1564916214601e-09,-1.8814094632765e-10,-1.0211427977664e-09,-0.00016920795570238,0.00016920480201668,-0.00019464551189783,0.00019464386664042,-0.00019464589935451,0.0001946434888713,-0.00016920599956837,0.00016920676235171,-0.00016920708978298,0.00016920564452774,-0.00019464469984796,0.00019464468186334,-0.00019464506362171,0.00019464429233118,-0.00030304409989788,0.00030304358963404,-0.00030304448053532,0.00030304320826076,-0.00030304437130151,0.00030304331696956,-0.0003030447560009,0.00030304293569937,-0.00028193868719648,0.00028193836662527,-0.00028193981464528,0.00028193724824103,-0.00028193840782555,0.00028193864826062,-0.00028193952367677,0.00028193752890096,-0.00016920683536188,0.00016920592419301,-5.2983600737367e-10,3.7123587861225e-10,-2.0947367802256e-10,6.2730199421543e-11,-0.00033540697156955,0.00033540682322014,-0.00031820735960109,0.0003182071865057,-0.00034607111772534,0.00034606998498136,-0.00034607026972261,0.00034607091429687,-0.00032857077603185,0.00032857024332319,-0.00032857068246296,0.00032857033459859,-0.00032857049277723,0.00032857055188243,-0.00032857040139412,0.00032857063976284,-0.00031820733875335,0.00031820722672407,-0.00031820707232087,0.00031820748157184,-0.00034607102890923,0.00034607007797073,-0.00034607018363857,0.0003460709945017,-0.00031820762844905,0.00031820691872263,-8.9521104615509e-10,2.4054253522302e-10,-0.0002566039251246,0.00025660326808211,-2.0572732865248e-10,-4.5611558002865e-10,-0.00021712709838912,0.00021712508644963,-0.00023176529139674,0.00023176476550903,-0.0002317656639471,0.00023176438325487,-0.00021712571757299,0.00021712644875292,-0.00021712687249861,0.00021712535685184,-0.00023176503819868,0.00023176500217153,-0.00023176543566716,0.00023176463079147,-0.0002933920701277,0.00029339111647705,-0.00029339215051003,0.00029339103224081,-0.00029339169000252,0.00029339149609195,-0.00029339177663345,0.00029339141310711,-0.00027028661710116,0.00027028698217279,-0.00027028772029477,0.00027028587081562,-0.00027028765070284,0.00027028596430057,-0.00027028651930252,0.00027028706410143,-0.00021712600324562,0.00021712618950022,0.74411372896969,129794,2964,0.0010834384763754,0.0013965435489641,0.0010686361869328,22.132248799147,-6.2942009606826e-05,-6.2942009606826e-05,-6.2942009606826e-05,2403559.7715909,0.003554973943104
17591759,0.2188825924745,0.0039668585564664,0.0012662358346399,0.00144308524879,0.0012575374730365,-0.00026998395336027,0.00026998269202663,-1.5409872834551e-11,-1.2386287947038e-09,-1.0610027841521e-10,-1.1935772190132e-09,-0.00017253942358357,0.00017253585705379,-0.00019979962207246,0.00019979766075583,-0.00019980003281321,0.00019979725812398,-0.00017253713398197,0.00017253814768909,-0.00017253831210483,0.00017253694578738,-0.00019979855592502,0.00019979872751729,-0.00019979894847927,0.00019979830934448,-0.0003157882230305,0.00031578773982388,-0.00031578863079877,0.00031578733143253,-0.00031578857934534,0.00031578738182259,-0.00031578898951419,0.00031578697520126,-0.00029317703891165,0.00029317662254026,-0.00029317824246762,0.00029317543004585,-0.00029317667163591,0.00029317699253301,-0.00029317786951477,0.00029317579428609,-0.00017253823164271,0.00017253705092955,-6.5171776182268e-10,4.7947326963305e-10,-1.7619812357618e-10,1.6754065336799e-11,-0.00035087708959783,0.00035087692795477,-0.00033228135351253,0.00033228101152071,-0.00036223592393853,0.00036223457747422,-0.00036223485589105,0.000362235736893,-0.00034357976780337,0.00034357917198312,-0.00034357970088631,0.00034357923607137,-0.00034357941025387,0.00034357955831333,-0.00034357934400807,0.000343579620844,-0.00033228118240984,0.0003322812091526,-0.00033228098986515,0.00033228138935476,-0.00036223586438321,0.00036223464242958,-0.0003622347938172,0.0003622357949438,-0.00033228154451891,0.00033228082629234,-9.2398959657377e-10,2.9425948070721e-10,-0.00026589072888791,0.00026589009727562,-2.2608166607766e-10,-4.0912972850665e-10,-0.00022340237908538,0.00022340037368415,-0.00023923655669981,0.00023923615214333,-0.00023923695764119,0.00023923574154479,-0.00022340098607583,0.00022340174771914,-0.00022340221475584,0.00022340058539026,-0.00023923637171608,0.00023923632048773,-0.00023923679533537,0.00023923592678526,-0.00030523704345608,0.00030523606636672,-0.00030523710213728,0.00030523600359122,-0.00030523663644497,0.00030523647200402,-0.00030523670004071,0.00030523641261803,-0.00028055688234001,0.00028055737833049,-0.00028055806881459,0.00028055618215151,-0.00028055801894672,0.00028055625541852,-0.00028055680864692,0.00028055743359008,-0.00022340119797671,0.00022340156474371,0.71798588830967,129794,2964,0.0011243730712932,0.0014609092465296,0.0011072933998425,21.121014712358,-7.1031882301135e-05,-7.1031882301135e-05,-7.1031882301135e-05,2469981.9605008,0.0036994604846939
17791759,0.22792701733294,0.0041181551312778,0.0013129431704916,0.0015023609405447,0.0013028510202416,-0.00027868912679693,0.00027868780900975,-3.1204516429325e-12,-1.306916343941e-09,-7.1211174201921e-11,-1.2880766661935e-09,-0.00017513056980622,0.00017512673846429,-0.00020404234264202,0.00020404022114769,-0.00020404277966824,0.00020403979114801,-0.0001751280729452,0.00017512923498781,-0.00017512933185502,0.00017512795530376,-0.00020404114767825,0.000204041413895,-0.00020404156784305,0.00020404096914963,-0.00032727715534449,0.0003272766863768,-0.00032727759009734,0.00032727625123665,-0.00032727755460876,0.00032727628592197,-0.00032727799163722,0.00032727585247747,-0.000303031841766,0.00030303140591381,-0.00030303312500027,0.00030303013514306,-0.00030303143153664,0.00030303181888681,-0.00030303270897446,0.00030303054246363,-0.00017512929968773,0.00017512801230044,-7.2967708988048e-10,5.3222393398895e-10,-1.7604628119739e-10,-7.4487781395641e-12,-0.00036479290216236,0.00036479271620333,-0.00034476698890038,0.00034476655584927,-0.00037674164253086,0.00037674014960779,-0.00037674044995058,0.00037674144187961,-0.00035717376552174,0.00035717311042165,-0.00035717370683846,0.00035717316639133,-0.00035717336568525,0.00035717354138055,-0.00035717330776908,0.00035717359587211,-0.00034476675184464,0.00034476682152926,-0.00034476658280358,0.00034476697840612,-0.00037674159068921,0.0003767402069194,-0.00037674039576887,0.00037674149282371,-0.00034476715640128,0.00034476639446914,-9.5541275104444e-10,3.4335150720008e-10,-0.00027406581111369,0.00027406519740904,-2.2866206630887e-10,-3.882322976471e-10,-0.00022853199634694,0.00022852995295102,-0.00024555532240847,0.0002455549858211,-0.00024555575024978,0.00024555454859143,-0.00022853054759934,0.00022853138158015,-0.00022853185490609,0.00022853014095032,-0.00024555516037614,0.00024555513089085,-0.00024555561123879,0.00024555471113155,-0.00031586815892498,0.0003158671648488,-0.00031586820962823,0.00031586711006489,-0.00031586772492213,0.00031586759714169,-0.00031586778059406,0.00031586754584869,-0.0002895566732035,0.00028955727378034,-0.00028955793893604,0.00028955599873025,-0.00028955789678488,0.00028955606412064,-0.0002895566074892,0.00028955732058724,-0.00022853073504133,0.0002285312220325,0.69669206609173,129794,2964,0.0011606123215576,0.001518804345833,0.0011413221784092,20.125824104361,-7.8993407165115e-05,-7.8993407165115e-05,-7.8993407165115e-05,2531466.9027781,0.0038281135522642
17991759,0.23632319246109,0.0042568908312335,0.001355792932679,0.0015567834031571,0.0013443144953974,-0.00028653946563917,0.00028653810921833,1.7855097450794e-11,-1.3663012072301e-09,-6.2493155560818e-11,-1.3374557387188e-09,-0.00017734830007583,0.00017734429192898,-0.00020776121055384,0.0002077590181959,-0.00020776167407224,0.00020775856067066,-0.00017734566671052,0.0001773469240508,-0.00017734700537646,0.00017734556725657,-0.00020775995742998,0.00020776026630699,-0.00020776040473901,0.00020775979536961,-0.0003377356958944,0.00033773523522272,-0.00033773615745667,0.00033773477342449,-0.00033773611493323,0.00033773481587082,-0.00033773657876681,0.00033773435559615,-0.00031190836305531,0.00031190794838554,-0.00031190972587313,0.00031190659942009,-0.00031190793354502,0.00031190838084529,-0.0003119092899027,0.00031190702633534,-0.00017734695159568,0.00017734564648798,-7.764729839451e-10,5.4645941317514e-10,-1.9092246709766e-10,-2.3546558864792e-11,-0.00037747755138649,0.00037747733414176,-0.00035604397220331,0.00035604348749756,-0.00038994526046734,0.00038994367502303,-0.00038994401054428,0.00038994503024867,-0.00036962797901162,0.00036962727295835,-0.00036962792111049,0.00036962732873548,-0.0003696275593312,0.00036962772501456,-0.00036962750226579,0.00036962777908143,-0.00035604371475103,0.00035604377455558,-0.00035604354698574,0.00035604393100836,-0.00038994520869793,0.00038994373262356,-0.00038994395684043,0.00038994508147939,-0.00035604413885615,0.00035604332676389,-9.9084743255211e-10,3.8864551676389e-10,-0.0002814024393203,0.00028140183559691,-2.2416070625707e-10,-3.8267551126042e-10,-0.00023298738594549,0.00023298527484912,-0.00025118204459064,0.00025118174530568,-0.00025118249901866,0.00025118128166664,-0.00023298585954961,0.00023298678114653,-0.00023298724708575,0.00023298546174944,-0.00025118188317158,0.00025118188962928,-0.0002511823617074,0.00025118144376461,-0.00032549877085605,0.0003254977592833,-0.00032549882079078,0.00032549770496941,-0.00032549830965482,0.00032549821825024,-0.0003254983648953,0.00032549816753333,-0.00029763534696027,0.00029763603665422,-0.00029763669121769,0.00029763468218627,-0.00029763664986704,0.00029763474733002,-0.0002976352811884,0.00029763608270136,-0.00023298604632476,0.00023298662268082,0.68920300193234,129794,2964,0.001193292442536,0.0015715742180606,0.0011718602380628,19.154251196773,-8.6765990425816e-05,-8.6765990425816e-05,-8.6765990425816e-05,2585577.695401,0.0039445599891751
18191759,0.24411123842179,0.0043876717771514,0.0013961598474016,0.0016081263315011,0.0013833855982486,-0.00029375063094828,0.00029374924726547,4.457004076879e-11,-1.4201440803085e-09,-7.5456916328296e-11,-1.3534179785098e-09,-0.00017945039848264,0.00017944628017511,-0.00021126686551821,0.00021126466805248,-0.00021126735570173,0.00021126418345154,-0.0001794476827327,0.00017944899392149,-0.00017944910152322,0.0001794475588396,-0.00021126560861595,0.00021126591803635,-0.00021126608315171,0.00021126542038514,-0.00034733856343609,0.000347338104251,-0.00034733905192545,0.00034733761556988,-0.00034733898410286,0.00034733768415673,-0.00034733947482696,0.0003473371971328,-0.0003201662527315,0.00032016588894466,-0.0003201676947045,0.00032016446144388,-0.00032016582157719,0.00032016632262892,-0.00032016725715274,0.00032016488931103,-0.00017944897204086,0.00017944771421449,-7.9615601737723e-10,5.3012057240559e-10,-2.1863397160835e-10,-3.0222000789402e-11,-0.00038922773355502,0.00038922748173847,-0.00036648777161298,0.00036648727245156,-0.00040217687382879,0.00040217524264726,-0.0004021756233096,0.00040217660327084,-0.00038116609907465,0.00038116535083742,-0.00038116603483501,0.00038116541367733,-0.00038116567862321,0.0003811658045093,-0.0003811656152092,0.00038116586588041,-0.00036648753339332,0.00036648753869115,-0.00036648734594805,0.00036648771743933,-0.00040217681511338,0.00040217530747821,-0.0004021755625963,0.00040217666237569,-0.00036648795764002,0.00036648708965369,-1.0332369654477e-09,4.2675609080613e-10,-0.00028811000742692,0.00028810939944617,-2.1599898983133e-10,-3.9585838707948e-10,-0.00023718193635627,0.00023717972003409,-0.00025649278092549,0.00025649248246853,-0.00025649326197282,0.00025649199152845,-0.00023718030994145,0.00023718132643579,-0.0002371817770499,0.00023717992954543,-0.00025649259814522,0.00025649264746354,-0.00025649310393441,0.00025649217530981,-0.00033428778869829,0.00033428675329061,-0.00033428784539285,0.00033428669188012,-0.00033428730051411,0.00033428723891166,-0.00033428736276002,0.00033428718145407,-0.00030509911173044,0.00030509986929875,-0.00030510053463464,0.00030509843553143,-0.00030510048687088,0.0003050985084273,-0.00030509903874922,0.00030509992188872,-0.00023718051817712,0.00023718114741316,0.70094114610908,129794,2964,0.0012233113468499,0.0016204538712578,0.0011997793355394,18.183290453023,-9.4533676375817e-05,-9.4533676375817e-05,-9.4533676375817e-05,2627595.5363216,0.0040518115748649
18391759,0.2515084157089,0.0045122457906948,0.0014345888596691,0.0016571112120684,0.0014205457189573,-0.00030104120277113,0.00030103983024781,9.0081093481487e-11,-1.4557470648529e-09,-1.3894711109202e-10,-1.2729162612452e-09,-0.00018178762691946,0.00018178362657046,-0.00021502079425313,0.00021501877213357,-0.0002150212958581,0.00021501828203109,-0.00018178500599572,0.00018178625635691,-0.00018178647427516,0.0001817847584988,-0.00021501967873621,0.00021501988202991,-0.00021502016586881,0.00021501936868765,-0.0003569390831607,0.00035693861429323,-0.00035693960069523,0.00035693809846188,-0.00035693945889514,0.00035693824271048,-0.00035693997751115,0.00035693772866799,-0.00032854059861665,0.00032854037325275,-0.00032854212625443,0.0003285388625018,-0.00032854021617261,0.00032854076280934,-0.00032854173727915,0.00032853924397048,-0.00018178614575856,0.00018178509403492,-7.479117629855e-10,4.3235416460913e-10,-2.1018519299766e-10,-8.0127238051151e-11,-0.00040093753474942,0.00040093723555786,-0.00037695058436492,0.00037695004006899,-0.00041435404956667,0.000414352532236,-0.00041435294393047,0.00041435375137644,-0.00039265152085777,0.00039265078769569,-0.00039265147525259,0.00039265083239717,-0.00039265114612171,0.00039265119286152,-0.00039265110128162,0.00039265123598822,-0.00037695036402212,0.00037695033895207,-0.00037695022086289,0.00037695044870028,-0.00041435402817151,0.00041435259541738,-0.00041435288839716,0.00041435376709425,-0.00037695072572894,0.00037694993749439,-1.0683512020903e-09,4.7251912902672e-10,-0.0002948968247885,0.00029489622821278,-2.3538175951123e-10,-3.5830562194165e-10,-0.00024159961865922,0.00024159740933351,-0.00026199154338188,0.00026199134947998,-0.00026199205181857,0.00026199084273853,-0.0002415979600647,0.00024159904049185,-0.00024159953811037,0.00024159758493575,-0.00026199142707032,0.00026199146837652,-0.00026199197256947,0.00026199098212794,-0.00034307349495707,0.00034307242228045,-0.00034307353385976,0.00034307238041902,-0.00034307298164492,0.00034307293692589,-0.00034307302595695,0.00034307289870842,-0.0003126837682803,0.000312684635956,-0.00031268527038197,0.00031268311353001,-0.00031268523732786,0.00031268316634992,-0.00031268370995149,0.00031268466814573,-0.00024159812106044,0.0002415989020762,0.70344890237538,129794,2964,0.0012536600858647,0.0016691631542452,0.0012280276004473,17.511801890251,-9.9905584877993e-05,-9.9905584877993e-05,-9.9905584877993e-05,2667974.7841696,0.0041595651718941
18591759,0.25877893230933,0.0046320841035801,0.0014715517488175,0.0017043613057728,0.0014561710489898,-0.00030880346117315,0.00030880213718188,1.5272275660109e-10,-1.4730001539005e-09,-2.5619918759215e-10,-1.1071354199052e-09,-0.00018446271039288,0.00018445892095944,-0.00021913327931185,0.0002191316203322,-0.00021913381712459,0.00021913108264825,-0.00018446025872174,0.00018446135828889,-0.00018446184274709,0.00018445977697482,-0.0002191324343786,0.00021913244417904,-0.00021913296136311,0.00021913189665851,-0.00036706049824761,0.00036706001155157,-0.00036706104019153,0.00036705947039977,-0.00036706078053157,0.00036705973453203,-0.00036706132473268,0.0003670591945153,-0.00033735365220771,0.00033735364416493,-0.00033735525929461,0.00033735205789615,-0.00033735336445987,0.00033735393385188,-0.00033735496633615,0.00033735234738338,-0.00018446112783031,0.00018446051316687,-6.4866737421581e-10,2.5700566045174e-10,-1.7124916361369e-10,-1.9351665681547e-10,-0.00041314721430582,0.00041314684391703,-0.00038786689991372,0.00038786622242544,-0.00042703256578131,0.00042703129164768,-0.00042703172124115,0.00042703223196358,-0.00040463509853222,0.0004046344407698,-0.00040463510260098,0.00040463443260076,-0.00040463481383083,0.00040463475326456,-0.00040463481889185,0.00040463474413174,-0.00038786660716837,0.00038786656451086,-0.00038786662058755,0.00038786653427909,-0.0004270325779687,0.00042703129305551,-0.00042703172761715,0.00042703221938197,-0.00038786688968262,0.0003878662570188,-1.0936489990973e-09,5.2889420957142e-10,-0.00030214665046553,0.00030214608642669,-2.9717626882881e-10,-2.6631283850941e-10,-0.00024635511553985,0.00024635299726265,-0.00026784927915662,0.00026784928671642,-0.00026784981121636,0.00026784874974637,-0.00024635354640085,0.00024635456357658,-0.00024635517415388,0.00024635299629902,-0.00026784930618577,0.0002678492529118,-0.00026784986672657,0.00026784873150781,-0.00035236475325287,0.00035236363800006,-0.00035236473928288,0.00035236364674098,-0.00035236421245639,0.000352364178114,-0.0003523642047999,0.00035236419051379,-0.00032076302260602,0.00032076405150703,-0.00032076459818088,0.00032076244706007,-0.00032076461804598,0.00032076244520278,-0.00032076302009532,0.00032076403229788,-0.00024635354011661,0.00024635458875421,0.68932006098344,129794,2964,0.0012859713330445,0.0017199494202111,0.0012582021440963,17.2637823964,-0.0001018897408288,-0.0001018897408288,-0.0001018897408288,2716219.2077383,0.0042733224123412
18791759,0.26592971702419,0.0047570540959568,0.0015099787398265,0.0017537026244136,0.0014933727317167,-0.00031680959225458,0.00031680828255146,2.0111217086711e-10,-1.505154329039e-09,-3.1660773758624e-10,-1.0324835867396e-09,-0.00018778632212716,0.00018778260506854,-0.00022383655627791,0.00022383507011467,-0.000223837123311,0.00022383450789368,-0.00018778392733947,0.00018778498975407,-0.00018778558455362,0.0001877833260267,-0.00022383584649174,0.00022383576108464,-0.00022383640132015,0.00022383518739616,-0.00037726874441406,0.00037726825457212,-0.00037726931447006,0.00037726768607307,-0.00037726898396282,0.00037726802248799,-0.00037726955546854,0.0003772674550225,-0.00034666304586029,0.00034666317625783,-0.00034666472641884,0.00034666151165416,-0.00034666279922437,0.00034666342257021,-0.00034666447490201,0.00034666175387891,-0.00018778466288104,0.00018778427074484,-6.0619789705565e-10,1.6104325870315e-10,-1.4015549268874e-10,-2.7742095077703e-10,-0.00042562479141005,0.0004256243684228,-0.00039918434583726,0.00039918354731519,-0.00044004518006257,0.00044004403189557,-0.00044004447599939,0.00044004483469369,-0.00041683651176938,0.0004168358837904,-0.00041683655310351,0.00041683583775469,-0.00041683627101619,0.00041683615060318,-0.00041683631325112,0.00041683610353938,-0.00039918398259411,0.00039918395253764,-0.00039918410951589,0.00039918380870022,-0.00044004523066066,0.00044004399178763,-0.00044004451904817,0.00044004478162205,-0.00039918421853677,0.00039918369138288,-1.1248590296229e-09,5.770882609674e-10,-0.00030960602659389,0.00030960547841718,-3.4574316524595e-10,-2.0194607003292e-10,-0.00025178141350445,0.00025177934408859,-0.00027434941345017,0.0002743495763999,-0.000274349973788,0.00027434900781372,-0.00025177987385928,0.00025178087281009,-0.00025178158080793,0.00025177923804162,-0.00027434955122018,0.00027434942759705,-0.00027435013933693,0.00027434887768802,-0.00036169357525535,0.00036169241047523,-0.0003616935237153,0.00036169245650149,-0.00036169300734042,0.00036169297749252,-0.00036169296197164,0.00036169302783545,-0.00032923744427024,0.00032923860373461,-0.00032923910064855,0.0003292369287237,-0.00032923915978312,0.00032923689363534,-0.00032923747864329,0.00032923854897882,-0.00025177976202195,0.00025178101082744,0.73043485588083,129794,2964,0.0013192966374127,0.0017718472222926,0.0012892479427303,17.026680026104,-0.00010378655979117,-0.00010378655979117,-0.00010378655979117,2753474.6821695,0.0043901009920991
18991759,0.27296221211724,0.0048820751814491,0.0015483150932714,0.0018032664612762,0.0015304936269015,-0.00032476772397843,0.00032476639658764,2.3254776497247e-10,-1.5541958753829e-09,-3.3866574751594e-10,-1.0291038779138e-09,-0.00019097258125736,0.00019096879171498,-0.00022857311249981,0.00022857165965136,-0.00022857370676258,0.00022857107059768,-0.00019097013130449,0.00019097123005451,-0.00019097186801391,0.00019096948807121,-0.0002285724275026,0.00022857232519328,-0.00022857300937594,0.00022857172462654,-0.00038742584656081,0.00038742535818973,-0.00038742644353763,0.00038742476289816,-0.00038742607847962,0.00038742513472801,-0.00038742667680895,0.00038742454039545,-0.00035603034247431,0.00035603054237465,-0.00035603210172089,0.00035602879881248,-0.00035603010319193,0.00035603078000816,-0.00035603185799069,0.00035602903278782,-0.00019097084330777,0.00019097053631979,-6.1420904576173e-10,1.2897617292895e-10,-1.1627112587192e-10,-3.3997930649515e-10,-0.0004381185997849,0.00043811813804438,-0.00041059747152716,0.00041059655766701,-0.00045312680391381,0.0004531256702272,-0.00045312612586834,0.00045312644926706,-0.00042898379598923,0.00042898316590158,-0.00042898386571877,0.00042898309110546,-0.00042898356312445,0.00042898342505032,-0.00042898363374216,0.00042898334927309,-0.00041059703129155,0.00041059703898659,-0.00041059724347014,0.00041059681075231,-0.00045312688319549,0.00045312560067355,-0.00045312619776293,0.00045312636739713,-0.00041059725879275,0.00041059678595962,-1.1631625616895e-09,6.1935497436597e-10,-0.0003169901597032,0.00031698961551354,-3.8690238981899e-10,-1.5688254004554e-10,-0.00025725387592282,0.00025725181635047,-0.00028085759053724,0.00028085786863188,-0.00028085817749001,0.00028085727267381,-0.00025725234313788,0.00025725333974418,-0.00025725412893908,0.0002572516265282,-0.00028085781252297,0.00028085763475794,-0.0002808584276419,0.00028085705814133,-0.00037094910070466,0.00037094788442143,-0.00037094902018946,0.0003709479590568,-0.00037094850586895,0.00037094847825658,-0.00037094843175225,0.00037094855750279,-0.00033773149133046,0.00033773276218422,-0.00033773322658496,0.00033773100834929,-0.0003377333149118,0.00033773094509114,-0.00033773155474974,0.00033773267896937,-0.00025725214620325,0.00025725356249959,0.74318761514285,129794,2964,0.0013524217571048,0.001823809772451,0.0013199800022444,16.790018145418,-0.00010567985483666,-0.00010567985483666,-0.00010567985483666,2784529.4929612,0.0045064418015265
19191759,0.28010487389663,0.0050163280474907,0.0015893025355963,0.0018567082013651,0.0015703173105293,-0.000333952905257,0.00033395157345222,2.7085636636217e-10,-1.5961780305627e-09,-4.052463197531e-10,-9.6701007735151e-10,-0.00019543196599926,0.0001954282181472,-0.00023468515587779,0.00023468385199313,-0.00023468577805272,0.00023468323609878,-0.00019542956462832,0.00019543060903584,-0.00019543137386738,0.00019542879042414,-0.00023468459838446,0.00023468438907056,-0.00023468520504019,0.00023468376272029,-0.000398785882361,0.00039878537385066,-0.00039878650629671,0.00039878475208366,-0.00039878607253156,0.00039878519359832,-0.00039878669825803,0.00039878457197873,-0.00036696259684226,0.00036696291437384,-0.00036696443445883,0.00036696109249471,-0.0003669624010797,0.00036696310896493,-0.00036696423140406,0.00036696128389763,-0.00019543014778873,0.00019543004291036,-5.7719708042246e-10,4.8930845264279e-11,-4.9584616597161e-11,-4.4817270864518e-10,-0.00045211440273819,0.00045211389928287,-0.00042364102625291,0.00042363993949367,-0.00046778577331699,0.00046778477086337,-0.00046778521181775,0.00046778543580991,-0.00044252898615522,0.00044252840954086,-0.00044252911257837,0.00044252827729101,-0.00044252879045679,0.00044252863064923,-0.00044252891822698,0.00044252849612349,-0.00042364045398825,0.00042364055354023,-0.00042364083844885,0.00042364015168012,-0.00046778591082081,0.00046778464410575,-0.0004677853422108,0.00046778529298632,-0.00042364064254379,0.00042364033844219,-1.1960133402311e-09,6.6687953478798e-10,-0.00032555694529645,0.00032555641554246,-4.6852622619696e-10,-6.0100946516162e-11,-0.00026426226884106,0.0002642603250096,-0.00028886474605704,0.00028886524032384,-0.00028886535936256,0.00028886461796506,-0.00026426083247587,0.0002642617484422,-0.00026426270065316,0.00026425995895494,-0.00028886514212987,0.00028886483098061,-0.00028886578678553,0.00028886422761564,-0.00038135121669879,0.00038134992758343,-0.00038135107636493,0.0003813500617835,-0.00038135059439696,0.0003813505487473,-0.000381350461245,0.00038135068729312,-0.00034757813249784,0.00034757955468204,-0.00034757994606774,0.00034757772505289,-0.0003475800960869,0.00034757760299819,-0.00034757825356965,0.00034757941274738,-0.00026426046554861,0.00026426214433128,0.78534702977239,129794,2964,0.0013906524785377,0.0018820156493228,0.0013556326568312,16.952909102663,-0.0001043767271787,-0.0001043767271787,-0.0001043767271787,2818176.2319887,0.0046391395396291
19391759,0.28756301674146,0.0051535360236532,0.0016310688797802,0.0019117274509367,0.0016107396929363,-0.00034395761060031,0.00034395628952474,3.1311533246799e-10,-1.6305752224874e-09,-4.9173861159796e-10,-8.6781809539259e-10,-0.00019993031517976,0.00019992669944043,-0.00024109547831579,0.000241094392072,-0.00024109611835461,0.0002410937545591,-0.00019992801894901,0.0001999289768978,-0.00019992992370846,0.00019992707686625,-0.00024109509532396,0.00024109474916954,-0.00024109573060509,0.00024109409353011,-0.00041123751533682,0.00041123698377332,-0.0004112381650052,0.00041123633509888,-0.00041123764590327,0.00041123686372194,-0.00041123829507947,0.00041123621843924,-0.00037874334711703,0.00037874380563486,-0.00037874526150653,0.00037874191108774,-0.00037874321033075,0.00037874394176163,-0.00037874512683994,0.00037874203943215,-0.00019992843341715,0.00019992858806567,-4.9070976368297e-10,-9.6564357361564e-11,5.1552535224921e-11,-6.0330921408074e-10,-0.00046743277738034,0.00046743221836046,-0.00043791854698509,0.00043791722997064,-0.00048386532533797,0.00048386457944708,-0.00048386499111024,0.00048386500879535,-0.00045728472883594,0.00045728425953004,-0.00045728493998551,0.00045728403997441,-0.00045728460929045,0.00045728440128351,-0.00045728481850284,0.00045728418245512,-0.00043791780878432,0.000437918024821,-0.0004379184374073,0.00043791737567531,-0.00048386555211004,0.00048386436699874,-0.00048386520146605,0.00048386478580215,-0.00043791791489244,0.00043791789303398,-1.2247970527678e-09,7.2407240511446e-10,-0.00033491217957293,0.00033491167983845,-5.6839663395388e-10,7.2267272406217e-11,-0.00027163678502823,0.00027163500806208,-0.00029733718189334,0.00029733796703092,-0.00029733782508889,0.00029733731849682,-0.0002716355019025,0.00027163629325896,-0.00027163744197021,0.00027163442355741,-0.00029733781238168,0.0002973373305867,-0.00029733848153348,0.00029733670753695,-0.00039280750881666,0.00039280614638597,-0.00039280729180161,0.00039280635607944,-0.00039280685970996,0.00039280679367082,-0.00039280664783827,0.00039280701071697,-0.00035823573085838,0.00035823734999229,-0.00035823763032699,0.00035823542164868,-0.00035823785204336,0.00035823522297625,-0.00035823593446527,0.00035823712346111,-0.00027163488581926,0.00027163692879903,0.76951387643043,129794,2964,0.0014322934374314,0.001945718142894,0.0013945655250986,17.46634845932,-0.00010026921232544,-0.00010026921232544,-0.00010026921232544,2863477.2415755,0.0047841015273778
19591759,0.29534924934381,0.005293353739142,0.0016735485022725,0.0019681363909631,0.0016516688459064,-0.00035420861454258,0.00035420730380601,3.6032261983248e-10,-1.6663200357138e-09,-5.5801681600607e-10,-7.9201035845074e-10,-0.00020442855895161,0.00020442500534961,-0.00024747072234225,0.00024746981414453,-0.0002474713940489,0.00024746914655625,-0.00020442632146802,0.00020442722511107,-0.00020442830151271,0.00020442524847365,-0.00024747048071755,0.00024747002863614,-0.00024747114409589,0.00024746934745806,-0.00042409188191755,0.00042409134054907,-0.00042409255963973,0.00042409066547352,-0.0004240919661214,0.00042409126950771,-0.00042409264388101,0.00042409059566545,-0.00039071023504328,0.0003907108361604,-0.000390712229727,0.00039070885993805,-0.00039071014585891,0.00039071092123053,-0.0003907121390945,0.00039070894103155,-0.00020442659056451,0.00020442698276121,-4.5760633244066e-10,-1.8197033715721e-10,1.2809715705066e-10,-7.315138773529e-10,-0.00048324072873725,0.00048324011861144,-0.00045255198219241,0.00045255045318211,-0.00050035771078714,0.00050035709864864,-0.00050035749482224,0.00050035741286544,-0.00047258262012452,0.00047258220683066,-0.00047258289719192,0.00047258191894375,-0.00047258253906702,0.0004725823097893,-0.000472582816232,0.0004725820220504,-0.00045255107894092,0.00045255140728724,-0.00045255191142685,0.00045255055317784,-0.00050035800107328,0.00050035681727307,-0.0005003577753939,0.00050035712015246,-0.00045255114809612,0.00045255131225025,-1.2459395808055e-09,7.8017003853203e-10,-0.000344470976765,0.00034447051174064,-6.5832572117188e-10,1.9758027808892e-10,-0.00027893110581712,0.00027892950429699,-0.00030580382655591,0.00030580488363029,-0.00030580449536624,0.00030580420685146,-0.00027892995727873,0.00027893064992105,-0.00027893197658382,0.00027892870035507,-0.00030580466625843,0.0003058040348387,-0.00030580536195774,0.00030580338046477,-0.00040462377193133,0.00040462234535424,-0.00040462348323465,0.00040462262754149,-0.00040462309651,0.00040462302022901,-0.00040462281352551,0.00040462330826098,-0.00036908971174044,0.00036909150975565,-0.00036909168576785,0.00036908951347644,-0.0003690919828105,0.00036908924274039,-0.00036908998596376,0.00036909121532813,-0.00027892913473556,0.00027893149241091,0.75193871634469,129794,2964,0.0014749584097749,0.0020114521026313,0.0014343444396344,17.98888215623,-9.6088942750156e-05,-9.6088942750156e-05,-9.6088942750156e-05,2916960.1414138,0.0049330063252465
19791759,0.30347078569083,0.005435336860281,0.0017166407512363,0.0020256975483556,0.0016929985606892,-0.00036467451916941,0.00036467318568731,3.8963138183756e-10,-1.7178359780106e-09,-5.6298983712046e-10,-8.1144983730859e-10,-0.00020888836266548,0.0002088846900405,-0.00025380181941811,0.00025380089988168,-0.00025380251870437,0.00025380020464125,-0.0002088860296429,0.00020888700378166,-0.00020888808897233,0.00020888494887282,-0.00025380156326123,0.00025380112740734,-0.00025380225388495,0.00025380041973246,-0.00043730990510191,0.00043730937358645,-0.00043731060982469,0.00043730867177716,-0.00043730999506378,0.00043730929795519,-0.00043731069974834,0.00043730859704812,-0.0004027967637401,0.00040279741679792,-0.00040279883739154,0.00040279536140716,-0.0004027966687358,0.00040279750668771,-0.0004027987404907,0.00040279544754787,-0.0002088863150002,0.0002088867482379,-4.8979005183836e-10,-1.9417864074695e-10,1.7433192575728e-10,-8.211148995825e-10,-0.00049947427245278,0.00049947361902275,-0.00046745258926024,0.00046745087715158,-0.00051721606045036,0.00051721543078177,-0.00051721582767501,0.00051721576604387,-0.00048837076120765,0.00048837034308034,-0.00048837108273738,0.00048837001001947,-0.00048837067388789,0.00048837045317431,-0.00048837099548571,0.00048837011999919,-0.00046745154630615,0.00046745197072563,-0.00046745251236759,0.0004674509828175,-0.00051721639509809,0.00051721510337116,-0.00051721615362755,0.00051721542784534,-0.00046745162187627,0.00046745186891458,-1.2744653561292e-09,8.3183572438667e-10,-0.00035420067299684,0.00035420023104355,-7.1479665810165e-10,2.7780884206807e-10,-0.00028611657584162,0.00028611505412108,-0.00031423599084675,0.00031423723184043,-0.00031423668588828,0.00031423652773487,-0.00028611548301244,0.00028611614263197,-0.00028611758280409,0.00028611411563025,-0.000314236963439,0.00031423624753871,-0.00031423768660892,0.00031423556647536,-0.00041675301086938,0.00041675153467085,-0.0004167526761434,0.00041675186216486,-0.00041675230814844,0.00041675223604325,-0.0004167519799157,0.00041675256978414,-0.00038010581469986,0.00038010775927201,-0.00038010786704678,0.00038010568549299,-0.00038010821139539,0.00038010537029383,-0.0003801061337611,0.00038010741948818,-0.00028611452806808,0.00028611712081341,0.73294776517906,129794,2964,0.0015185165807133,0.0020789511608803,0.001474833373675,18.511783220031,-9.1905734239752e-05,-9.1905734239752e-05,-9.1905734239752e-05,2976446.1321625,0.0050853199342864
19991759,0.31170207596664,0.0055822449827097,0.0017610990877729,0.0020854917300841,0.0017356541648528,-0.0003747858035009,0.00037478438433235,3.8871062539251e-10,-1.7986559006057e-09,-4.818566987042e-10,-9.8493546907398e-10,-0.00021316299497342,0.00021315890161439,-0.00025993693882838,0.00025993570243055,-0.00025993766882157,0.00025993498131433,-0.00021316032819291,0.00021316155454261,-0.0002131624638146,0.00021315941125384,-0.00025993643614034,0.00025993618281352,-0.00025993715565651,0.00025993544652687,-0.00045012219615577,0.00045012169154452,-0.00045012292843726,0.00045012096212483,-0.00045012237109914,0.00045012153081011,-0.00045012310249835,0.00045012080290564,-0.00041458156667671,0.00041458212985783,-0.00041458371020852,0.0004145799987228,-0.00041458138288961,0.00041458230690941,-0.00041458352568021,0.00041458016606033,-0.00021316086888977,0.00021316103611762,-6.2125582973732e-10,-7.9426911818799e-11,1.6296799895604e-10,-8.2953588933669e-10,-0.00051542148668635,0.00051542081506612,-0.00048209343020672,0.00048209161647913,-0.00053377599013876,0.00053377510606,-0.00053377552847816,0.00053377569020563,-0.00050389209973871,0.00050389158055515,-0.00050389242114293,0.00050389124936591,-0.00050389193288615,0.00050389177443648,-0.00050389225322696,0.00050389144239565,-0.00048209229922644,0.0004820927809218,-0.00048209326510229,0.0004820917968285,-0.00053377632418974,0.00053377477367844,-0.00053377585247739,0.0005337753520917,-0.00048209245578592,0.00048209259602255,-1.3208885635028e-09,8.6503919407288e-10,-0.00036352016260834,0.00036351970576502,-7.2001866319154e-10,2.6563648942532e-10,-0.00029308740962045,0.00029308578307377,-0.00032243285089568,0.00032243409680691,-0.00032243357547319,0.00032243335787005,-0.00029308622669724,0.00029308694895281,-0.00029308840156082,0.00029308485834282,-0.00032243381447931,0.0003224331120322,-0.00032243456441812,0.00032243240181562,-0.00042841037985928,0.00042840886370205,-0.00042841004734699,0.00042840918830994,-0.00042840964906933,0.00042840959085769,-0.00042840932268032,0.00042840992325761,-0.00039077648276141,0.00039077848849463,-0.00039077861899645,0.00039077634790381,-0.00039077896387318,0.00039077604095906,-0.00039077679983325,0.00039077815273851,-0.00029308528387806,0.00029308792621316,0.74869675388208,129794,2964,0.0015605980989484,0.0021452549165756,0.0015136143869601,18.674407484727,-9.0604740122185e-05,-9.0604740122185e-05,-9.0604740122185e-05,3025884.9932803,0.0052332532477045
20191759,0.31991807442254,0.0057321313518138,0.0018063170097259,0.0021467602712822,0.0017790540708057,-0.00038466344041074,0.00038466191527341,3.767994674908e-10,-1.8918998086419e-09,-3.9370174113794e-10,-1.184118149643e-09,-0.00021710464356745,0.00021710008046758,-0.00026585146349583,0.00026584986064526,-0.00026585221963717,0.0002658491154938,-0.00021710162024502,0.0002171030934734,-0.00021710382117348,0.00021710088230169,-0.00026585068143621,0.00026585062390481,-0.00026585142216523,0.0002658498646872,-0.00046269348887521,0.00046269300185423,-0.00046269424764608,0.00046269224577482,-0.00046269375799647,0.00046269274646657,-0.00046269451742881,0.00046269199056039,-0.00042627083807872,0.00042627128448157,-0.00042627306598485,0.00042626906947911,-0.00042627056106718,0.0004262715547503,-0.00042627278376076,0.00042626933518889,-0.00021710243964293,0.00021710229131808,-7.800892341329e-10,7.7996541035865e-11,1.3117548782595e-10,-7.9899734166128e-10,-0.00053129807077768,0.00053129739697255,-0.00049672471575042,0.00049672286026744,-0.00055038794819325,0.00055038672910235,-0.00055038718113453,0.00055038763416592,-0.00051925678746309,0.00051925613995444,-0.00051925708882401,0.00051925583109092,-0.00051925651847863,0.00051925644168113,-0.00051925681994686,0.0005192561299724,-0.00049672354550085,0.00049672407248143,-0.00049672445282217,0.00049672314763145,-0.00055038826401032,0.00055038642402361,-0.00055038748473987,0.00055038730945801,-0.00049672380464958,0.00049672377865204,-1.3776670088086e-09,8.8849915293136e-10,-0.00037256298094378,0.00037256249069614,-7.1200107217675e-10,2.2340269552982e-10,-0.00029988923726059,0.00029988745551693,-0.00033047182674371,0.0003304730143396,-0.00033047257605388,0.00033047225298206,-0.0002998879202243,0.00029988875075285,-0.00029989019248227,0.00029988658046952,-0.00033047273948743,0.00033047208256908,-0.00033047352223781,0.00033047134699989,-0.00043977731310734,0.00043977575309278,-0.00043977699636134,0.00043977606189743,-0.00043977655477362,0.00043977650744533,-0.00043977624616405,0.00043977682291388,-0.00040128796329228,0.00040128999674335,-0.00040129017701169,0.00040128777783827,-0.00040129050711704,0.0004012874848997,-0.0004012882611631,0.00040128967887926,-0.00029988703685849,0.00029988966858691,0.76566000331719,129794,2964,0.001601707007337,0.0022112605965862,0.0015512433991109,18.643339632437,-9.0853282940504e-05,-9.0853282940504e-05,-9.0853282940504e-05,3064887.2664642,0.0053787721781896
20391759,0.32811373743316,0.0058827184684719,0.0018516314590364,0.0022086055549651,0.0018224814544704,-0.00039452838006315,0.00039452675976245,3.6969326085994e-10,-1.9799176060821e-09,-3.3401589406577e-10,-1.3447259058555e-09,-0.00022087075670795,0.00022086579176439,-0.00027165642695604,0.0002716545356683,-0.00027165721013122,0.00027165376077752,-0.00022086743010815,0.00022086910492186,-0.00022086971612853,0.00022086681460536,-0.0002716554276973,0.00027165551595763,-0.00027165619560727,0.00027165472763894,-0.00047529551068205,0.00047529503105784,-0.00047529629552333,0.00047529424783899,-0.0004752958524534,0.0004752947018559,-0.00047529663844993,0.00047529391928453,-0.00043803582431542,0.00043803618259879,-0.00043803813365084,0.00043803388827583,-0.00043803547473443,0.00043803652621925,-0.0004380377791532,0.00043803422886817,-0.00022086847194496,0.00022086808832335,-8.9411196714021e-10,1.879220991971e-10,1.1209973140074e-10,-7.843881343017e-10,-0.00054733444947796,0.00054733377159106,-0.00051153635241661,0.00051153445140046,-0.00056724432597226,0.00056724287003949,-0.00056724334327547,0.00056724400072238,-0.0005347124486915,0.00053471171298633,-0.00053471274010068,0.00053471141546451,-0.00053471210793212,0.00053471209071945,-0.00053471239925623,0.00053471179078101,-0.00051153514028523,0.00051153570358393,-0.00051153601753327,0.00051153481700308,-0.00056724462898334,0.00056724257517226,-0.00056724363830195,0.00056724369185958,-0.00051153547366443,0.0005115353350178,-1.4348067666143e-09,9.1227615173684e-10,-0.00038155314346671,0.00038155262000238,-7.13548326332e-10,1.8946060113603e-10,-0.00030658722722993,0.000306585296325,-0.00033844909211604,0.00033845023762083,-0.00033844986667825,0.00033844945056907,-0.00030658579964021,0.00030658670547078,-0.00030658815050408,0.00030658445246534,-0.00033844997059025,0.00033844933779135,-0.00033845078047473,0.00033844857782271,-0.0004511403381983,0.00045113873048482,-0.00045114003131213,0.00045113902815957,-0.00045113955231169,0.0004511395103907,-0.00045113925480531,0.000451139815716,-0.00041184145184576,0.00041184352164329,-0.00041184374424076,0.00041184122037485,-0.00041184406353706,0.00041184093721874,-0.00041184173938148,0.0004118432126554,-0.00030658494640558,0.00030658759407355,0.77157339017073,129794,2964,0.0016427627124576,0.0022779260639353,0.0015886525528237,18.607194258001,-9.114244593599e-05,-9.114244593599e-05,-9.114244593599e-05,3100650.9071096,0.005524701198893
20591759,0.336286867028,0.0060202373375907,0.0018931567048992,0.0022652807031439,0.0018617999295476,-0.00040368332451182,0.00040368163949058,3.7785583914584e-10,-2.0520055555359e-09,-2.9762538427087e-10,-1.4498441924463e-09,-0.00022345411449194,0.00022344886420315,-0.00027618664038178,0.00027618456812497,-0.0002761874497306,0.00027618376653636,-0.00022345056727897,0.00022345239748248,-0.00022345293538334,0.00022345002631593,-0.00027618550145384,0.00027618568761276,-0.00027618629699569,0.00027618487155827,-0.00048741919932128,0.00048741873088637,-0.0004874200111737,0.00048741792073966,-0.00048741958921186,0.00048741835437893,-0.00048742040164927,0.00048741754521911,-0.00044862500035529,0.00044862532596475,-0.00044862738791708,0.00044862295400548,-0.00044862460222883,0.00044862571766746,-0.00044862698677139,0.00044862334175476,-0.00022345175184711,0.00022345123886508,-9.7077083488207e-10,2.4684378538775e-10,9.9416912605827e-11,-7.8895679780477e-10,-0.0005626161804202,0.00056261548524664,-0.00052528057247799,0.00052527861649916,-0.00058325440442486,0.00058325279603315,-0.0005832532945593,0.00058325406397348,-0.00054952292865779,0.0005495221283749,-0.00054952321790354,0.00054952183339626,-0.00054952254439445,0.00054952255243854,-0.00054952283348756,0.00054952225603347,-0.00052527932323161,0.00052527990580409,-0.00052528019313351,0.00052527902947419,-0.00058325470575051,0.00058325250370428,-0.00058325358688383,0.00058325375962087,-0.00052527969969971,0.00052527949135603,-1.4817374258183e-09,9.4621818127231e-10,-0.00038983723758578,0.00038983670106491,-7.1512580437642e-10,1.7699557598018e-10,-0.00031178092913613,0.00031177889419873,-0.00034507616484186,0.00034507731276385,-0.00034507696655744,0.000345076498315,-0.00031177941241211,0.00031178039108793,-0.0003117818416104,0.00031177806406047,-0.00034507703236401,0.00034507642255121,-0.0003450778690752,0.00034507563732335,-0.000462040028747,0.0004620383854318,-0.0004620397256493,0.00046203867921142,-0.00046203921579318,0.00046203919185036,-0.00046203892197074,0.00046203949405263,-0.00042150563271704,0.00042150776571836,-0.00042150800563339,0.00042150538515845,-0.00042150832099901,0.00042150510660113,-0.00042150591740626,0.00042150745950463,-0.00031177856862655,0.00031178127220653,0.70761957996608,129794,2964,0.0016808642190445,0.0023414506757962,0.001623123723361,18.570843381484,-9.1433252948127e-05,-9.1433252948127e-05,-9.1433252948127e-05,3144615.364232,0.0056615709641581
20791759,0.34402895523401,0.0061577248012562,0.0019345427196527,0.0023220268038175,0.001901155277786,-0.00041159436459738,0.00041159256201331,3.5836123644257e-10,-2.1482835683234e-09,-2.0177934357368e-10,-1.6715611354106e-09,-0.00022593674667626,0.00022593096930379,-0.00028035870321582,0.00028035622536036,-0.00028035954552903,0.00028035539224687,-0.0002259328133059,0.00022593489324419,-0.00022593524028389,0.00022593246314769,-0.00028035726005559,0.00028035765371837,-0.00028035807772947,0.00028035681619651,-0.0004978703762164,0.0004978699221459,-0.00049787121162436,0.00049786908780407,-0.00049787086964148,0.0004978694415277,-0.00049787170908416,0.00049786860497881,-0.0004579660624404,0.00045796624955585,-0.00045796852992038,0.00045796379680324,-0.00045796556261804,0.00045796674140297,-0.00045796801755763,0.00045796429481714,-0.00022593429487232,0.00022593343720762,-1.151867619382e-09,4.4258104790315e-10,2.0069362602469e-11,-6.9786699459777e-10,-0.00057610191062797,0.00057610122826877,-0.00053743064403347,0.00053742874573343,-0.00059729133936862,0.00059728931429446,-0.00059728986592358,0.00059729096868946,-0.00056267747648375,0.00056267650810014,-0.00056267770940201,0.00056267627137864,-0.00056267697021916,0.00056267706101287,-0.00056267720724095,0.00056267682113794,-0.00053742942963861,0.00053742998664958,-0.00053743014332542,0.00053742927830146,-0.00059729157716571,0.00059728908157311,-0.00059729010791181,0.00059729071895846,-0.00053742993610221,0.00053742943992687,-1.5518835996435e-09,9.6044225282492e-10,-0.00039685680677287,0.00039685621354352,-6.7026209928935e-10,7.0891779902213e-11,-0.00031649599536606,0.00031649367848846,-0.00035103892662766,0.00035103988887563,-0.00035103975054672,0.00035103904824851,-0.00031649424093023,0.00031649541047624,-0.00031649677700406,0.000316492986713,-0.00035103963770962,0.00035103914878455,-0.00035104050732444,0.00035103832944477,-0.00047125118272538,0.00047124950495175,-0.00047125092792963,0.00047124975011568,-0.00047125033959498,0.0004712503405178,-0.00047125009798986,0.00047125059129831,-0.00042991206155265,0.00042991416794939,-0.00042991451368904,0.00042991171161002,-0.00042991478613972,0.00042991147931332,-0.00042991229277916,0.00042991391729907,-0.00031649356595734,0.00031649612963246,0.7468907301043,129794,2964,0.0017137884452473,0.0023975049905709,0.0016523328353497,17.866071080127,-9.7071431358988e-05,-9.7071431358988e-05,-9.7071431358988e-05,3169651.0835242,0.0057804429896248
20991759,0.35124720478324,0.0062814094278269,0.0019718384208286,0.0023731572418295,0.0019364137651687,-0.00041821057809653,0.00041820867603563,3.50621485519e-10,-2.2392732010055e-09,-1.2021416078991e-10,-1.8581748728567e-09,-0.00022696189935867,0.00022695568503754,-0.00028313298350232,0.00028313015956185,-0.00028313384700279,0.00028312930388019,-0.00022695761194932,0.00022695995935695,-0.00022696013964125,0.00022695743101668,-0.00028313127102872,0.00028313185709826,-0.00028313212113335,0.00028313098607249,-0.00050700270077289,0.00050700226826116,-0.00050700356545477,0.00050700140443748,-0.00050700328542199,0.00050700169638531,-0.0005070041505732,0.00050700083415384,-0.00046577870045451,0.00046577877456972,-0.00046578124437868,0.00046577624488738,-0.00046577810345759,0.00046577936229512,-0.00046578064755548,0.00046577682914076,-0.0002269593810857,0.00022695821853209,-1.2572762206333e-09,5.4949912539123e-10,-3.9498597243864e-11,-6.366968499696e-10,-0.00058803181785571,0.00058803113678001,-0.00054802949997939,0.00054802764623549,-0.00060985501550128,0.00060985274808809,-0.0006098533434247,0.00060985461089351,-0.0005742376133894,0.00057423653786025,-0.00057423780959326,0.00057423633990748,-0.00057423704070496,0.00057423716174844,-0.00057423723771962,0.00057423696512567,-0.00054802833609498,0.00054802884072138,-0.0005480289277548,0.00054802826024423,-0.00060985522109036,0.00060985255152499,-0.00060985354164309,0.00060985440886838,-0.00054802890453515,0.00054802822727503,-1.6154206266585e-09,9.7492926456548e-10,-0.00040262898612204,0.00040262834373459,-6.2625271371738e-10,-2.4574227409331e-11,-0.00031974021707907,0.0003197376220989,-0.00035551128977172,0.00035551209413458,-0.00035551214365442,0.00035551122256654,-0.00031973824922774,0.00031973956476932,-0.00031974084406698,0.0003197370846606,-0.00035551186780905,0.00035551148612212,-0.0003555127591474,0.00035551064824781,-0.00047921810534322,0.00047921640126969,-0.00047921789800939,0.00047921659821609,-0.00047921723688036,0.00047921726049654,-0.00047921704078313,0.00047921746768359,-0.00043698141990775,0.0004369835116251,-0.00043698395440611,0.00043698097345112,-0.0004369841744997,0.00043698079310064,-0.00043698160776502,0.00043698330018904,-0.00031973769593301,0.00031974016437016,0.72120224309409,129794,2964,0.0017413259450624,0.0024470902152236,0.0016763524440108,16.958657323087,-0.0001043307414153,-0.0001043307414153,-0.0001043307414153,3185590.7456699,0.0058821846855773
21191759,0.35797124036142,0.0063970281225534,0.0020067141004969,0.0024209668418195,0.001969347180237,-0.00042430158471475,0.00042429962639959,3.6317039549665e-10,-2.3070688820852e-09,-1.0733639799084e-10,-1.9303189988002e-09,-0.00022809586883505,0.00022808942789358,-0.00028580082719369,0.00028579788926567,-0.00028580171932407,0.00028579700490751,-0.00022809142021394,0.00022809386742063,-0.00022809401712845,0.00022809126314041,-0.00028579903477252,0.00028579966883843,-0.00028579990774002,0.00028579877204263,-0.00051538446946253,0.00051538403572244,-0.0005153853599789,0.00051538314533794,-0.00051538508135875,0.00051538343640008,-0.00051538597416723,0.00051538254656663,-0.00047294610545117,0.00047294617745447,-0.00047294872880449,0.00047294356761497,-0.00047294548315364,0.00047294679252727,-0.00047294810132965,0.00047294418206599,-0.00022809326576751,0.00022809204542673,-1.3107942412533e-09,5.967630795402e-10,-7.4891385628768e-11,-6.0758032012596e-10,-0.00059897520816107,0.00059897452080142,-0.00055771700867676,0.0005577151803715,-0.00062130102708846,0.00062129863148154,-0.00062129925917791,0.00062130059989867,-0.00058489917794772,0.00058489803862611,-0.0005848993524858,0.00058489786429953,-0.00058489857049093,0.00058489869867855,-0.00058489874683329,0.00058489852299221,-0.00055771587350385,0.00055771634415689,-0.00055771640514138,0.0005577158265828,-0.0006213012104944,0.00062129846000234,-0.00062129943808705,0.00062130041650977,-0.00055771647709103,0.00055771569380807,-1.6711705724909e-09,9.9957581665964e-10,-0.00040790055790956,0.00040789988391357,-6.1429647523512e-10,-6.9765168365148e-11,-0.00032274238748534,0.0003227396322759,-0.00035966649347798,0.00035966723317015,-0.00035966737379269,0.00035966633896157,-0.00032274028317602,0.00032274170637763,-0.00032274296230345,0.00032273914544516,-0.00035966701373098,0.0003596666837155,-0.0003596679356275,0.00035966581888615,-0.00048647033949201,0.00048646859547425,-0.00048647015049606,0.00048646877450737,-0.00048646944357524,0.0004864694821022,-0.00048646926611252,0.00048646966956209,-0.0004434163112723,0.00044341843004846,-0.00044341892472316,0.00044341581713416,-0.00044341912727859,0.0004434156543942,-0.00044341647806173,0.00044341824024027,-0.00032273979267727,0.00032274224212289,0.72387546755762,129794,2964,0.0017666770931516,0.002492572412275,0.0016982886649449,16.045821670759,-0.00011163342663393,-0.00011163342663393,-0.00011163342663393,3199403.5032671,0.0059755129731239
21391759,0.36432626583933,0.0065067429856838,0.0020398099157156,0.0024663585218551,0.0020005745481131,-0.000430327759978,0.00043032579606912,4.0018504420983e-10,-2.3516560618598e-09,-1.6889595617536e-10,-1.8738463534787e-09,-0.00022936890193173,0.00022936249361412,-0.00028857779520481,0.00028857499561979,-0.00028857871147277,0.00028857408305762,-0.00022936448613575,0.00022936689392781,-0.00022936717446217,0.00022936420916661,-0.0002885761149116,0.00028857665900491,-0.00028857701661331,0.00028857573287639,-0.00052358303860487,0.0005235825886767,-0.0005235839560016,0.00052358167092282,-0.00052358361217853,0.00052358202828622,-0.00052358453150976,0.00052358111210902,-0.00048003853521351,0.00048003871832271,-0.00048004124115601,0.00048003602909855,-0.00048003795128297,0.00048003929430998,-0.00048004065582315,0.00048003660572622,-0.00022936622175516,0.00022936519141052,-1.2613026716574e-09,5.1671688770984e-10,-5.7632702211611e-11,-6.5250906045649e-10,-0.00060964587177801,0.00060964515624649,-0.00056720531861628,0.00056720344462344,-0.0006324901181797,0.00063248784017224,-0.00063248847553364,0.00063248967763835,-0.00059527230082603,0.00059527119779719,-0.00059527249605725,0.00059527100173147,-0.00059527173564017,0.00059527181385874,-0.00059527193189187,0.00059527161805884,-0.00056720416960195,0.00056720462909144,-0.00056720476056716,0.00056720405399252,-0.00063249032219687,0.00063248764836878,-0.00063248867555876,0.00063248947933975,-0.00056720472864762,0.00056720402385533,-1.7142880461291e-09,1.0368969358633e-09,-0.00041313127610161,0.00041313059741642,-6.4562156325497e-10,-4.2985794037304e-11,-0.00032582143933184,0.00032581865425942,-0.00036385957613548,0.00036386039496761,-0.00036386048290194,0.00036385947611729,-0.00032581931923841,0.00032582075439359,-0.00032582207032812,0.00032581811047642,-0.00036386015476702,0.00036385978999394,-0.00036386110136279,0.00036385890180528,-0.00049358325537484,0.00049358146232379,-0.0004935830468451,0.00049358166015889,-0.00049358233353329,0.00049358237502488,-0.00049358213634424,0.00049358258220436,-0.00044976762576462,0.0004497698395772,-0.00044977031503927,0.00044976713848414,-0.00044977053554263,0.00044976695580403,-0.00044976781345591,0.00044976962668871,-0.00032581876101892,0.00032582135133936,0.72692810402905,129794,2964,0.0017917578396423,0.002536919017286,0.0017200544071185,15.323612057656,-0.00011741110353875,-0.00011741110353875,-0.00011741110353875,3213320.2368923,0.0060672635334579
21591759,0.37035785115726,0.0066117725037609,0.0020714731234022,0.0025098566104602,0.0020304427698985,-0.00043611902512852,0.00043611708297436,4.5141651806465e-10,-2.3805687312299e-09,-2.5462481105592e-10,-1.765523271873e-09,-0.00023063620552509,0.00023062993193031,-0.00029129981173469,0.00029129725197939,-0.00029130075569814,0.00029129631284995,-0.00023063190397178,0.00023063421976933,-0.00023063466827969,0.00023063145551467,-0.00029129832319278,0.00029129872315344,-0.00029129925196727,0.00029129777093066,-0.00053143105339729,0.00053143058764682,-0.00053143199797351,0.0005314296433235,-0.00053143156444086,0.00053143009204501,-0.00053143251070539,0.00053142914891015,-0.0004868956574727,0.00048689600552412,-0.00048689843971073,0.00048689323832306,-0.00048689513650917,0.00048689651740836,-0.00048689791727648,0.00048689375013804,-0.00023063344654704,0.00023063270874157,-1.1835989559526e-09,4.02705896058e-10,-1.8075682090761e-11,-7.271037983186e-10,-0.00061990341281594,0.00061990266243282,-0.0005763550429525,0.00057635308528293,-0.00064327092590078,0.00064326884122193,-0.00064326947310078,0.00064327048837377,-0.00060522077310854,0.00060521973476139,-0.00060522100496452,0.00060521950105834,-0.00060522026863749,0.00060522028718569,-0.00060522050168369,0.00060522005334889,-0.00057635384354702,0.0005763543165015,-0.00057635454684023,0.00057635362827924,-0.00064327116734062,0.00064326861087804,-0.00064326971053012,0.00064327025107871,-0.00057635433954272,0.00057635377471187,-1.7483210767063e-09,1.0831837561268e-09,-0.0004181443036962,0.00041814363694957,-6.966792974312e-10,2.0203384737964e-11,-0.00032879548701915,0.00032879274842683,-0.00036792685695707,0.00036792782703276,-0.00036792779122991,0.00036792688008678,-0.00032879339950667,0.00032879481191127,-0.00032879622940742,0.0003287920918608,-0.00036792754798563,0.00036792710862074,-0.00036792852141706,0.0003679261922887,-0.0005003902237767,0.00050038837731203,-0.00050038997734154,0.00050038861310581,-0.00050038927518725,0.00050038931736161,-0.00050038903977185,0.00050038956232737,-0.0004558982689642,0.00045590061075603,-0.00045590103666064,0.00045589783363749,-0.00045590129679022,0.00045589761480473,-0.00045589849394201,0.00045590036081764,-0.00032879273093056,0.00032879552103058,0.73328392896023,129794,2964,0.0018158608027736,0.0025795466144836,0.0017409141711324,14.658364111293,-0.00012273308710965,-0.00012273308710965,-0.00012273308710965,3225049.1406682,0.0061553970795942
21791759,0.37608195514556,0.0067100430966825,0.0021011196226214,0.0025505968129294,0.0020583266611317,-0.00044146781127638,0.00044146589332393,5.0363130223295e-10,-2.4086416324162e-09,-3.2934924973885e-10,-1.6650232657189e-09,-0.00023160005073283,0.00023159389778144,-0.00029365541855871,0.00029365308295048,-0.00029365638947644,0.00029365211766167,-0.00023159584542429,0.00023159808969678,-0.00023159868581816,0.00023159524774321,-0.00029365410170976,0.00029365438049824,-0.0002936550570872,0.00029365340247347,-0.00053876703247605,0.00053876655925852,-0.00053876800415206,0.00053876558836302,-0.00053876748660679,0.00053876612232421,-0.00053876845985146,0.00053876515228764,-0.00049322976709178,0.00049323027634995,-0.00049323262760472,0.00049322743066227,-0.00049322930372792,0.00049323072997679,-0.00049323216232873,0.00049322788408088,-0.00023159721377123,0.00023159675220323,-1.1171024241995e-09,2.9700900457787e-10,2.7778168583517e-11,-8.1018017879523e-10,-0.00062952479238735,0.00062952400447808,-0.00058489335427235,0.00058489129041452,-0.00065339641358548,0.00065339450209243,-0.00065339512836157,0.00065339597859586,-0.00061454173030062,0.00061454075303662,-0.0006145420035914,0.00061454047654983,-0.00061454128054043,0.00061454124789303,-0.00061454155501742,0.00061454097084559,-0.00058489208585046,0.00058489259100928,-0.00058489291489837,0.00058489177435721,-0.00065339669769031,0.00065339422896213,-0.00065339540767468,0.00065339569684903,-0.0005848925246348,0.00058489210663662,-1.7787474950751e-09,1.1332530251627e-09,-0.00042273836005954,0.00042273771301738,-7.5092005411736e-10,9.5104568132904e-11,-0.0003313227086228,0.00033132003945615,-0.00037154070219494,0.00037154184671806,-0.00037154166339431,0.0003715408723039,-0.00033132066951457,0.00033132205421917,-0.00033132357998126,0.00033131925661688,-0.00037154152049383,0.00037154100104513,-0.00037154252139171,0.0003715400573217,-0.00050673376921879,0.00050673187208749,-0.00050673347973107,0.00050673215076483,-0.00050673279391843,0.00050673283947388,-0.00050673251555085,0.00050673312723192,-0.0004615462822551,0.00046154876481612,-0.0004615491277532,0.00046154590911338,-0.00046154943212399,0.00046154564860159,-0.00046154654939907,0.0004615484724523,-0.0003313198751759,0.00033132288981124,0.72318902333768,129794,2964,0.0018381226626343,0.0026195287963709,0.0017600308138114,13.994641175441,-0.00012804287059647,-0.00012804287059647,-0.00012804287059647,3235142.7248117,0.0062372701407318
21991759,0.38185692700156,0.0068076762231138,0.0021306011017522,0.0025910986471977,0.0020859764741638,-0.00044821679626101,0.00044821496422737,5.8650354504282e-10,-2.4065441572132e-09,-4.8975246423663e-10,-1.4134587880322e-09,-0.00023385473700587,0.00023384900257722,-0.00029730524838197,0.00029730343476925,-0.00029730624576242,0.00029730244248539,-0.00023385085978083,0.0002338528643208,-0.00023385378158885,0.00023384994154679,-0.0002973043333699,0.00029730432461166,-0.00029730531714648,0.00029730331972221,-0.0005475741413243,0.00054757364370445,-0.00054757514076495,0.00054757264620289,-0.00054757446163364,0.00054757334411726,-0.00054757546179582,0.00054757234732367,-0.00050099283239583,0.0005009936418471,-0.00050099577204237,0.00050099071920537,-0.00050099250622449,0.00050099395900453,-0.00050099544383358,0.00050099103373816,-0.00023385182232531,0.00023385193567227,-9.4315483770829e-10,5.2446650302783e-11,1.5303490119396e-10,-1.0018678412869e-09,-0.00064066181060432,0.00064066095576182,-0.00059487809386362,0.00059487579154642,-0.00066501735823093,0.00066501589471079,-0.00066501647885437,0.00066501695206831,-0.00062537491811935,0.00062537411605229,-0.00062537529350418,0.00062537373327549,-0.0006253746024355,0.00062537447026704,-0.00062537497853381,0.00062537408703253,-0.0005948766558196,0.00059487726613339,-0.00059487779186178,0.0005948761345552,-0.00066501774689027,0.00066501551485346,-0.00066501686182062,0.00066501656494142,-0.0005948769557975,0.00059487692287727,-1.7855430913456e-09,1.2065060704207e-09,-0.00042873013409498,0.00042872955409829,-8.7202789615279e-10,2.8685607772627e-10,-0.00033514254683736,0.00033514017662617,-0.00037649828818851,0.00037649983763829,-0.00037649927674536,0.00037649883559064,-0.00033514074115674,0.00033514196008613,-0.00033514372607669,0.00033513908643523,-0.00037649941567183,0.0003764986837023,-0.00037650044224656,0.0003764977132125,-0.00051453440941133,0.00051453244768591,-0.00051453401618907,0.00051453282995996,-0.00051453340808054,0.00051453344234579,-0.00051453302542125,0.00051453383393245,-0.00046858745716563,0.00046859018790168,-0.00046859037975776,0.00046858725239503,-0.00046859078757686,0.00046858688919767,-0.00046858782850896,0.00046858979179843,-0.00033513963582753,0.0003351431066436,0.71247115122472,129794,2964,0.0018662082601616,0.002665807563415,0.0017849610255536,14.108751646378,-0.00012712998682897,-0.00012712998682897,-0.00012712998682897,3262396.7124192,0.006337197951794
22191759,0.38778636122868,0.0069062609741214,0.0021603746595387,0.002632068626918,0.0021138176876647,-0.00045547301294768,0.00045547125597569,6.6248369288675e-10,-2.4099153502844e-09,-6.1858039600675e-10,-1.2047400814219e-09,-0.00023646671150559,0.00023646130276035,-0.00030132913668127,0.00030132776400694,-0.0003013301615031,0.00030132674033975,-0.00023646308731517,0.00023646490416925,-0.00023646609020932,0.00023646191117725,-0.00030132855070448,0.0003013283167027,-0.00030132956187692,0.00030132728684013,-0.00055697860968342,0.00055697810084811,-0.00055697963521337,0.00055697707827265,-0.00055697881989988,0.00055697791463464,-0.00055697984670341,0.00055697689107841,-0.00050927702754543,0.00050927810170748,-0.00050928005021995,0.00050927510116705,-0.00050927681674609,0.00050927830371735,-0.00050927983447299,0.00050927530548373,-0.00023646371288091,0.00023646432368545,-8.201790592692e-10,-1.4018370664116e-10,2.6808321024379e-10,-1.1821719132596e-09,-0.00065244037182276,0.00065243945128463,-0.00060540832996651,0.00060540577947817,-0.0006772569764316,0.00067725585053872,-0.0006772563989695,0.00067725659136887,-0.00063687061990928,0.00063686995416814,-0.00063687108990214,0.00063686947209962,-0.00063687040492653,0.0006368702020541,-0.0006368708770505,0.00063686971941054,-0.00060540671035654,0.00060540744186252,-0.00060540813480779,0.00060540601699649,-0.00067725745812023,0.00067725537313329,-0.00067725688217999,0.00067725610825091,-0.00060540690891458,0.00060540720435908,-1.7923189280157e-09,1.2820767631849e-09,-0.0004352098593188,0.00043520934937041,-9.8511631932119e-10,4.7371700915473e-10,-0.0003392784002694,0.00033927632183644,-0.00038186018941705,0.0003818621307077,-0.00038186120222758,0.00038186110516309,-0.00033927681819185,0.00033927789446204,-0.00033927988369252,0.00033927492763907,-0.00038186161030151,0.00038186068494297,-0.00038186266350904,0.00038185968627993,-0.00052290239168349,0.00052290037213069,-0.00052290189805436,0.00052290085430686,-0.00052290136335,0.00052290139506107,-0.00052290088129396,0.00052290188540436,-0.00047610227571527,0.00047610525452364,-0.00047610527218008,0.00047610223248315,-0.00047610578158415,0.00047610176735567,-0.00047610274641086,0.00047610475933859,-0.00033927541539448,0.00033927933402832,0.70115780346687,129794,2964,0.0018964034371835,0.0027147499188947,0.0018119205687159,14.451454345111,-0.00012438836523911,-0.00012438836523911,-0.00012438836523911,3296937.2290897,0.0064439829727311
22391759,0.39387434362139,0.0070114529532581,0.0021920316608265,0.002675885273376,0.0021435360190556,-0.00046312414296176,0.00046312239938748,7.0994956570457e-10,-2.4437892046085e-09,-6.5511695511201e-10,-1.1537269557937e-09,-0.00023952957129768,0.00023952418865541,-0.00030585829560075,0.00030585704859984,-0.00030585934677543,0.00030585600142794,-0.00023952595480818,0.00023952778237961,-0.00023952903671586,0.00023952470849201,-0.00030585779527973,0.00030585751598514,-0.00030585883423368,0.00030585646010643,-0.00056677503413296,0.00056677453729225,-0.00056677608757095,0.00056677348727187,-0.00056677521728408,0.00056677437997552,-0.00056677627106657,0.00056677332944839,-0.00051817146025523,0.00051817265371819,-0.00051817455997177,0.00051816957382209,-0.00051817127474954,0.00051817282821606,-0.00051817437161232,0.00051816974781177,-0.00023952649715573,0.00023952728143767,-7.9447529056052e-10,-2.1362342321301e-10,3.4202902643368e-10,-1.3020585954632e-09,-0.00066478842064948,0.0006647874537669,-0.00061655284914516,0.00061655009479747,-0.00069009183329344,0.00069009082504783,-0.00069009135428699,0.00069009146533166,-0.0006489123024228,0.00064891168648987,-0.0006489128348897,0.00064891113932312,-0.00064891211918238,0.00064891190073455,-0.00064891265299336,0.00064891135320459,-0.00061655107448888,0.00061655191605819,-0.00061655268561261,0.00061655029782504,-0.00069009238045137,0.00069009028157725,-0.00069009189814161,0.0006900909146034,-0.00061655123816468,0.00061655171308903,-1.8111991225825e-09,1.3425620075052e-09,-0.00044203872712007,0.00044203825896172,-1.0573436054007e-09,5.9016361365855e-10,-0.0003439182142781,0.00034391628573061,-0.00038776936816004,0.00038777156764816,-0.00038777040825226,0.00038777051218656,-0.00034391673954455,0.00034391774948014,-0.00034391988361116,0.00034391471231898,-0.00038777097604036,0.00038776993424688,-0.00038777205629649,0.00038776890926967,-0.00053160452036548,0.00053160245235085,-0.00053160396382168,0.00053160299643674,-0.00053160346542107,0.00053160350157936,-0.00053160292072394,0.00053160405514573,-0.00048403887625838,0.00048404203689561,-0.00048404195058273,0.00048403893676108,-0.00048404252412732,0.0004840384126737,-0.00048403940878091,0.00048404147814978,-0.00034391515163482,0.0003439193783898,0.72867975166061,129794,2964,0.0019282408423427,0.0027660554967764,0.0018403318505829,14.800282278861,-0.00012159774176911,-0.00012159774176911,-0.00012159774176911,3329167.3093278,0.0065562712731747
22591759,0.40012235423101,0.0071204830021113,0.0022247683000238,0.0027214457306497,0.0021742689714377,-0.00047097194238727,0.00047097018149203,7.4153067699683e-10,-2.4926135659989e-09,-6.5426538338429e-10,-1.1727200316786e-09,-0.00024245095353511,0.00024244545413437,-0.00031043686302457,0.00031043560510044,-0.0003104379411282,0.00031043453127182,-0.00024244723723022,0.00024244914588911,-0.00024245039818944,0.00024244599462151,-0.0003104363425645,0.00031043609149567,-0.0003104374085388,0.00031043500957419,-0.0005768881011984,0.0005768876209385,-0.00057688918156694,0.00057688654429133,-0.00057688829176968,0.00057688745746815,-0.00057688937235282,0.0005768863800374,-0.00052742739814614,0.00052742864693069,-0.00052743057661861,0.00052742548808547,-0.00052742720572796,0.00052742882760307,-0.00052743038130594,0.00052742566858195,-0.00024244780033143,0.00024244862569154,-8.2327520109596e-10,-2.1993278176699e-10,3.8993877943575e-10,-1.3838105929623e-09,-0.00067763005459572,0.00067762905368566,-0.00062820349997912,0.00062820057724765,-0.00070352542134272,0.00070352439948603,-0.00070352492144386,0.00070352506267776,-0.0006613607858689,0.00066136017114179,-0.0006613613602053,0.00066135958058106,-0.00066136059516779,0.00066136039331643,-0.0006613611708559,0.00066135980217155,-0.00062820159220691,0.00062820253473967,-0.00062820332932309,0.00062820078732433,-0.0007035260108093,0.00070352381248505,-0.00070352550748696,0.00070352446792019,-0.00062820176296209,0.00062820232438637,-1.8394043460793e-09,1.3950490293715e-09,-0.00044901562512286,0.00044901518148872,-1.1090431205528e-09,6.678303666688e-10,-0.00034861749808439,0.00034861564397105,-0.00039380663254424,0.00039380901166407,-0.00039380769906057,0.00039380792904409,-0.00034861607316433,0.00034861705977068,-0.00034861929676327,0.00034861394378849,-0.00039380836739998,0.00039380725091335,-0.00039380947488067,0.00039380619916214,-0.00054057972692628,0.00054057761290083,-0.000540579127224,0.00054057819979343,-0.00054057864501823,0.00054057868901029,-0.00054057805739471,0.0005405792855579,-0.00049220774992693,0.00049221105664691,-0.00049221090371381,0.00049220787801524,-0.00049221152104661,0.00049220731137897,-0.00049220832551633,0.00049221045495331,-0.00034861435746479,0.00034861881599829,0.73620698631975,129794,2964,0.0019608968732447,0.0028194090029259,0.0018693588361138,15.149359103249,-0.00011880512717401,-0.00011880512717401,-0.00011880512717401,3357154.5632801,0.0066720780528102
22791759,0.40642902084894,0.0072315049906499,0.0022580323356415,0.0027679888086954,0.002205483846313,-0.0004785367166288,0.00047853488603272,7.4817286861184e-10,-2.5662785374964e-09,-6.0248483572977e-10,-1.3132785027432e-09,-0.00024509207488335,0.0002450861346875,-0.00031474312516077,0.00031474163797661,-0.0003147442601034,0.0003147404900747,-0.00024508802014291,0.00024509014322816,-0.00024509132861315,0.00024508687637201,-0.00031474241222969,0.00031474230582154,-0.00031474353646115,0.00031474117620521,-0.00058673264240312,0.00058673218748161,-0.00058673374525475,0.00058673108449182,-0.00058673289423096,0.00058673196036546,-0.00058673399959735,0.00058673085597963,-0.0005364666716832,0.00053646786784066,-0.00053646991746801,0.00053646463515128,-0.00053646641488544,0.00053646810593504,-0.00053646965790263,0.00053646487844823,-0.00024508879134555,0.00024508948904708,-9.3497454455181e-10,-1.2846365119643e-10,3.8497631487938e-10,-1.4073581792077e-09,-0.00069028190108374,0.00069028088096503,-0.00063967807358401,0.00063967503126232,-0.00071676415939477,0.0007167629244462,-0.00071676346756446,0.00071676378957002,-0.00067361866987279,0.00067361798661691,-0.00067361925195781,0.00067361738574345,-0.00067361841872403,0.00067361827750559,-0.0006736190037966,0.0006736176799962,-0.00063967603136212,0.000639677026697,-0.00063967781802863,0.00063967529512721,-0.00071676471449114,0.00071676229379279,-0.00071676409157808,0.00071676324918306,-0.00063967629700558,0.00063967675494317,-1.8829639859725e-09,1.4314531758969e-09,-0.0004556710781625,0.00045567062574738,-1.1321209061709e-09,6.6764575979255e-10,-0.00035298532459736,0.00035298336932161,-0.00039955800143252,0.00039956039465045,-0.00039955908773551,0.00039955926672724,-0.00035298386536101,0.00035298484492346,-0.00035298711406883,0.0003529816102369,-0.00039955974048829,0.00039955859911549,-0.00039956084569409,0.00039955749862185,-0.00054926620249113,0.00054926405205528,-0.00054926559211773,0.00054926464584773,-0.00054926509044235,0.00054926514962023,-0.00054926449366914,0.00054926575396724,-0.0005000791508136,0.00050008253295422,-0.00050008238311975,0.0005000792949964,-0.00050008301328061,0.00050007872027385,-0.00050007973985285,0.00050008192573503,-0.00035298210536971,0.00035298665097267,0.74292713919981,129794,2964,0.0019923756955478,0.0028719705060763,0.0018970486131222,15.287471552466,-0.00011770022758027,-0.00011770022758027,-0.00011770022758027,3379613.3601237,0.0067845692401485
22991759,0.41278045080957,0.0073374966212803,0.0022898720639215,0.0028125113497096,0.0022351132076492,-0.00048578588245666,0.00048578398600828,7.5631510669559e-10,-2.6390714575462e-09,-5.200592335621e-10,-1.4560182418922e-09,-0.00024717908996503,0.00024717286042079,-0.00031844929755104,0.00031844753850639,-0.0003184504371807,0.00031844640041792,-0.0002471747873744,0.00024717713526702,-0.0002471781188746,0.00024717381746161,-0.00031844836615401,0.0003184484350713,-0.00031844949341599,0.00031844729386556,-0.00059638582146049,0.0005963854028015,-0.00059638695416922,0.00059638427222339,-0.00059638615032134,0.00059638510051546,-0.00059638728371577,0.00059638396952591,-0.00054498566050886,0.00054498679841626,-0.00054498899419849,0.00054498348170108,-0.00054498532843236,0.00054498711698291,-0.00054498865942177,0.00054498380046497,-0.0002471757704921,0.00024717620921061,-1.0476468767835e-09,-2.2584296004598e-11,3.7331688294019e-10,-1.3961432912459e-09,-0.00070264695310246,0.00070264592457149,-0.00065070309940117,0.00065070001021232,-0.00072968787992594,0.00072968641262246,-0.00072968697764787,0.00072968750385329,-0.00068563069048202,0.00068562991087404,-0.00068563126445924,0.0006856293207523,-0.00068563036647398,0.00068563027626052,-0.0006856309431095,0.00068562968789236,-0.00065070104583326,0.00065070209269792,-0.00065070278916793,0.00065070036120373,-0.00072968845834374,0.0007296858175039,-0.0007296875724922,0.00072968692753678,-0.00065070136017519,0.00065070174277969,-1.9266386037135e-09,1.468222157115e-09,-0.00046200391596311,0.00046200345745709,-1.1169920082758e-09,6.5603200991093e-10,-0.00035664196871835,0.00035663993357485,-0.00040469142491801,0.00040469383140311,-0.0004046925429146,0.00040469269133403,-0.00035664038376932,0.00035664150499886,-0.00035664376248319,0.00035663823549086,-0.00040469315089568,0.00040469207044229,-0.0004046943078456,0.00040469096337218,-0.00055775684935659,0.00055775466977114,-0.00055775624943371,0.00055775525464391,-0.00055775571108757,0.00055775579693641,-0.00055775512467807,0.00055775639275398,-0.00050758828722743,0.00050759173667353,-0.00050759160291807,0.0005075884071335,-0.00050759222144495,0.00050758784296275,-0.00050758886211277,0.00050759113571007,-0.00035663866999731,0.00035664326326393,0.70494322997206,129794,2964,0.0020225419803124,0.0029233380182944,0.0019233965580275,15.399271655571,-0.00011680582675543,-0.00011680582675543,-0.00011680582675543,3404263.9633744,0.0068932003796562
23191759,0.41917476909476,0.0074453093523642,0.0023222318499617,0.0028578493682699,0.0022652281341326,-0.00049318547718577,0.00049318357657425,7.940708897088e-10,-2.681758290478e-09,-4.0638604597202e-10,-1.5733413316126e-09,-0.00024977152314014,0.00024976498543346,-0.00032249583190703,0.00032249386871876,-0.00032249699667282,0.00032249270508572,-0.00024976691700226,0.00024976956343021,-0.00024977032712287,0.00024976616981703,-0.00032249467407545,0.00032249499204386,-0.00032249582729983,0.00032249382549655,-0.00060612939895665,0.0006061290795264,-0.00060613055866978,0.00060612792253009,-0.00060612980410958,0.00060612870033349,-0.00060613096426857,0.00060612754260041,-0.00055362678977281,0.00055362792202722,-0.00055363020305844,0.00055362452726038,-0.00055362637996772,0.00055362831857049,-0.00055362979045592,0.00055362492403352,-0.00024976812543004,0.00024976841132478,-1.1648413071329e-09,9.0639104451179e-11,3.2534767516251e-10,-1.3530465575315e-09,-0.00071507161759953,0.0007150705844643,-0.00066175702294871,0.00066175394093535,-0.0007425741096525,0.00074257238119796,-0.00074257298124221,0.00074257369947513,-0.00069779522575942,0.00069779433311271,-0.00069779576805183,0.00069779377329398,-0.00069779482446565,0.00069779477580744,-0.00069779536873158,0.00069779421677219,-0.00066175498519357,0.00066175601592408,-0.00066175663541791,0.00066175436855036,-0.00074257465823731,0.00074257181788969,-0.00074257354205691,0.00074257314979847,-0.00066175537549722,0.00066175558833317,-1.9478447244344e-09,1.5280018737387e-09,-0.00046846813595373,0.00046846771664892,-1.0498454619767e-09,6.3079792189954e-10,-0.00036058752916679,0.00036058536574392,-0.00041010016744076,0.00041010255265883,-0.00041010131254259,0.00041010138615541,-0.00036058577711042,0.00036058710638786,-0.00036058923326346,0.00036058375531766,-0.00041010180343047,0.00041010088141449,-0.00041010298768524,0.00041009974773029,-0.00056630885620775,0.00056630671899946,-0.00056630828751435,0.00056630727284662,-0.00056630769146944,0.0005663078732953,-0.00056630713616027,0.00056630843800729,-0.00051524899425915,0.00051525253048982,-0.0005152523868231,0.00051524911873283,-0.00051525297466034,0.00051524858565594,-0.00051524953800604,0.0005152519599412,-0.00036058415149335,0.00036058877613289,0.71242657611675,129794,2964,0.0020533327414953,0.0029749495519622,0.001950290304421,15.510320994973,-0.00011591743204021,-0.00011591743204021,-0.00011591743204021,3431093.4414669,0.0070032666512378
23391759,0.42561649201634,0.0075542930374421,0.0023549178700453,0.0029037492307492,0.0022956259366476,-0.00050065119576789,0.00050064928948164,8.313719677453e-10,-2.7250570164669e-09,-2.9698838840712e-10,-1.6883950731454e-09,-0.00025224266360909,0.00025223582231345,-0.00032650943236958,0.00032650726998383,-0.00032651062363196,0.00032650608040486,-0.00025223775966793,0.00025224069941826,-0.000252241248632,0.00025223722654886,-0.00032650805579222,0.0003265086151012,-0.000326509235536,0.00032650742173705,-0.00061600850434911,0.00061600828101068,-0.00061600969089243,0.00061600709692816,-0.00061600898382713,0.00061600782671615,-0.00061601017084703,0.00061600664214228,-0.00056235835898833,0.00056235948865721,-0.00056236185077373,0.00056235601471406,-0.00056235787412214,0.00056235996075378,-0.00056236136314702,0.00056235648632585,-0.00025223918782443,0.00025223932600348,-1.2726926373782e-09,2.0366551477689e-10,2.7300558178232e-10,-1.2973417282055e-09,-0.00072771621979863,0.00072771519041009,-0.0006730267800917,0.00067302373294001,-0.00075579686316036,0.00075579488706486,-0.00075579551776384,0.00075579642257607,-0.00071012048867762,0.00071011948964748,-0.00071012099619497,0.00071011896607288,-0.00071012001278682,0.00071012000623152,-0.00071012052191187,0.00071011948317412,-0.00067302477281472,0.00067302577489756,-0.00067302631783705,0.00067302423466365,-0.00075579737650932,0.00075579435992569,-0.00075579604199868,0.00075579590800961,-0.00067302523715251,0.0006730252733619,-2.0007015415773e-09,1.5556637794953e-09,-0.00047497563641718,0.00047497519178118,-1.0091240518472e-09,5.6353112011933e-10,-0.00036452351279146,0.00036452113763317,-0.00041553131734401,0.00041553359688459,-0.00041553248966597,0.00041553240384224,-0.00036452157574552,0.00036452306447692,-0.00036452510833319,0.00036451963334295,-0.0004155328474086,0.00041553203228979,-0.0004155340577284,0.00041553087129392,-0.00057497593699828,0.0005749737835334,-0.00057497540419464,0.00057497430154625,-0.00057497474574731,0.00057497496488153,-0.00057497422606541,0.00057497549371565,-0.00052305506500444,0.00052305861939576,-0.00052305853565359,0.00052305512754236,-0.00052305908778812,0.00052305463068137,-0.00052305557295783,0.00052305808448534,-0.00036452005563204,0.00036452462680367,0.71512157137355,129794,2964,0.0020843987870522,0.0030274719621747,0.001977363834456,15.633815402068,-0.00011492947678345,-0.00011492947678345,-0.00011492947678345,3455098.4990705,0.0071147209440749
23591759,0.43229640164421,0.0076673552615868,0.0023888027561381,0.0029514504856586,0.0023271020197901,-0.00050907860775175,0.00050907669272576,8.6597906731628e-10,-2.7727201800224e-09,-3.0404069623602e-10,-1.6901286125399e-09,-0.00025542393882227,0.00025541700860143,-0.00033131568388289,0.00033131354882891,-0.00033131689916495,0.00033131232506251,-0.00025541894976253,0.00025542195688651,-0.0002554225415041,0.00025541840456359,-0.00033131430593476,0.00033131488836765,-0.00033131551631116,0.00033131366284864,-0.00062698432885562,0.00062698412494539,-0.00062698554163303,0.00062698291396965,-0.00062698480714305,0.00062698367244644,-0.00062698602022168,0.0006269824617949,-0.00057215560696618,0.00057215680785974,-0.00057215918791228,0.00057215325150023,-0.00057215512621842,0.00057215727499756,-0.00057215870835158,0.00057215372458621,-0.00025542038108077,0.00025542060181563,-1.2729179762296e-09,1.831981843964e-10,2.6985633248604e-10,-1.3127788395577e-09,-0.00074163103864206,0.00074162999054002,-0.00068550039353493,0.00068549732188132,-0.00077035213426054,0.00077035015916012,-0.00077035080375435,0.00077035166911825,-0.00072367747412827,0.00072367647142088,-0.00072367798629461,0.00072367594096354,-0.00072367700704317,0.00072367697983942,-0.00072367752114049,0.00072367645410112,-0.0006854983879919,0.0006854993752651,-0.00068549994562512,0.00068549783193325,-0.00077035264882445,0.00077034962850638,-0.00077035133727629,0.00077035116544036,-0.00068549884536698,0.00068549888366745,-2.0417746863907e-09,1.5961286225133e-09,-0.0004823940809873,0.00048239363767692,-1.0121364869499e-09,5.6790001590004e-10,-0.00036924462929268,0.00036924218002655,-0.00042184785539046,0.0004218501670252,-0.00042184905118589,0.00042184895431208,-0.00036924263492316,0.0003692441877732,-0.00036924623072297,0.00036924065919194,-0.00042184939273144,0.0004218485994437,-0.00042185062304382,0.00042184741639631,-0.00058467447989002,0.00058467230165999,-0.00058467394446194,0.00058467282169962,-0.00058467326316342,0.00058467350921327,-0.00058467274074927,0.00058467404071812,-0.00053185514536222,0.00053185878749101,-0.00053185869334986,0.00053185519974873,-0.00053185924299176,0.00053185469445447,-0.00053185566093955,0.00053185824479728,-0.00036924108792431,0.00036924576210693,0.71571043148902,129794,2964,0.0021194644744497,0.0030852672622379,0.0020082257107023,16.146383415669,-0.00011082893267465,-0.00011082893267465,-0.00011082893267465,3485684.1137666,0.0072393436992598
23791759,0.43922304858482,0.0077905569819057,0.0024255534225385,0.0030035904009269,0.0023614131584403,-0.00051809651899456,0.0005180946174852,9.139978960799e-10,-2.8039025424961e-09,-3.1518051665745e-10,-1.6654489186935e-09,-0.00025915788837558,0.00025915093238977,-0.00033683979921494,0.0003368377366301,-0.00033684104302848,0.00033683649158701,-0.00025915286645148,0.00025915592672744,-0.00025915651873744,0.00025915229690549,-0.00033683846305787,0.00033683904240894,-0.00033683969775629,0.00033683779509009,-0.00063857782122997,0.00063857764383809,-0.00063857906167293,0.00063857640647181,-0.00063857828678708,0.00063857720314246,-0.00063857952735131,0.00063857596511144,-0.00058286796392391,0.00058286927153771,-0.00058287161527542,0.00058286563973893,-0.00058286749390175,0.00058286972889998,-0.00058287114337135,0.00058286609797861,-0.00025915425453442,0.00025915459670917,-1.2402420967788e-09,1.8856951917438e-10,2.6217160813697e-10,-1.2727111542055e-09,-0.00075646972495928,0.00075646870985638,-0.00069900450080496,0.00069900151533784,-0.00078586150865884,0.00078585958136537,-0.00078586020760406,0.00078586106989831,-0.00073810411248783,0.00073810313000245,-0.00073810460561516,0.00073810261733175,-0.00073810365120363,0.00073810363091916,-0.00073810414635764,0.00073810312011891,-0.00069900254672669,0.00069900351352981,-0.00069900405561415,0.00069900200639107,-0.00078586200868972,0.00078585906695761,-0.00078586072014476,0.00078586057035306,-0.00069900299625406,0.00069900302754933,-2.0597178072481e-09,1.657774911982e-09,-0.00049032068993598,0.00049032028909749,-9.6670846315293e-10,5.6739464846091e-10,-0.00037465152183877,0.00037464899893051,-0.00042891120176946,0.00042891354353001,-0.00042891242779343,0.0004289123000258,-0.00037464939452727,0.00037465111827041,-0.00037465307867189,0.00037464752344615,-0.00042891269585823,0.00042891201659882,-0.00042891395733053,0.00042891080245172,-0.00059491463281644,0.0005949124826137,-0.00059491411344772,0.00059491298750492,-0.00059491338849152,0.00059491371807162,-0.00059491288168276,0.00059491423348116,-0.00054129979566646,0.00054130353840071,-0.00054130342642447,0.00054129988926891,-0.00054130396317753,0.00054129940280328,-0.00054130029194092,0.00054130301628765,-0.00037464790448035,0.00037465264469138,0.75201415221747,129794,2964,0.0021569861226747,0.003146895138146,0.00204120074109,16.668883043723,-0.00010664893565021,-0.00010664893565021,-0.00010664893565021,3512814.2632053,0.0073724440494865
23991759,0.44640017045094,0.007921355612959,0.0024644240113703,0.0030591860940196,0.0023977455075691,-0.00052751277185147,0.00052751087163442,9.5477735856002e-10,-2.8436264325468e-09,-3.3091605572694e-10,-1.6481546340514e-09,-0.00026282595782874,0.00026281895823934,-0.00034261616163517,0.00034261415943042,-0.00034261743203984,0.00034261288870869,-0.00026282089068845,0.000262823998673,-0.00026282462145393,0.00026282029050191,-0.00034261485866056,0.00034261543359455,-0.0003426161196231,0.00034261415970918,-0.00065070141124334,0.00065070125208889,-0.00065070267855206,0.00065069998779012,-0.00065070186744305,0.0006507008221339,-0.00065070313484502,0.00065069955730998,-0.00059424275241747,0.00059424415090262,-0.00059424648223028,0.00059424044000646,-0.00059424229291385,0.00059424459761423,-0.00059424602115553,0.00059424088736892,-0.00026282224657757,0.00026282270007818,-1.2240583522399e-09,1.7102061833089e-10,2.2138233973766e-10,-1.233964422137e-09,-0.00077218050197466,0.00077217948504831,-0.00071343957225117,0.00071343667340107,-0.0008023589591966,0.00080235703801083,-0.00080235769161903,0.00080235849327869,-0.00075327710085498,0.00075327610070299,-0.00075327756805694,0.00075327561471074,-0.00075327664955581,0.0007532765903529,-0.00075327711840362,0.00075327610591207,-0.00071343770588034,0.00071343858203117,-0.00071343913768818,0.00071343715281478,-0.00080235943372819,0.00080235655017333,-0.0008023581770789,0.00080235801894965,-0.00071343814405256,0.00071343810720597,-2.1086844535179e-09,1.6894489131424e-09,-0.00049854988712946,0.00049854946892065,-9.3630883373504e-10,5.1880693011093e-10,-0.00038025773588493,0.0003802550383402,-0.00043630246998657,0.00043630474318644,-0.00043630372289211,0.00043630347252002,-0.00038025545179103,0.0003802573154964,-0.00038025921468082,0.00038025364137472,-0.00043630388642326,0.00043630329366343,-0.00043630517462513,0.00043630205239473,-0.00060560542969547,0.00060560326135527,-0.00060560493650111,0.00060560373996209,-0.0006056041586182,0.00060560452382355,-0.00060560367806692,0.00060560501305559,-0.00055124698008653,0.00055125075859852,-0.00055125068948785,0.00055124703003226,-0.00055125120080673,0.00055124657007145,-0.00055124745010637,0.00055125026240729,-0.00038025403981221,0.0003802587636052,0.77068672990734,129794,2964,0.0021961657455585,0.003212140083267,0.0020754343235942,17.191782664634,-0.00010246573868293,-0.00010246573868293,-0.00010246573868293,3534580.9879559,0.0075121448401111
24191759,0.45380382495707,0.0080493617138047,0.0025025446652532,0.0031137663578566,0.0024330506906949,-0.00053671226126628,0.00053671035588074,9.9193974473052e-10,-2.885659847543e-09,-3.3013193326958e-10,-1.6548536502393e-09,-0.00026578750649881,0.00026578041845487,-0.00034770823656542,0.00034770624677787,-0.00034770953335769,0.00034770495113023,-0.00026578235490379,0.00026578554541243,-0.00026578616430745,0.0002657817559059,-0.00034770692683137,0.00034770752983442,-0.00034770821443912,0.00034770622840541,-0.00066285799590028,0.00066285786260616,-0.00066285928972703,0.00066285657134305,-0.00066285845691738,0.00066285742953993,-0.00066285975046448,0.00066285613855966,-0.00060518949867238,0.00060519096664194,-0.00060519330389822,0.00060518717890064,-0.00060518903512038,0.00060519141721045,-0.00060519284019822,0.00060518762771434,-0.00026578371963474,0.00026578423548237,-1.225833044789e-09,1.6704448153351e-10,1.7174821787712e-10,-1.1905975147056e-09,-0.00078792963432652,0.0007879286114182,-0.00072769591164499,0.00072769309737121,-0.00081887685141123,0.00081887489769001,-0.00081887558886626,0.0008188763510065,-0.00076850266816951,0.00076850163179715,-0.00076850310550402,0.00076850117694512,-0.00076850221732517,0.00076850212078475,-0.00076850265550855,0.00076850166759222,-0.00072769413461426,0.0007276949120351,-0.00072769547573671,0.00072769357521505,-0.00081887729643423,0.00081887443997313,-0.00081887604229012,0.0008188759074913,-0.00072769457109163,0.00072769443800053,-2.1598132182273e-09,1.7199993474653e-09,-0.00050651496494658,0.00050651452582773,-8.987844762319e-10,4.5895291557139e-10,-0.00038501266400154,0.00038500976727451,-0.00044300699031537,0.0004430091743387,-0.0004430082715199,0.00044300787450762,-0.00038501020386098,0.00038501221941327,-0.00038501404420253,0.00038500846906459,-0.00044300831185704,0.00044300781905548,-0.00044300962649756,0.00044300655051103,-0.00061626612727017,0.00061626394359996,-0.00061626566651418,0.00061626438939436,-0.00061626482898988,0.00061626523304336,-0.00061626438050427,0.00061626569020509,-0.0005609585979924,0.00056096240410687,-0.00056096238894981,0.00056095859649649,-0.00056096286819228,0.00056095817063827,-0.00056095903599736,0.00056096193959735,-0.00038500888666039,0.0003850135741026,0.73179327255417,129794,2964,0.0022344451708999,0.0032775399633516,0.0021085700738239,17.664758322579,-9.8681933419366e-05,-9.8681933419366e-05,-9.8681933419366e-05,3557964.6042106,0.007650011335029
24391759,0.46128244456408,0.008179443342895,0.0025412630577261,0.0031693193921996,0.0024688608929693,-0.00054560761547405,0.00054560567377529,1.0154451567298e-09,-2.9444528498689e-09,-2.8414707419311e-10,-1.7401360975073e-09,-0.00026893291447733,0.00026892557166938,-0.00035279231444136,0.00035279018580888,-0.00035279364202638,0.00035278886121227,-0.00026892755687895,0.00026893090928078,-0.0002689314344184,0.00026892704829157,-0.00035279088044449,0.00035279159664677,-0.00035279219208817,0.00035279027091556,-0.00067463524917491,0.00067463515221302,-0.00067463656962994,0.00067463383432406,-0.00067463575489753,0.00067463467628716,-0.0006746370768471,0.00067463335679536,-0.00061574790645094,0.00061574938002914,-0.00061575179366697,0.00061574550873651,-0.00061574740160895,0.00061574987166876,-0.00061575128296983,0.00061574600328393,-0.00026892904206431,0.00026892947616562,-1.3014009777993e-09,2.5660720890587e-10,9.2590469404496e-11,-1.0997446191004e-09,-0.00080319966398002,0.00080319865335344,-0.00074141609907747,0.00074141341036266,-0.00083469676450994,0.00083469460348372,-0.00083469534163339,0.00083469622663507,-0.00078342414129391,0.0007834230051457,-0.00078342452281642,0.00078342260862289,-0.00078342363605276,0.00078342355102565,-0.00078342402045786,0.00078342315422646,-0.00074141442890475,0.00074141510938966,-0.00074141560944769,0.00074141393869484,-0.00083469715016636,0.00083469420437978,-0.00083469574166644,0.00083469583654608,-0.00074141492348932,0.00074141457673047,-2.217177606792e-09,1.7411221850301e-09,-0.00051414035171478,0.00051413987558424,-8.4146422293567e-10,3.6203606907486e-10,-0.00038963724891368,0.00038963408969492,-0.00044952016349106,0.00044952218122849,-0.00044952146908854,0.00044952085550704,-0.00038963455504075,0.00038963677215268,-0.00038963848534166,0.00038963293718316,-0.00044952133003342,0.00044952097873943,-0.00044952267435173,0.0004495196795458,-0.00062649413053927,0.00062649193456014,-0.00062649372005874,0.00062649232991665,-0.00062649280497838,0.00062649325103521,-0.00062649240876998,0.00062649365606498,-0.00057031063292553,0.00057031442545402,-0.00057031449856546,0.00057031054619964,-0.00057031493100619,0.00057031017012972,-0.00057031101663226,0.00057031401533694,-0.00038963340051862,0.00038963796668377,0.73638899657949,129794,2964,0.0022714582428418,0.0033409438682394,0.0021402925695592,17.858789835377,-9.7129681316983e-05,-9.7129681316983e-05,-9.7129681316983e-05,3579629.6284059,0.0077831838274018
24591759,0.46882962720925,0.0083143142197053,0.0025813197141023,0.0032270195489176,0.0025059749566854,-0.00055474624816616,0.00055474427366701,1.0389602018319e-09,-3.0008555649077e-09,-2.5462621987318e-10,-1.8042419140598e-09,-0.00027226346753769,0.00027225592433978,-0.00035823409584235,0.0003582318657182,-0.00035823544731226,0.00035823051601133,-0.00027225793702619,0.0002722614348005,-0.00027226189904372,0.00027225748970765,-0.00035823256823406,0.00035823337105151,-0.00035823390699754,0.0003582320159621,-0.00068667837616631,0.00068667830860173,-0.00068667972361692,0.00068667696332992,-0.00068667891644907,0.00068667780016516,-0.00068668026428675,0.00068667645478654,-0.00062673201676968,0.00062673350122398,-0.00062673598190438,0.00062672955273212,-0.00062673147827188,0.00062673402705504,-0.00062673544134457,0.00062673007839117,-0.00027225952214527,0.00027225990215468,-1.3341157198276e-09,2.9780479485158e-10,4.3424753548808e-11,-1.0428297574299e-09,-0.00081888496637922,0.00081888396347352,-0.00075563709804682,0.00075563449514787,-0.00085098816822457,0.00085098590823261,-0.00085098667587333,0.00085098760549654,-0.00079870901056288,0.00079870782316434,-0.00079870935878544,0.00079870746175396,-0.00079870848207367,0.00079870839378365,-0.00079870883171538,0.00079870803336944,-0.00075563550903114,0.00075563611585419,-0.00075563658444909,0.00075563505326803,-0.00085098852264763,0.00085098554450153,-0.00085098703986943,0.00085098725332742,-0.00075563602547657,0.00075563555973059,-2.2740943080681e-09,1.7658458163136e-09,-0.00052195350311452,0.00052195299472746,-8.0164625369656e-10,2.8853694647293e-10,-0.00039457671238783,0.00039457332605039,-0.00045633865298799,0.00045634055351932,-0.0004563399861504,0.00045633920123893,-0.00039457382928088,0.00039457619883879,-0.00039457783362824,0.00039457229154909,-0.00045633970896992,0.0004563394615751,-0.00045634107914874,0.00045633813954275,-0.00063693318856311,0.00063693097222851,-0.00063693281586488,0.00063693132893065,-0.00063693183587757,0.00063693231477233,-0.0006369314771738,0.00063693268298203,-0.00057997234157404,0.00057997614683106,-0.00057997628734223,0.00057997218183855,-0.00057997668087148,0.00057997184532434,-0.00057997268854784,0.0005799757707861,-0.00039457278196878,0.00039457728774367,0.75660586662518,129794,2964,0.0023094830033373,0.0034060667555383,0.0021727956872577,18.045685474286,-9.5634516205714e-05,-9.5634516205714e-05,-9.5634516205714e-05,3596935.6691119,0.0079199121441385
24791759,0.47644260801948,0.0084377263479336,0.002618242025397,0.0032798301266165,0.0025396541959201,-0.00056326626888765,0.00056326427850268,1.0714299381391e-09,-3.0489849541026e-09,-2.4094262378e-10,-1.834943068587e-09,-0.00027439093680355,0.0002743832551192,-0.00036243646415959,0.00036243420005298,-0.00036243784238713,0.00036243282365463,-0.00027438528571413,0.0002743888880906,-0.00027438932467567,0.00027438486394769,-0.00036243489343636,0.00036243574947089,-0.00036243625828032,0.0003624343673841,-0.00069843958429806,0.00069843954377454,-0.00069844095856153,0.00069843817153051,-0.00069844014251097,0.00069843902069061,-0.00069844151735039,0.00069843764836643,-0.00063657871354541,0.00063658024652724,-0.00063658275765697,0.00063657621882073,-0.000636578160035,0.00063658078743948,-0.00063658220198642,0.00063657675973088,-0.00027438691274715,0.00027438731166721,-1.3561324887304e-09,3.197304718019e-10,5.5709563202997e-12,-1.0057308068582e-09,-0.0008339810205839,0.00083398001709668,-0.0007688909409982,0.00076888839596507,-0.00086671112899694,0.00086670880042492,-0.00086670959492725,0.00086671054310606,-0.0008134657320264,0.00081346450383538,-0.00081346605586015,0.00081346416802201,-0.0008134651888371,0.00081346509012334,-0.00081346551419672,0.00081346475514363,-0.0007688894102629,0.00076888995753105,-0.00076889041264249,0.00076888896950724,-0.00086671145892717,0.00086670846260443,-0.00086670993409211,0.00086671021614262,-0.00076888994124705,0.00076888938603847,-2.3236274694817e-09,1.7968294767399e-09,-0.00052916556124971,0.00052916503410696,-7.7422174467388e-10,2.4135890631676e-10,-0.00039812850172033,0.00039812494445512,-0.00046191331105478,0.00046191514553216,-0.00046191467124503,0.00046191376696688,-0.00039812546618357,0.00039812796852703,-0.00039812954918106,0.00039812398224458,-0.00046191429377376,0.00046191412701329,-0.00046191569080622,0.00046191277818663,-0.00064703111223734,0.00064702887557437,-0.00064703076434593,0.00064702920741953,-0.00064702973272941,0.00064703024504371,-0.00064702939873348,0.00064703058831726,-0.0005889925093302,0.00058899635052738,-0.00058899653309563,0.0005889923053555,-0.00058899690245125,0.00058899199434305,-0.00058899283107834,0.00058899599865083,-0.00039812449217743,0.00039812898388591,0.68706803971458,129794,2964,0.0023449366744638,0.0034687396820429,0.0022028001717137,18.232293607019,-9.4141651143847e-05,-9.4141651143847e-05,-9.4141651143847e-05,3617637.4059693,0.008049084492345
24991759,0.48418607279575,0.0085654278210457,0.0026564437605633,0.0033344454476634,0.002574538612819,-0.00057235690602646,0.00057235492686962,1.117310543724e-09,-3.0841812622619e-09,-2.6046592950347e-10,-1.8026494881632e-09,-0.00027777083835752,0.00027776314571256,-0.000367603478213,0.0003676013033482,-0.00036760488131234,0.00036759990118015,-0.00027776516141884,0.00027776880378469,-0.00027776928087621,0.00027776470004272,-0.00036760195597771,0.00036760280174053,-0.00036760334772501,0.00036760139257391,-0.00071057454709037,0.0007105745226025,-0.00071057594865475,0.00071057312314747,-0.00071057508369986,0.00071057401717428,-0.00071057648550774,0.00071057261790301,-0.00064695743206664,0.00064695907141727,-0.00064696155625924,0.00064695496446198,-0.0006469568947778,0.00064695959573913,-0.00064696101848962,0.00064695548865233,-0.00027776673853621,0.00027776727780596,-1.3359111666838e-09,2.8102670578293e-10,1.250233894448e-12,-1.018284309697e-09,-0.00084948577177656,0.00084948475094632,-0.00078252421709464,0.00078252166630043,-0.00088262412470577,0.0008826218379274,-0.00088262264619769,0.00088262352053307,-0.00082882370510605,0.0008288224812969,-0.0008288240313839,0.00082882214273057,-0.00082882318046621,0.0008288230477469,-0.00082882350795012,0.00082882271055233,-0.00078252270100896,0.00078252321939572,-0.00078252370920374,0.00078252222295314,-0.00088262445878631,0.0008826214987552,-0.00088262298689828,0.00088262319108217,-0.00078252321110474,0.00078252266832332,-2.3635599668415e-09,1.837195811929e-09,-0.00053693194107171,0.00053693141456721,-7.7632706581364e-10,2.4495496051538e-10,-0.00040265225571574,0.00040264862705055,-0.00046827648162709,0.00046827835041538,-0.00046827786894719,0.00046827694622219,-0.00040264914927271,0.00040265172347243,-0.00040265330814191,0.00040264765982173,-0.00046827747145672,0.00046827732674455,-0.0004682788945846,0.00046827595263346,-0.00065756631214319,0.00065756404769957,-0.00065756596268136,0.00065756438109703,-0.00065756490640911,0.0006575654441517,-0.00065756457043912,0.00065756578932724,-0.00059859818240365,0.00059860210531731,-0.00059860228322268,0.00059859797736053,-0.00059860265431723,0.00059859766531978,-0.00059859850577436,0.00059860174969359,-0.00040264816627781,0.00040265274590034,0.69911854918446,129794,2964,0.0023827600112933,0.0035331026246634,0.0022351085478414,18.54184290683,-9.1665256745359e-05,-9.1665256745359e-05,-9.1665256745359e-05,3645459.196523,0.0081846873498726
25191759,0.49224294068106,0.0087021100558912,0.002697244195156,0.0033929494451339,0.0026119164156013,-0.00058252256634709,0.00058252063674753,1.1818386871688e-09,-3.0996755074527e-09,-3.4509376669584e-10,-1.6647263090775e-09,-0.00028175165117069,0.00028174415064605,-0.00037370637985252,0.00037370450415636,-0.00037370781022913,0.0003737030743548,-0.00028174611850203,0.00028174966557103,-0.00028175031122515,0.00028174548590861,-0.00037370507579356,0.00037370578104961,-0.00037370649285935,0.0003737043466923,-0.00072384661197515,0.00072384658791466,-0.00072384804017448,0.00072384516214875,-0.00072384707537461,0.00072384615713132,-0.00072384850449021,0.00072384473074507,-0.00065872692848896,0.00065872876982273,-0.00065873113181072,0.00065872458466044,-0.00065872646743152,0.00065872921951886,-0.00065873066718235,0.00065872503514398,-0.00028174747074886,0.00028174836413173,-1.2450353259372e-09,1.5936714477492e-10,5.0341035187622e-11,-1.0958944271458e-09,-0.00086662291671656,0.00086662186695949,-0.00079787620833429,0.00079787357683593,-0.00090037126427134,0.00090036919602298,-0.0009003699890053,0.00090037066662035,-0.00084565077244563,0.0008456496299336,-0.00084565113869605,0.00084564924978194,-0.00084565031413515,0.00084565012527423,-0.00084565068196518,0.00084564974495507,-0.00079787464078678,0.00079787518551499,-0.00079787577106419,0.00079787406008957,-0.00090037163877257,0.0009003688161982,-0.00090037037120145,0.00090037029266868,-0.00079787508225756,0.00079787470547628,-2.3890139524493e-09,1.892627341975e-09,-0.00054569399315378,0.0005456934968815,-8.2462647860029e-10,3.257553785195e-10,-0.0004081644885753,0.00040816094482161,-0.00047564497789215,0.00047564703178034,-0.00047564639135084,0.00047564560274263,-0.00040816143275481,0.00040816399153071,-0.00040816567386079,0.00040815984731072,-0.00047564609470825,0.00047564588262464,-0.00047564754620735,0.00047564448112606,-0.00066927131810282,0.00066926901274613,-0.00066927092542096,0.00066926938915245,-0.0006692698852838,0.00066927043693521,-0.00066926950653617,0.00066927082431248,-0.00060947536288034,0.0006094794363003,-0.0006094795402878,0.00060947522937145,-0.00060947995578097,0.00060947487391303,-0.00060947572758779,0.00060947903864436,-0.00040816032589544,0.00040816513915391,0.71926998121033,129794,2964,0.0024250544297397,0.0036042367395268,0.0022715575095138,19.180661113954,-8.6554711088367e-05,-8.6554711088367e-05,-8.6554711088367e-05,3672985.1322293,0.0083358195535519
25391759,0.5006212368125,0.0088519833566586,0.0027417621282004,0.0034572731905511,0.0026529480379071,-0.00059343125117035,0.00059342934810198,1.2350783490866e-09,-3.1271398040255e-09,-3.9908051758472e-10,-1.5825573178426e-09,-0.00028631126414706,0.00028630384677615,-0.0003807611237939,0.00038075943613623,-0.00038076258123916,0.00038075797979962,-0.00028630578532534,0.00028630930466633,-0.00028631006135889,0.00028630504641485,-0.00038075995085328,0.00038076057842837,-0.00038076139656829,0.00038075911754095,-0.00073788046534916,0.00073788044888035,-0.00073788192076284,0.00073787899627743,-0.0007378808840979,0.00073788006359666,-0.00073788233996203,0.00073787861048158,-0.0006716816196805,0.00067168361126849,-0.00067168590138066,0.00067167934707945,-0.0006716812036377,0.00067168401503428,-0.00067168548343074,0.00067167975135381,-0.00028630700572682,0.00028630813860998,-1.1850494238183e-09,7.8571253036712e-11,9.5058195680755e-11,-1.1599844026284e-09,-0.00088498498740256,0.00088498391808877,-0.00081460980120556,0.00081460708976752,-0.0009193261572884,0.00091932424075082,-0.00091932501718846,0.000919325570977,-0.00086362943170652,0.00086362835228045,-0.00086362983252163,0.00086362793534252,-0.00086362901850929,0.00086362879977048,-0.00086362942059296,0.00086362838325741,-0.00081460817308193,0.00081460875830299,-0.00081460940905427,0.00081460752446781,-0.00091932656637353,0.00091932382300199,-0.00091932543387452,0.00091932516186428,-0.00081460856774519,0.00081460832648434,-2.4189242246761e-09,1.9433056782866e-09,-0.00055505909053819,0.00055505861534498,-8.666428536842e-10,3.8991322679564e-10,-0.00041450125597883,0.00041449775782716,-0.00048390844825877,0.00048391065649888,-0.00048390988827298,0.0004839091981337,-0.00041449822968805,0.0004145007815207,-0.00041450254751706,0.00041449655758187,-0.00048390967005586,0.00048390940156606,-0.00048391114689634,0.00048390797205522,-0.00068164870852031,0.00068164636201869,-0.00068164828085804,0.00068164677344323,-0.00068164724929596,0.00068164781319548,-0.00068164683533512,0.00068164823582174,-0.00062122398931397,0.00062122819867794,-0.0006212282465986,0.00062122391295277,-0.00062122869633891,0.0006212235208835,-0.00062122439075534,0.00062122776518841,-0.00041449701551419,0.00041450203733214,0.75830137947985,129794,2964,0.0024704392869335,0.0036804465611386,0.002310514415967,19.827926705173,-8.1376586358615e-05,-8.1376586358615e-05,-8.1376586358615e-05,3692948.7746024,0.0084977376721792
25591759,0.50932361461502,0.0090126199876818,0.0027892848500278,0.0035264935357219,0.0026968416019321,-0.00060491784570935,0.00060491595072897,1.2793142574452e-09,-3.1635203448309e-09,-4.3222834707363e-10,-1.5406365878892e-09,-0.00029101190851213,0.00029100449538063,-0.0003883700718278,0.00038836849258287,-0.00038837155609405,0.00038836700974093,-0.00029100642477507,0.00029100995698721,-0.00029101077982365,0.0002910056203352,-0.00038836897036547,0.00038836956012986,-0.00038837044293293,0.00038836807262935,-0.00075265504310233,0.00075265503627786,-0.00075265652557696,0.00075265355687786,-0.0007526554371064,0.0007526546763886,-0.00075265691990838,0.00075265319644161,-0.00068555366124001,0.00068555576567738,-0.00068555802186632,0.00068555142254139,-0.00068555327142961,0.00068555614387325,-0.00068555763015503,0.00068555180103441,-0.00029100757172231,0.00029100886551028,-1.156393232657e-09,3.2018815157837e-11,1.3048206386619e-10,-1.2116747755111e-09,-0.00090449060464664,0.00090448951850174,-0.00083255087536577,0.00083254808756189,-0.00093950699687598,0.00093950516185751,-0.00093950592824615,0.00093950641897142,-0.00088265551365215,0.00088265447081668,-0.00088265594207333,0.00088265402482824,-0.00088265512435406,0.00088265489306417,-0.00088265555401299,0.00088265444757414,-0.00083254918778405,0.00083254981734232,-0.00083255050836442,0.00083254849626831,-0.00093950743447495,0.00093950471504119,-0.00093950637294399,0.00093950598060397,-0.00083254955687068,0.00083254941167713,-2.4527734193105e-09,1.9900752183034e-09,-0.00056485753282608,0.00056485707070395,-9.0265594005509e-10,4.399954482784e-10,-0.00042123565902504,0.00042123218113711,-0.00049271035903968,0.00049271269310325,-0.00049271182536071,0.00049271120739613,-0.00042123264141866,0.00042123520001041,-0.00042123703855939,0.00042123089800442,-0.00049271166607749,0.00049271135310717,-0.00049271316979444,0.00049270989692027,-0.00069461258598391,0.00069461019674247,-0.00069461213007007,0.00069461063695682,-0.00069461110015249,0.00069461167509186,-0.00069461065761907,0.00069461212628101,-0.00063373514503174,0.00063373947495219,-0.00063373948222958,0.00063373511097319,-0.00063373995928419,0.00063373468905829,-0.00063373557532856,0.0006337390128333,-0.00042123134209526,0.00042123654171348,0.7825285463543,129794,2964,0.002518229193652,0.0037613928562389,0.0023512742421299,20.475524179964,-7.6195806560284e-05,-7.6195806560284e-05,-7.6195806560284e-05,3706322.4585466,0.0086687037200341
25791759,0.51816580227964,0.0091709034883947,0.0028361655027803,0.0035948920373942,0.0027398459482202,-0.00061571231590921,0.00061571037398815,1.2941677878566e-09,-3.2245489883301e-09,-3.7146954422806e-10,-1.65183514982e-09,-0.00029465243797509,0.0002946447333419,-0.00039496311876059,0.00039496134455461,-0.00039496462755081,0.00039495983841358,-0.00029464670607171,0.00029465044325362,-0.00029465114416983,0.00029464602471354,-0.00039496184928513,0.00039496258503582,-0.00039496335034441,0.00039496106984673,-0.00076694853760262,0.00076694856852853,-0.00076695004596276,0.00076694706286363,-0.00076694899041466,0.00076694815038118,-0.00076695049762028,0.00076694664581602,-0.00069858707448892,0.00069858914838887,-0.00069859150581906,0.0006985847329238,-0.00069858662461366,0.00069858958594868,-0.00069859105873474,0.0006985851657884,-0.00029464803118154,0.00029464917368447,-1.2282452264808e-09,1.0983261883962e-10,1.1563950210877e-10,-1.1937501470034e-09,-0.00092351025989163,0.00092350917787414,-0.00084983570115916,0.00084983289528002,-0.00095912692069117,0.000959124938683,-0.00095912571281631,0.0009591263428461,-0.00090123734040735,0.00090123624168139,-0.00090123775895967,0.00090123580603491,-0.00090123690377864,0.00090123671397703,-0.00090123732196438,0.00090123628045535,-0.0008498339923531,0.00084983464087302,-0.00084983527997913,0.0008498333541754,-0.000959127348817,0.00095912449906682,-0.00095912614419378,0.00095912591808683,-0.00084983440889559,0.00084983418602404,-2.502690426803e-09,2.0253869984351e-09,-0.00057392561511989,0.0005739251380922,-8.8806376855282e-10,4.090968667702e-10,-0.00042684080791511,0.00042683717954785,-0.00050043218225963,0.00050043448697835,-0.00050043367933712,0.00050043296825493,-0.00042683766332907,0.00042684032624952,-0.00042684213700221,0.00042683594761546,-0.0005004334463806,0.00050043318787479,-0.00050043497548227,0.00050043170370591,-0.0007070367458883,0.00070703432962395,-0.00070703630544451,0.00070703475347892,-0.00070703523183788,0.000707035835116,-0.00070703480375259,0.00070703627199602,-0.00064560251147014,0.00064560689740083,-0.00064560693600407,0.00064560245028806,-0.00064560739606537,0.00064560204606746,-0.00064560292913912,0.00064560644872122,-0.00042683640299632,0.00042684163171027,0.75921599450887,129794,2964,0.0025631433676485,0.0038403129684745,0.0023889993218367,20.820610282476,-7.3435117740196e-05,-7.3435117740196e-05,-7.3435117740196e-05,3713593.9874537,0.0088316952246698
25991759,0.52685833886682,0.0093231342104089,0.0028813704231998,0.0036606742532376,0.0027810895339715,-0.00062534839546061,0.0006253463528231,1.2843602404704e-09,-3.31472800707e-09,-2.3399016132001e-10,-1.8974482128625e-09,-0.00029760514768761,0.00029759688235234,-0.00040060805404921,0.00040060582174731,-0.00040060958842934,0.00040060428879199,-0.00029759895693451,0.00029760304975741,-0.00029760347892189,0.00029759855311636,-0.00040060640802605,0.00040060744197467,-0.00040060793716975,0.00040060589859386,-0.00077999530363092,0.00077999539051853,-0.00077999683840751,0.00077999385767641,-0.00077999588311552,0.00077999484471963,-0.00077999741630251,0.00077999331371357,-0.00071016722000203,0.00071016914779699,-0.00071017173104805,0.00071016465257064,-0.00071016664371512,0.00071016971134442,-0.00071017115905673,0.00071016521165647,-0.00029760066653193,0.00029760139849049,-1.400994908626e-09,3.1153380327711e-10,4.0182668382725e-11,-1.0922678621729e-09,-0.00094094678802134,0.00094094573274775,-0.00086541355178522,0.00086541081908766,-0.00097684433427538,0.00097684195586017,-0.00097684276876445,0.00097684373422574,-0.00091847969486981,0.00091847844307485,-0.00091848005713048,0.00091847806606016,-0.00091847914004569,0.00091847904093578,-0.00091847950186626,0.0009184786680819,-0.00086541189171199,0.00086541251556196,-0.0008654130089434,0.0008654114089449,-0.00097684470397949,0.00097684157454235,-0.00097684314256185,0.00097684337332469,-0.00086541242989887,0.00086541193626142,-2.5665493269574e-09,2.0430486710008e-09,-0.00058189762428801,0.00058189710080322,-8.2275847924543e-10,2.9413702745496e-10,-0.00043154286915508,0.00043153893136142,-0.00050698105817498,0.00050698316418062,-0.00050698258325543,0.00050698161874521,-0.0004315394674824,0.00043154233746282,-0.00043154401877581,0.00043153787708901,-0.00050698214499081,0.00050698204179291,-0.00050698369933076,0.00050698053203192,-0.00071825155577009,0.00071824912757772,-0.00071825117510286,0.00071824949117066,-0.00071825001438271,0.00071825065925794,-0.00071824964569694,0.00071825103678616,-0.00065626287155032,0.00065626723406026,-0.00065626737879097,0.00065626270480162,-0.00065626777669855,0.00065626236015737,-0.00065626323213487,0.00065626684453646,-0.00043153837848807,0.00043154346786293,0.74286074054822,129794,2964,0.002603239447133,0.0039126532983651,0.002422167927654,20.694868382168,-7.4441052942654e-05,-7.4441052942654e-05,-7.4441052942654e-05,3715471.4666975,0.0089786159132587
26191759,0.53539465282591,0.009475904071063,0.0029267242436611,0.0037266372413016,0.0028225425861003,-0.00063499321275041,0.00063499110496388,1.2944752750807e-09,-3.3879270005381e-09,-1.6482705979352e-10,-2.0360809726386e-09,-0.0003008898262692,0.00030088120252513,-0.0004066808908499,0.00040667841315496,-0.00040668245390459,0.00040667685194034,-0.00030088335004542,0.0003008876613062,-0.00030088794456305,0.00030088308570312,-0.00040667904350328,0.00040668023749947,-0.00040668059640667,0.00040667866733385,-0.00079287161206653,0.00079287173091584,-0.00079287317394642,0.00079287017074773,-0.00079287225961697,0.00079287111637432,-0.00079287382122405,0.00079286955702286,-0.00072186054011263,0.00072186241944541,-0.00072186513349578,0.00072185784170073,-0.00072185989799061,0.00072186305186628,-0.00072186448908116,0.00072185847044919,-0.00030088526111008,0.0003008858049986,-1.5037988765648e-09,4.3827754215723e-10,-1.1151448292306e-11,-1.019136640112e-09,-0.0009581558927125,0.00095815485947307,-0.00088085908870087,0.00088085642540854,-0.00099414780842661,0.00099414518522708,-0.00099414602232031,0.00099414719786466,-0.00093558678528476,0.00093558543783072,-0.00093558710711953,0.00093558510395146,-0.00093558615653588,0.00093558611401864,-0.00093558647898413,0.00093558578238923,-0.00088085747405583,0.00088085807580792,-0.00088085847180744,0.00088085708958448,-0.00099414813749956,0.00099414484945791,-0.00099414635714222,0.00099414687412132,-0.00088085808924817,0.00088085741750161,-2.6220947083764e-09,2.0648669249975e-09,-0.00058989289455978,0.00058989233666354,-7.8395771665195e-10,2.1925843437749e-10,-0.00043674604634543,0.00043674189423564,-0.00051375177593417,0.00051375375817086,-0.00051375332610125,0.00051375219012964,-0.00043674245306799,0.00043674548090318,-0.00043674708867456,0.00043674094604588,-0.0005137527488276,0.00051375274922269,-0.00051375433256676,0.00051375121353785,-0.00072934707167857,0.00072934462029708,-0.00072934672816237,0.00072934494678395,-0.00072934550315182,0.00072934617852068,-0.00072934517274574,0.00072934651780278,-0.00066690330676403,0.00066690767073708,-0.00066690789164024,0.00066690307299912,-0.00066690825214744,0.00066690276451547,-0.00066690362694319,0.00066690732260308,-0.00043674148447609,0.00043674649365041,0.75895315727684,129794,2964,0.0026433695103998,0.0039840416220133,0.0024554328210917,20.556989358949,-7.5544085128406e-05,-7.5544085128406e-05,-7.5544085128406e-05,3716190.9248116,0.0091247269712069
26391759,0.54377541178193,0.0096309289351027,0.0029726577760528,0.003793601119922,0.0028646700391279,-0.00064469246173629,0.00064469031144596,1.314049329842e-09,-3.449150607493e-09,-1.3683104061152e-10,-2.1096396808823e-09,-0.00030424852414848,0.00030423967578163,-0.00041309345844192,0.0004130908620213,-0.00041309504814117,0.00041308927421709,-0.00030424186780709,0.00030424631643254,-0.00030424654102804,0.0003042416621191,-0.00041309151216046,0.00041309278689613,-0.00041309309099135,0.00041309118946269,-0.00080570485581887,0.00080570499425572,-0.0008057064444742,0.0008057034070098,-0.00080570553752699,0.0008057043454668,-0.00080570712612002,0.00080570275911852,-0.00073382905814748,0.00073383094178246,-0.00073383373057564,0.00073382628452572,-0.00073382838223157,0.00073383160852444,-0.00073383305186757,0.00073382694751131,-0.00030424388148139,0.00030424435818092,-1.5469030594675e-09,4.980299015633e-10,-4.0038137310918e-11,-9.7509856151122e-10,-0.00097544542728135,0.00097544440959962,-0.00089654596016115,0.00089654334923671,-0.0010115093888965,0.0010115066568263,-0.0010115075056651,0.0010115087747737,-0.0009527201137025,0.00095271872397291,-0.0009527204124007,0.00095271841483549,-0.00095271945237059,0.00095271943513595,-0.0009527197515274,0.00095271912811325,-0.00089654438171476,0.00089654496198339,-0.00089654530946053,0.00089654404804387,-0.0010115096945648,0.0010115063460674,-0.0010115078170053,0.0010115084752635,-0.00089654503119395,0.00089654426850884,-2.6758069596216e-09,2.0916124723218e-09,-0.00059792411764519,0.00059792353246199,-7.6274879034215e-10,1.691183958786e-10,-0.00044224298162079,0.00044223865334286,-0.00052072954982315,0.00052073145990016,-0.00052073112661154,0.00052072986517517,-0.00044223923835237,0.00044224238765735,-0.00044224395509479,0.00044223777535168,-0.00052073045163006,0.00052073052078091,-0.00052073206278135,0.00052072895874213,-0.00074041984306268,0.00074041736198025,-0.00074041952318903,0.00074041766452216,-0.00074041824729425,0.00074041894681175,-0.00074041794100586,0.00074041926237428,-0.00067764728874925,0.00067765168087159,-0.00067765195393077,0.0006776470062103,-0.00067765229030176,0.00067764672060193,-0.00067764758479545,0.00067765135665027,-0.00044223834210964,0.00044224333133888,0.7842238853993,129794,2964,0.0026837256267914,0.004055755600661,0.0024888476285717,20.418620339697,-7.6651037282424e-05,-7.6651037282424e-05,-7.6651037282424e-05,3711208.5506442,0.0092715660139065
26591759,0.55216666339781,0.0097857913653271,0.0030185637383242,0.0038605247142086,0.0029067029127944,-0.0006548653270659,0.00065486320215487,1.3641293405791e-09,-3.474172527767e-09,-2.1480250122515e-10,-2.0052598439676e-09,-0.00030779671343266,0.00030778800334743,-0.00041987701368437,0.00041987464622992,-0.00041987862586058,0.00041987303255216,-0.0003077901615648,0.00030779453872827,-0.00030779491923269,0.0003077898015715,-0.00041987524249511,0.00041987639252302,-0.0004198768499272,0.00041987476582999,-0.00081912555907814,0.00081912568914551,-0.00081912717342893,0.00081912407596565,-0.00081912618292258,0.00081912510002694,-0.00081912779545918,0.00081912348948613,-0.00074632518531101,0.0007463272250272,-0.00074632992972626,0.00074632249661015,-0.00074632456773667,0.00074632783394884,-0.00074632931444055,0.00074632309728152,-0.00030779200402563,0.00030779275649017,-1.4487119380212e-09,3.8374497155306e-10,-8.1576320399408e-13,-1.0289986163455e-09,-0.00099342879931898,0.00099342776718704,-0.00091288580415225,0.00091288315514615,-0.0010295729615709,0.0010295704566799,-0.0010295712881212,0.0010295723593735,-0.00097049613281284,0.00097049483011251,-0.00097049646258643,0.00097049448902625,-0.00097049554039946,0.00097049546950263,-0.0009704958686301,0.00097049513245264,-0.00091288420630762,0.00091288478972626,-0.00091288522243852,0.00091288378878439,-0.0010295732994026,0.0010295701122203,-0.0010295716296174,0.0010295720364938,-0.00091288478481804,0.0009128841714352,-2.7153512669728e-09,2.1385435341395e-09,-0.00060640271982449,0.00060640214213207,-7.9760361218913e-10,2.1179213975351e-10,-0.00044801160707235,0.00044800727327698,-0.00052803710170627,0.00052803912455044,-0.00052803870851161,0.00052803750147939,-0.00044800786093649,0.00044801101563521,-0.00044801265010147,0.00044800632326089,-0.00052803808190149,0.00052803810793599,-0.00052803971673099,0.00052803652106933,-0.00075204929285571,0.00075204676586255,-0.00075204894799749,0.00075204709308431,-0.00075204766908291,0.00075204837853588,-0.00075204733580671,0.00075204872049183,-0.0006889605622411,0.00068896507501928,-0.00068896531690483,0.00068896031349856,-0.00068896567351443,0.00068896000212402,-0.00068896088757804,0.00068896472197641,-0.00044800687727831,0.00044801204546778,0.78230622633994,129794,2964,0.0027260517224341,0.0041303403171676,0.0025241236398939,20.57110640171,-7.5431148786317e-05,-7.5431148786317e-05,-7.5431148786317e-05,3707693.5938828,0.0094251932447848
26791759,0.56072468615728,0.0099401881845836,0.0030644459335713,0.0039272199400207,0.0029485223109915,-0.00066557915826416,0.00066557711016295,1.4470183664939e-09,-3.4832126653617e-09,-3.6708901231501e-10,-1.7709932879884e-09,-0.00031166458255721,0.00031165624307615,-0.00042707551222858,0.000427073640442,-0.00042707715585101,0.00042707199227233,-0.00031165833618386,0.00031166246854463,-0.00031166316562509,0.00031165767199676,-0.00042707412227036,0.00042707500017209,-0.00042707575331331,0.0004270733499981,-0.00083322297560369,0.00083322308327953,-0.00083322461883255,0.00083322144182748,-0.00083322347202518,0.00083322262552625,-0.0008332251170119,0.00083322098287613,-0.0007593034998387,0.00075930583994563,-0.00075930834677586,0.00075930101508577,-0.00075930301799609,0.00075930631068997,-0.00075930785695116,0.00075930149277382,-0.00031165977906368,0.00031166108891881,-1.3006213626749e-09,2.0000816799621e-10,7.1368535394645e-11,-1.1326720326625e-09,-0.0010120747594517,0.0010120736944545,-0.00092971452870721,0.00092971178997312,-0.0010481103245521,0.0010481081627162,-0.0010481089656718,0.0010481097368293,-0.00098902690235797,0.00098902573245114,-0.00098902728620011,0.00098902533325185,-0.00098902641516407,0.00098902626168551,-0.00098902680205756,0.00098902586546928,-0.00092971287995439,0.00092971349879876,-0.00092971407054581,0.00092971231961892,-0.001048110714713,0.0010481077682734,-0.0010481093706215,0.0010481093537084,-0.00092971335195861,0.00092971298898298,-2.7321118098614e-09,2.1925442737186e-09,-0.00061538728886702,0.00061538675009886,-8.7793595195894e-10,3.3498042883795e-10,-0.0004540565370752,0.00045405238763337,-0.00053565079214812,0.00053565307776889,-0.00053565241776108,0.0005356514414998,-0.00045405292381222,0.00045405601159353,-0.00045405780426026,0.00045405122111966,-0.00053565196951055,0.00053565186967526,-0.00053565363383556,0.00053565025678116,-0.00076431905430932,0.00076431647357004,-0.00076431864009971,0.00076431687016766,-0.00076431740675288,0.00076431811239338,-0.00076431700737284,0.0007643185197774,-0.00070076045341269,0.00070076513743437,-0.00070076527038849,0.00070076030284193,-0.00070076569703178,0.00070075991495933,-0.00070076084505036,0.00070076472097974,-0.00045405174458896,0.00045405722319729,0.76472632510238,129794,2964,0.0027706267927856,0.0042076654527242,0.0025615037669402,21.0033256255,-7.1973394995999e-05,-7.1973394995999e-05,-7.1973394995999e-05,3711289.1814722,0.009586007789634
26991759,0.56944873620652,0.010093625225103,0.0031101883481219,0.0039934273362946,0.0029900095406865,-0.00067633638687791,0.00067633439329773,1.5127786925611e-09,-3.4940573699164e-09,-4.5222294650234e-10,-1.6276182746731e-09,-0.00031542909998638,0.00031542096133379,-0.00043422971869093,0.00043422815485586,-0.00043423138853023,0.00043422648381287,-0.00031542299488639,0.00031542704668981,-0.00031542790889329,0.00031542216108211,-0.00043422855464524,0.00043422929007632,-0.00043423021448137,0.00043422761309589,-0.00084744322549739,0.0008474433375795,-0.00084744489555851,0.00084744166977406,-0.00084744365045824,0.00084744295458502,-0.00084744532076496,0.00084744128677123,-0.00077221006463219,0.00077221260541512,-0.00077221497905791,0.00077220770984785,-0.00077220965280374,0.00077221300626873,-0.00077221456259664,0.00077220810897637,-0.00031542421940441,0.0003154258850846,-1.1932408134887e-09,5.6733115702553e-11,1.3355158614219e-10,-1.2300415271216e-09,-0.0010307287370835,0.0010307276376748,-0.00094634322730732,0.00094634037807611,-0.0010664756618065,0.001066473773019,-0.0010664745509766,0.0010664750925818,-0.0010077275897288,0.0010077265196466,-0.0010077280250534,0.001007726067029,-0.0010077271822287,0.0010077269639538,-0.0010077276185547,0.0010077265138385,-0.00094634149736312,0.00094634215494221,-0.00094634284052791,0.00094634081316016,-0.0010664761069292,0.0010664733210182,-0.0010664750040943,0.0010664746516352,-0.00094634188831476,0.00094634172875271,-2.7570528286786e-09,2.2510130878306e-09,-0.00062441063640908,0.00062441013070805,-9.3489388131289e-10,4.2627840999224e-10,-0.00046013009954401,0.00046012604632331,-0.00054314968797888,0.00054315218365135,-0.00054315134270421,0.00054315051204225,-0.00046012655395517,0.00046012959747851,-0.000460131502111,0.0004601247379864,-0.0005431510131523,0.00054315082504509,-0.00054315270227224,0.00054314918170054,-0.00077671000249361,0.00077670737689251,-0.00077670953942106,0.00077670782096402,-0.00077670832731396,0.00077670904332345,-0.0007767078786569,0.00077670950018941,-0.00071248061594863,0.00071248546298716,-0.00071248551601183,0.00071248055253092,-0.00071248599379176,0.00071248012086064,-0.00071248105530029,0.00071248499728995,-0.0004601252319607,0.00046013096474009,0.74557636102838,129794,2964,0.002815381078744,0.0042850153892634,0.0025990455992546,21.442795410598,-6.8457636715219e-05,-6.8457636715219e-05,-6.8457636715219e-05,3718848.4900267,0.0097472190517532
27191759,0.57833341441846,0.010245563798454,0.0031556485481986,0.0040588788042958,0.0030310364459593,-0.00068707043700296,0.00068706843884734,1.5501629363805e-09,-3.5364528787627e-09,-4.9023314980202e-10,-1.5941951658879e-09,-0.00031904712045946,0.00031903897023288,-0.00044118008090045,0.00044117860890589,-0.00044118177710019,0.0004411769120704,-0.00031904100739988,0.00031904506271023,-0.00031904599954732,0.00031904009898528,-0.00044117898702686,0.00044117967432738,-0.00044118067362927,0.00044117797093018,-0.0008617237480883,0.00086172385911768,-0.00086172544508917,0.00086172216460594,-0.00086172415148562,0.00086172350020366,-0.00086172584841738,0.00086172180584003,-0.0007849540596129,0.00078495669611069,-0.00078495905199708,0.00078495172296288,-0.00078495366986656,0.00078495707383596,-0.00078495865807339,0.00078495209744958,-0.00031904216366719,0.00031904397018512,-1.1707068361803e-09,7.5929360667505e-12,1.7006423393013e-10,-1.2919435999198e-09,-0.0010493348546373,0.0010493337300503,-0.00096276651731814,0.00096276356900425,-0.0010846961219353,0.001084694313478,-0.0010846950843711,0.0010846955609078,-0.0010265114439086,0.0010265104046955,-0.0010265119108353,0.0010265099193158,-0.0010265110600363,0.0010265108251274,-0.0010265115276832,0.0010265103421631,-0.00096276471456342,0.00096276541945071,-0.00096276615323581,0.0009627639801096,-0.0010846965999444,0.0010846938284257,-0.0010846955687497,0.0010846950870052,-0.00096276508142305,0.00096276501740276,-2.7916325147396e-09,2.2979218855049e-09,-0.00063345471310777,0.00063345421984317,-9.7649781645888e-10,4.81149659801e-10,-0.00046620906400717,0.00046620503833676,-0.00055045853859558,0.00055046116976479,-0.00055046022055483,0.00055045947022892,-0.00046620553589237,0.00046620857584277,-0.00046621056012561,0.00046620363583293,-0.00055045995936188,0.00055045971599139,-0.00055046167428329,0.00055045804477961,-0.00078918699010289,0.00078918431726662,-0.0007891864948276,0.00078918479292728,-0.00078918528805935,0.00078918601082818,-0.00078918480691638,0.00078918649959282,-0.00072407792060529,0.00072408289204438,-0.0007240828999994,0.0007240779004103,-0.00072408341008714,0.00072407743807893,-0.0007240783926681,0.00072408239433634,-0.00046620411678227,0.00046621003840723,0.72509827680538,129794,2964,0.0028600371748958,0.0043621595704111,0.0026366738476792,21.882558298706,-6.4939533610354e-05,-6.4939533610354e-05,-6.4939533610354e-05,3730166.2044947,0.0099082381791368
27391759,0.58730807272931,0.010402398636253,0.003202540105382,0.0041263708248665,0.0030734877060044,-0.00069791630035647,0.00069791427507553,1.5768858358084e-09,-3.5897384006324e-09,-4.7051989845479e-10,-1.6434256389895e-09,-0.0003229969175027,0.00032298858942582,-0.00044844736050314,0.00044844581780777,-0.00044844908369168,0.00044844409512205,-0.00032299065356123,0.00032299483217236,-0.0003229957279445,0.00032298978671264,-0.00044844619968735,0.00044844695214361,-0.00044844791410717,0.00044844522155994,-0.00087601124458612,0.0008760113790895,-0.00087601296848163,0.00087600965751553,-0.0008760116721897,0.00087601099705968,-0.00087601339564131,0.00087600927618069,-0.00079795913351314,0.00079796179840097,-0.00079796420230889,0.00079795674773404,-0.00079795871916074,0.00079796220007968,-0.00079796378450183,0.00079795714361551,-0.0003229918833803,0.00032299366885989,-1.2077777661007e-09,3.3080508755077e-11,1.786201869634e-10,-1.3130462255643e-09,-0.0010680571544277,0.0010680560181782,-0.00097939910182498,0.00097939608948035,-0.0011029075064241,0.0011029056382383,-0.0011029064125641,0.0011029069478552,-0.0010454567517496,0.0010454556906672,-0.0010454572284228,0.0010454551952105,-0.0010454563486748,0.0010454561322364,-0.0010454568257434,0.001045455639514,-0.00097939724507667,0.00097939798752297,-0.00097939871385369,0.00097939651944446,-0.0011029079932601,0.001102905140873,-0.0011029069054494,0.0011029064643386,-0.00097939763339851,0.00097939756491438,-2.8317864075014e-09,2.3388341705451e-09,-0.00064255925371075,0.00064255876097854,-9.8986838153038e-10,4.9433858464483e-10,-0.00047266518837147,0.00047266110731983,-0.00055799777381112,0.00055800045890784,-0.00055799948331471,0.00055799872939183,-0.00047266160790606,0.00047266469628972,-0.00047266670512858,0.00047265967897046,-0.00055799922095877,0.00055799897680359,-0.00055800096142576,0.00055799727762472,-0.00080168983555148,0.000801687127504,-0.0008016893313098,0.00080168761129525,-0.00080168810632885,0.00080168884762003,-0.00080168761604824,0.00080168934526139,-0.00073569646303577,0.00073570152396994,-0.00073570152372119,0.00073569645477651,-0.0007357020429325,0.00073569598524286,-0.00073569694469359,0.00073570101741751,-0.00047266016111565,0.00047266618788973,0.74093824971492,129794,2964,0.0029051563244724,0.0044397768232366,0.0026745528455607,22.2143404969,-6.2285276024799e-05,-6.2285276024799e-05,-6.2285276024799e-05,3739472.4013688,0.010070480293356
27591759,0.59632778234847,0.010562099521503,0.0032502551091999,0.0041950863415026,0.0031167580708002,-0.00070876178087371,0.00070875971323738,1.5970880889963e-09,-3.6516054831649e-09,-4.4273539551698e-10,-1.7168059851086e-09,-0.00032671297317638,0.0003267044172627,-0.0004556666870901,0.000455665028711,-0.00045566843828307,0.00045566327737092,-0.00032670653005613,0.00032671084043192,-0.00032671167912884,0.00032670572084514,-0.00045566542986841,0.00045566626186611,-0.00045566716929909,0.00045566450500136,-0.00089030560758945,0.00089030576192574,-0.0008903073582211,0.00089030401329216,-0.0008903060694279,0.00089030534664498,-0.00089030782077363,0.00089030359787704,-0.00081113297387589,0.00081113564617287,-0.00081113812604829,0.00081113051374753,-0.00081113252732158,0.00081113608033575,-0.00081113767231864,0.00081113094479348,-0.00032670785685324,0.00032670957920067,-1.2688805467468e-09,8.9940462834642e-11,1.7241467844184e-10,-1.3122148056015e-09,-0.0010869865019545,0.0010869853604972,-0.00099630648996316,0.00099630344071249,-0.0011213434809486,0.0011213414902131,-0.0011213422761684,0.0011213429212319,-0.0010645158163182,0.0010645147082432,-0.0010645162907479,0.001064514215842,-0.0010645153754357,0.0010645151907981,-0.0010645158510824,0.0010645147001615,-0.00099630460297411,0.00099630537355983,-0.0009963060659757,0.00099630391152608,-0.0011213439655317,0.0011213409983074,-0.0011213427685626,0.0011213424390108,-0.00099630503036305,0.00099630490925316,-2.8763136836465e-09,2.3737215946994e-09,-0.00065161035279957,0.00065160985041451,-9.9482448146408e-10,4.8940310182669e-10,-0.00047899442810426,0.00047899026480292,-0.00056550428901205,0.00056550698882067,-0.00056550602350479,0.00056550523620214,-0.00047899076938678,0.00047899393201899,-0.00047899595156173,0.00047898883303104,-0.00056550573411908,0.00056550550858069,-0.00056550750338096,0.00056550378349829,-0.0008142025936072,0.0008141998491374,-0.00081420208829935,0.00081420033307179,-0.00081420083698874,0.0008142015956796,-0.00081420034695451,0.00081420209287635,-0.00074729493322361,0.00074730006139567,-0.00074730007124682,0.00074729491528873,-0.00074730059208901,0.00074729444480124,-0.0007472954140896,0.00074729955619336,-0.00047898932589626,0.00047899541860617,0.75071314929021,129794,2964,0.0029502749267513,0.0045182451247257,0.0027122098073236,22.482041241062,-6.0143670071506e-05,-6.0143670071506e-05,-6.0143670071506e-05,3743217.7763514,0.010233383452207
27791759,0.60538488544951,0.010724744906044,0.0032988057062754,0.0042650895210223,0.0031608496787468,-0.0007197517763688,0.00071974966359492,1.6149134752077e-09,-3.7136408174104e-09,-4.2087888561542e-10,-1.7870971465265e-09,-0.0003305027079333,0.00033049393603685,-0.00046311104619188,0.00046310927541504,-0.0004631128228687,0.00046310749873409,-0.00033049609339208,0.00033050053147255,-0.00033050132308671,0.00033049533190508,-0.00046310969964783,0.00046311059961605,-0.00046311146575682,0.00046310881533008,-0.00090474440183951,0.00090474457070854,-0.0009047461793486,0.00090474279508436,-0.00090474489674779,0.0009047441242981,-0.00090474667453943,0.000904742349092,-0.00082454762732073,0.00082455030055204,-0.00082455285640615,0.00082454509025601,-0.00082454714638298,0.00082455076745132,-0.00082455236989786,0.00082454555224814,-0.00033049751696234,0.00033049917460899,-1.3230569596945e-09,1.2304387882926e-10,1.6427845063036e-10,-1.3252485290745e-09,-0.0011061861465624,0.0011061849842664,-0.0010135172350521,0.0010135141294978,-0.0011399544477733,0.0011399523586791,-0.0011399531656874,0.0011399538751099,-0.0010838246627038,0.0010838235070849,-0.0010838251397251,0.0010838230131379,-0.0010838241951728,0.0010838240196262,-0.0010838246727897,0.0010838235277024,-0.0010135153134717,0.0010135160965293,-0.0010135167811603,0.0010135146303844,-0.0011399549360865,0.0011399518648975,-0.0011399536594487,0.0011399533914131,-0.0010135157692796,0.0010135156030368,-2.922833807825e-09,2.408591162958e-09,-0.00066074170621046,0.0006607411919425,-1.0023056258045e-09,4.8431903186121e-10,-0.00048534745035813,0.00048534319575658,-0.00057317953655457,0.0005731822538739,-0.00057318129856469,0.00057318047311541,-0.00048534371185269,0.00048534693831629,-0.00048534897311058,0.00048534176444008,-0.00057318098401407,0.00057318077007463,-0.00057318278027232,0.00057317901916269,-0.00082679770410403,0.00082679492014812,-0.00082679719705273,0.0008267954042899,-0.00082679591974092,0.000826796692821,-0.00082679542848227,0.00082679719170644,-0.00075905490648358,0.00075906010436292,-0.00075906012475273,0.00075905487792733,-0.00075906064749203,0.00075905440938996,-0.00075905538782463,0.00075905959712037,-0.00048534226641088,0.00048534842965857,0.76134594242195,129794,2964,0.0029959948129062,0.004597825109548,0.0027502003304883,22.748062542649,-5.8015499658811e-05,-5.8015499658811e-05,-5.8015499658811e-05,3744770.4351004,0.010398380517692
27991759,0.61447243727296,0.010890427518096,0.0033482115700062,0.0043364434684859,0.003205772479604,-0.00073090142210504,0.00073089926375027,1.6328717025962e-09,-3.7762980489221e-09,-4.1456914799122e-10,-1.842583855681e-09,-0.00033439582767719,0.00033438686621512,-0.00047075898587327,0.00047075713282236,-0.00047076078930235,0.00047075532940747,-0.00033438907160832,0.00033439360401966,-0.00033439438007912,0.00033438832587965,-0.0004707575805763,0.00047075851785375,-0.00047075937314058,0.00047075670657882,-0.00091933999479322,0.00091934016758446,-0.00091934179911597,0.00091933836492032,-0.00091934051241681,0.00091933970041648,-0.00091934231707317,0.00091933789823821,-0.00083821163394401,0.0008382143201882,-0.00083821694192766,0.00083820903073693,-0.00083821113019231,0.00083821480844433,-0.00083821643241588,0.00083820951395994,-0.00033439055845586,0.00033439218392735,-1.3646992541393e-09,1.451114440222e-10,1.614232272268e-10,-1.3424584124815e-09,-0.0011256716914814,0.0011256705096013,-0.001031016385666,0.0010310132236392,-0.0011588560924965,0.0011588539308797,-0.0011588547553187,0.0011588555114158,-0.0011033942026641,0.0011033930113101,-0.0011033946848966,0.0011033925129377,-0.0011033937159982,0.0011033935464653,-0.0011033941988443,0.001103393050094,-0.001031014427788,0.0010310152264032,-0.001031015910278,0.0010310137466103,-0.0011588565859856,0.00115885343275,-0.0011588552539529,0.0011588550230772,-0.0010310149048076,0.00103101471091,-2.9685087633872e-09,2.4436087902524e-09,-0.00066996175211321,0.00066996122699716,-1.0155544070991e-09,4.8593405031257e-10,-0.00049175954260027,0.00049175521257667,-0.00058104285479357,0.0005810456018427,-0.00058104464353108,0.0005810437942846,-0.00049175573840828,0.00049175901798719,-0.00049176107933323,0.00049175376641012,-0.00058104431611711,0.00058104410296933,-0.00058104613968498,0.00058104232573705,-0.00083947990266588,0.00083947707628976,-0.00083947938975542,0.00083947756449174,-0.00083947809073533,0.00083947887526243,-0.00083947759452645,0.0008394793791315,-0.00077100574652163,0.00077101101810069,-0.00077101104383865,0.00077100571241936,-0.00077101157323239,0.00077100524093102,-0.00077100623273292,0.00077101050576915,-0.00049175427947483,0.0004917605246468,0.7728893937648,129794,2964,0.0030423790749932,0.0046785815450417,0.0027885593168947,23.014015727836,-5.5887874177314e-05,-5.5887874177314e-05,-5.5887874177314e-05,3744489.4715571,0.010565636900821
28191759,0.62355036338803,0.011058636679856,0.0033983149082598,0.004408948497999,0.0032513732735972,-0.00074207789912247,0.00074207570219531,1.6552931513128e-09,-3.8362976124472e-09,-4.1827817335951e-10,-1.8800065932067e-09,-0.00033826612420941,0.00033825700452713,-0.00047848301407777,0.00047848111473171,-0.00047848484560999,0.00047847928491985,-0.00033825925364625,0.00033826385934189,-0.00033826463832337,0.00033825850380174,-0.00047848158005622,0.00047848253343996,-0.00047848339811274,0.00047848069642535,-0.00093393494590442,0.00093393511959085,-0.00093393677759742,0.00093393328967606,-0.00093393547534571,0.00093393464115219,-0.00093393730795291,0.00093393281101791,-0.00085199565704377,0.00085199837464669,-0.0008520010452134,0.00085199300294722,-0.00085199513955565,0.00085199887436116,-0.00085200052000327,0.00085199349884079,-0.00033826077377827,0.00033826240551906,-1.3869260310088e-09,1.7053899849257e-10,1.669003608159e-10,-1.3478838638636e-09,-0.0011452857325344,0.0011452845515846,-0.0010486454517372,0.0010486422625218,-0.001177873896799,0.0011778716983901,-0.0011778725171105,0.0011778733284601,-0.0011230624808734,0.0011230612768837,-0.0011230629668072,0.0011230607760541,-0.0011230619791645,0.0011230618297925,-0.001123062466117,0.0011230613293916,-0.0010486434635115,0.0010486442914087,-0.0010486449585014,0.0010486427986048,-0.0011778743952169,0.0011778711986404,-0.0011778730200856,0.001177872832251,-0.0010486439587533,0.00104864375749,-3.0136302225789e-09,2.477018260616e-09,-0.00067913478216999,0.00067913424493934,-1.0310285794841e-09,4.8843250991971e-10,-0.00049811288955334,0.00049810849090091,-0.00058895504729618,0.00058895782478917,-0.00058895686199766,0.00058895599071747,-0.00049810902234206,0.00049811235117716,-0.00049811444324922,0.00049810702242111,-0.00058895652503347,0.0005889563083637,-0.00058895837633833,0.00058895450266271,-0.00085213456404941,0.00085213169277382,-0.00085213404399128,0.00085213218670972,-0.00085213272507966,0.00085213351804757,-0.00085213222318432,0.00085213402762529,-0.00078299188915717,0.00078299723067583,-0.00078299726297632,0.00078299185122507,-0.0007829978015497,0.00078299137531214,-0.00078299237932586,0.0007829967139098,-0.000498107552318,0.00049811387268918,0.78542227517191,129794,2964,0.0030888759392912,0.0047598616537674,0.0028267227678725,23.224080698204,-5.4207354414367e-05,-5.4207354414367e-05,-5.4207354414367e-05,3741286.6276375,0.010733366113692
28391759,0.632601009877,0.011229272636383,0.003449088890914,0.0044825650218511,0.0032976187236182,-0.00075333138746643,0.00075332917035257,1.6857603445022e-09,-3.8865855056865e-09,-4.4141098996196e-10,-1.8792476723912e-09,-0.0003421969912194,0.00034218779191175,-0.00048633905252648,0.00048633718320365,-0.00048634091081244,0.00048633532506587,-0.00034219006374585,0.00034219470466998,-0.00034219552839543,0.0003421892706276,-0.00048633764507036,0.00048633857840317,-0.00048633948996154,0.0004863367137674,-0.00094859351584084,0.00094859368963831,-0.00094859537424092,0.00094859183265654,-0.0009485940379327,0.00094859321854495,-0.00094859589748049,0.00094859136139322,-0.00086595419965017,0.00086595698347016,-0.00086595966789822,0.00086595153259393,-0.00086595368823582,0.00086595747608743,-0.00086595914902862,0.00086595202192905,-0.00034219156181461,0.00034219327301814,-1.3758799206364e-09,1.5728399253787e-10,1.8284902807668e-10,-1.3678809912666e-09,-0.0011650984342339,0.0011650972499628,-0.0010664847626882,0.0010664815404437,-0.0011971067804643,0.0011971046201295,-0.0011971054304449,0.001197106225496,-0.0011428902822718,0.0011428890947945,-0.0011428907804055,0.001142888582045,-0.0011428897892981,0.0011428896405287,-0.0011428902884422,0.0011428891285544,-0.0010664827462666,0.0010664835982313,-0.0010664842770994,0.0010664820714458,-0.0011971072901989,0.0011971041082563,-0.0011971059461754,0.0011971057199067,-0.0010664832350851,0.0010664830714048,-3.0573427289198e-09,2.5141633397122e-09,-0.00068831290460721,0.00068831236075877,-1.0527293309473e-09,5.0300813229289e-10,-0.00050441569303052,0.00050441124494329,-0.00059695875814224,0.00059696159027178,-0.00059696059905771,0.00059695973060192,-0.00050441178367153,0.0005044151495973,-0.00050441728263787,0.00050440973982217,-0.00059696027070691,0.00059696003833368,-0.0005969621482413,0.00059695820658591,-0.00086481342410904,0.00086481050792625,-0.00086481289091404,0.0008648110131287,-0.00086481155759117,0.00086481235932723,-0.00086481104351877,0.00086481288107068,-0.00079506322630769,0.00079506865327051,-0.00079506867869524,0.00079506319268116,-0.0007950692313639,0.0007950627055734,-0.00079506372943313,0.00079506812367693,-0.00050441027678443,0.00050441670734193,0.79903791301024,129794,2964,0.0031356939692665,0.0048419562296378,0.0028649073223545,23.414987108305,-5.2680103133557e-05,-5.2680103133557e-05,-5.2680103133557e-05,3735413.0566118,0.010902292242397
28591759,0.64161791631065,0.011401179063635,0.0035002214882954,0.0045567848344922,0.0033441727408475,-0.00076462342664705,0.00076462120130113,1.7218306971365e-09,-3.9306248741376e-09,-4.7862619707763e-10,-1.8512878113546e-09,-0.00034608420556855,0.00034607498276362,-0.00049421847377859,0.00049421668623753,-0.00049422035830818,0.00049421480184265,-0.00034607726358444,0.0003460819110346,-0.00034608280712703,0.00034607639776003,-0.00049421713174027,0.00049421801757881,-0.0004942190034137,0.00049421612601841,-0.0009633106265892,0.00096331079823754,-0.00096331251186895,0.00096330891433067,-0.00096331112834127,0.00096331034847505,-0.00096331301459135,0.00096330846461621,-0.00088001422181027,0.0008800170966239,-0.0008800197681204,0.00088001156751014,-0.00088001372945879,0.00088001756866992,-0.00088001926904648,0.00088001203547815,-0.00034607869901475,0.00034608054178732,-1.3472756643003e-09,1.1795774953606e-10,2.0564633491769e-10,-1.4019122906558e-09,-0.0011850849779536,0.001185083782812,-0.0010844676730431,0.0010844644046843,-0.0012165351487263,0.0012165330674021,-0.0012165338690388,0.0012165346043405,-0.0011628495685407,0.0011628484107832,-0.0011628500853208,0.0011628478792852,-0.0011628490977549,0.0011628489346038,-0.0011628496153737,0.0011628484040446,-0.0010844656218648,0.0010844664965676,-0.0010844672079715,0.0010844649137281,-0.001216535677925,0.0012165325365442,-0.0012165344032713,0.0012165340802057,-0.0010844660894457,0.0010844659922322,-3.0989058675492e-09,2.5537810029198e-09,-0.00069747569778425,0.00069747515195178,-1.0814878283388e-09,5.2963798968217e-10,-0.00051059344472726,0.00051058896928579,-0.00060496719030255,0.00060497010206341,-0.00060496905831061,0.00060496821508501,-0.00051058951010077,0.00051059289783812,-0.00051059508595021,0.00051058740892348,-0.00060496875763504,0.00060496849540548,-0.00060497066127139,0.00060496663648105,-0.00087752362399468,0.00087752066059917,-0.00087752307186508,0.0008775211835046,-0.00087752173026164,0.00087752253871561,-0.00087752119758231,0.00087752307889505,-0.00080718378787606,0.00080718931119452,-0.00080718932027949,0.00080718377089199,-0.00080718989247526,0.00080718326722327,-0.0008071843096081,0.00080718876275932,-0.00051058794818711,0.00051059451121617,0.80787521755353,129794,2964,0.0031826732865896,0.0049247628374526,0.0029030283815884,23.605381926154,-5.1156944590768e-05,-5.1156944590768e-05,-5.1156944590768e-05,3727651.5168777,0.01107206569702
28791759,0.65059490062233,0.011568228713055,0.0035500484641048,0.0046288802214265,0.0033893000275237,-0.00077563925598222,0.00077563703007191,1.7617001719749e-09,-3.9709680208292e-09,-5.1845177900697e-10,-1.8124073839044e-09,-0.00034947837795108,0.00034946915286297,-0.0005015382900308,0.00050153660603524,-0.00050154020098079,0.0005015346951332,-0.00034947143489678,0.00034947608251734,-0.00034947705760926,0.00034947049084644,-0.00050153702652485,0.00050153785988835,-0.00050153892500923,0.000501535941637,-0.00097784569445555,0.00097784586706537,-0.00097784760661247,0.00097784395633667,-0.00097784617193282,0.00097784544342359,-0.0009778480849202,0.00097784353277826,-0.00089363371947123,0.00089363669785076,-0.00089363934442131,0.00089363109045616,-0.00089363325145024,0.00089363714438591,-0.00089363886976509,0.00089363153232794,-0.00034947279396546,0.00034947479042066,-1.3151317899207e-09,7.0138175622835e-11,2.3201890077964e-10,-1.4439934420026e-09,-0.0012047855610544,0.0012047843505419,-0.0011019641758854,0.0011019608496407,-0.0012357276007746,0.0012357256089819,-0.0012357264022464,0.0012357270652202,-0.0011825605765285,0.0011825594518231,-0.0011825611155004,0.0011825588977103,-0.0011825601317034,0.0011825599495087,-0.0011825606714356,0.0011825593963773,-0.0011019620827324,0.0011019629832384,-0.0011019637354336,0.0011019613323236,-0.0012357281528236,0.0012357250554042,-0.0012357269587893,0.0012357265184642,-0.0011019625251048,0.0011019625055358,-3.1377575250493e-09,2.596010106732e-09,-0.00070636747085958,0.00070636692843765,-1.1134251215248e-09,5.6521814024402e-10,-0.00051618488548364,0.00051618040106941,-0.00061248715365489,0.00061249016248554,-0.00061248904864025,0.00061248824850266,-0.00051618093854844,0.00051618434188198,-0.00051618659134053,0.00051617877276137,-0.0006124887877021,0.00061248848945428,-0.00061249071740153,0.00061248660307906,-0.00089006789701536,0.00089006488752347,-0.00089006732184889,0.00089006543227276,-0.00089006597610461,0.00089006679247411,-0.00089006542074883,0.00089006735503898,-0.00081896395169741,0.00081896958032577,-0.00081896956378597,0.00081896396045919,-0.00081897015927889,0.00081896343572117,-0.00081896449613305,0.00081896900945138,-0.00051617930931535,0.00051618602216888,0.78846824298966,129794,2964,0.003228505652472,0.0050063770769746,0.0029400234286595,23.795755907515,-4.9633952739878e-05,-4.9633952739878e-05,-4.9633952739878e-05,3720786.0225646,0.011238365871427
28991759,0.65958864796213,0.011728473431886,0.003598090535164,0.0046979093223001,0.0034324735744223,-0.00078655166856553,0.00078654942782742,1.7936458194691e-09,-4.0176313389734e-09,-6.0435457508846e-10,-1.7417307604679e-09,-0.00035275373114648,0.0003527445751424,-0.00050844435546297,0.00050844283457943,-0.00050844628913066,0.00050844089889027,-0.00035274686963401,0.00035275142598202,-0.00035275256788824,0.00035274575713451,-0.00050844324449092,0.00050844393584617,-0.00050844516807281,0.00050844198998199,-0.0009923473677924,0.00099234750086279,-0.00099234930667872,0.00099234556372333,-0.00099234779544447,0.00099234712926593,-0.00099234973432998,0.00099234519276443,-0.00090684834121803,0.00090685143194939,-0.00090685404426728,0.0009068457489958,-0.00090684792370315,0.00090685182773818,-0.00090685362163837,0.00090684613831471,-0.00035274807597389,0.00035275028103973,-1.2467504028663e-09,-2.8216296129169e-11,2.8110348214334e-10,-1.5206496201538e-09,-0.001224154401528,0.0012241531622645,-0.0011188048161979,0.001118801393569,-0.0012545416161347,0.0012545398033902,-0.001254540584045,0.0012545410939243,-0.0012021243942028,0.0012021233365375,-0.0012021249747327,0.0012021227411122,-0.0012021240047317,0.0012021237789713,-0.0012021245851302,0.0012021231847291,-0.0011188026644809,0.0011188036041103,-0.0011188044325422,0.0011188018253289,-0.0012545422139537,0.0012545392106603,-0.0012545411812843,0.0012545405054075,-0.0011188030467358,0.0011188031815335,-3.1788048511571e-09,2.6377039382788e-09,-0.0007152174122748,0.0007152168709996,-1.1714561183491e-09,6.266479726117e-10,-0.00052151541054099,0.00052151096513568,-0.00061974207882156,0.00061974523805766,-0.00061974400311233,0.0006197432990398,-0.00052151149924243,0.00052151487132639,-0.00052151723634283,0.00052150922533336,-0.00061974383266466,0.00061974344940151,-0.00061974579171674,0.00061974153916527,-0.00090262032403221,0.00090261724780374,-0.00090261970869988,0.00090261783146421,-0.00090261837550136,0.00090261917978546,-0.00090261777969331,0.00090261978235901,-0.00083047015911152,0.00083047590969841,-0.00083047585332664,0.00083047020599363,-0.0008304764870316,0.00083046964281348,-0.00083047074429562,0.00083047529774467,-0.00052150974863498,0.00052151666827459,0.75490318750452,129794,2964,0.0032739058266002,0.0050866104543802,0.0029768435624259,24.096317150379,-4.7229462796969e-05,-4.7229462796969e-05,-4.7229462796969e-05,3722553.5370212,0.011402685156619
29191759,0.66860097359545,0.011885345416543,0.003645284391479,0.0047653544823289,0.0034747065427354,-0.00079738365199269,0.00079738140703289,1.8327970825425e-09,-4.0607047971088e-09,-6.8041053238117e-10,-1.6710771041092e-09,-0.00035614894265235,0.00035613983771242,-0.00051518204844914,0.00051518069579307,-0.0005151840118292,0.00051517873157445,-0.00035614213942567,0.00035614662736298,-0.00035614792018787,0.00035614087923663,-0.00051518108552029,0.00051518165200635,-0.00051518303734998,0.00051517968029156,-0.0010067371981103,0.0010067373061426,-0.0010067391641929,0.001006735342009,-0.001006737578092,0.001006736983713,-0.0010067395446755,0.0010067350195048,-0.00091979297288909,0.00091979618849331,-0.00091979875640275,0.00091979042431703,-0.00091979260172909,0.00091979653547039,-0.00091979837761909,0.00091979076557365,-0.00035614320286444,0.00035614563113676,-1.1905375548949e-09,-1.0950041399744e-10,3.2278011828895e-10,-1.589657995635e-09,-0.0012431635595059,0.0012431622946225,-0.0011351108302311,0.0011351073153686,-0.0012728959397732,0.0012728942793905,-0.0012728950472569,0.0012728954337671,-0.0012215084397389,0.0012215074384977,-0.0012215090556596,0.0012215068060106,-0.001221508096143,0.0012215078362289,-0.0012215087127527,0.0012215072047091,-0.0011351086072552,0.001135109585001,-0.0011351104893028,0.0011351076991146,-0.0012728965704009,0.0012728936480865,-0.0012728956810607,0.001272894808206,-0.001135108948661,0.0011351092074614,-3.2092017556499e-09,2.6862911282676e-09,-0.00072407116404906,0.00072407064086547,-1.2198995141517e-09,6.9282241440614e-10,-0.00052698482335204,0.0005269804320061,-0.00062695925973555,0.00062696257342283,-0.00062696120893322,0.00062696060683654,-0.00052698094801963,0.00052698429915866,-0.00052698675760351,0.0005269785711851,-0.00062696112458358,0.00062696067092788,-0.00062696310790533,0.00062695873102893,-0.00091509124803244,0.00091508812510018,-0.00091509059333216,0.00091508874633829,-0.00091508927246913,0.00091509008345225,-0.00091508863852447,0.00091509072369485,-0.00084174040558255,0.00084174628938324,-0.00084174617597841,0.00084174050979567,-0.00084174685148991,0.00084173991045975,-0.00084174102820643,0.000841745640638,-0.00052697908764386,0.00052698620979674,0.73755731255711,129794,2964,0.0033189670386531,0.0051653473957626,0.0030136775971942,24.414652445105,-4.468278043916e-05,-4.468278043916e-05,-4.468278043916e-05,3732451.8416326,0.011565188705702
29391759,0.67762339256268,0.012034825248311,0.0036904955745904,0.0048294750117829,0.0035148546619376,-0.00080781964818393,0.00080781740506215,1.8739709956489e-09,-4.0999785194706e-09,-7.1886055495055e-10,-1.6308682219482e-09,-0.00035901570168982,0.00035900659651391,-0.00052113889358488,0.00052113764787651,-0.00052114088359476,0.00052113565707176,-0.00035900889720048,0.00035901338835963,-0.00035901475733672,0.00035900756153791,-0.00052113801152561,0.00052113852769463,-0.00052113998993635,0.00052113652892906,-0.0010208182827337,0.001020818392853,-0.0010208202756152,0.0010208164016643,-0.0010208186363523,0.0010208180961316,-0.001020820629725,0.0010208161050454,-0.00093209023301895,0.00093209355350156,-0.00093209609543226,0.00093208771097883,-0.00093208988469747,0.00093209387543039,-0.00093209573942155,0.00093208802624175,-0.00035900988389799,0.0003590124683658,-1.1586474218813e-09,-1.5820477963273e-10,3.6049359255791e-10,-1.6468165661141e-09,-0.0012616179487131,0.0012616166653822,-0.0011506179595777,0.0011506143562001,-0.0012906994819074,0.0012906979209759,-0.0012906986715631,0.0012906989932565,-0.0012404425162211,0.0012404415535247,-0.0012404431635373,0.0012404408893475,-0.0012404421982278,0.0012404419249654,-0.0012404428460863,0.0012404412618912,-0.0011506156671516,0.0011506166931791,-0.001150617642712,0.0011506147140772,-0.0012907001443975,0.0012906972580959,-0.0012906993370177,0.0012906983363108,-0.0011506159843745,0.0011506163414359,-3.2476704090784e-09,2.7286409182459e-09,-0.00073262755698266,0.00073262703766326,-1.2650321581966e-09,7.4203286270457e-10,-0.00053189280684993,0.00053188843303935,-0.00063360064507307,0.00063360408224315,-0.00063360262128852,0.0006336020887763,-0.00053188894449313,0.00053189228598326,-0.00053189483040905,0.00053188647735194,-0.00063360260263469,0.00063360208681397,-0.00063360461165623,0.00063360011920366,-0.00092729959205464,0.00092729641461768,-0.00092729890476754,0.00092729706631627,-0.00092729758917609,0.00092729839954286,-0.00092729692328062,0.00092729907106281,-0.0008524630005685,0.00085246899873248,-0.00085246884923894,0.00085246313907512,-0.00085246955865083,0.00085246251083497,-0.00085246365479739,0.00085246831868572,-0.0005318869912381,0.00053189428893131,0.70228482403917,129794,2964,0.0033623803513512,0.0052417813622554,0.003049275464968,24.733484932828,-4.2132120537373e-05,-4.2132120537373e-05,-4.2132120537373e-05,3747527.5492152,0.011722473192124
29591759,0.68664690308707,0.012178084804175,0.0037340380731493,0.004890769062555,0.003553277668471,-0.00081789792540449,0.00081789567210146,1.9093556369959e-09,-4.1451944141266e-09,-7.283079806323e-10,-1.6324957592722e-09,-0.00036163888305539,0.00036162969545654,-0.00052644935926492,0.00052644813912887,-0.00052645137600466,0.00052644612150796,-0.00036163200698182,0.00036163655875461,-0.00036163794644258,0.00036163065375559,-0.00052644848922062,0.0005264490103115,-0.0005264504948174,0.00052644698521273,-0.0010345697453036,0.0010345698708184,-0.0010345717651685,0.0010345678527832,-0.001034570098591,0.0010345695764989,-0.001034572118839,0.0010345675584308,-0.00094384057146607,0.00094384395967242,-0.0009438465134388,0.00094383803886249,-0.00094384021943823,0.00094384428110736,-0.00094384615309653,0.00094383835273867,-0.00036163298662362,0.00036163564614921,-1.1854950724099e-09,-1.9256351308524e-10,3.6649890112191e-10,-1.714391304709e-09,-0.0012795809230145,0.001279579579237,-0.0011655142301586,0.0011655104929295,-0.0013079574537668,0.0013079558765536,-0.0013079566597699,0.0013079569359618,-0.0012589739123863,0.0012589729147265,-0.0012589745832737,0.0012589722259853,-0.0012589735968373,0.0012589732848455,-0.0012589742682591,0.0012589725972069,-0.0011655118669559,0.0011655129021085,-0.0011655139138319,0.0011655108497418,-0.0013079581401702,0.0013079551891437,-0.0013079573490403,0.0013079562543728,-0.0011655121835448,0.0011655125513459,-3.2796494862241e-09,2.7773219283686e-09,-0.00074093352141133,0.0007409330189626,-1.2923858022003e-09,7.8740316297313e-10,-0.00053633317679978,0.00053632881397878,-0.00063973549942457,0.000639739052644,-0.00063973750248637,0.0006397370325227,-0.00053632930617267,0.00053633267182449,-0.00053633527031987,0.00053632678423929,-0.00063973752829373,0.00063973698520436,-0.00063973956390171,0.00063973499063208,-0.00093925475422688,0.00093925154222044,-0.00093925404084688,0.0009392522163957,-0.00093925272376658,0.00093925355335474,-0.00093925203287947,0.00093925424861447,-0.00086267201546317,0.00086267813314574,-0.00086267794026237,0.00086267219164784,-0.00086267867918266,0.00086267154467414,-0.00086267269308358,0.00086267742832878,-0.00053632728230234,0.00053633474812175,0.67337837418969,129794,2964,0.0034043037719316,0.0053161757134851,0.0030838315137081,25.052214414828,-3.9582284681373e-05,-3.9582284681373e-05,-3.9582284681373e-05,3769042.2997275,0.011875158113663
29791759,0.69562532708274,0.012328184151553,0.0037794958680963,0.0049549213928253,0.0035937668906318,-0.00082816343779739,0.0008281611476275,1.931584277985e-09,-4.2036144448465e-09,-6.9593586493115e-10,-1.7049859562464e-09,-0.00036493836673891,0.00036492895587858,-0.00053238416522994,0.00053238283178502,-0.00053238620887903,0.00053238078753216,-0.00036493130693846,0.00036493600394975,-0.00036493732598027,0.00036493002074937,-0.00053238319988496,0.00053238380770216,-0.00053238523226748,0.00053238175587484,-0.0010482994345175,0.0010482995867292,-0.0010483014812335,0.0010482975417222,-0.0010482998235872,0.0010482992566471,-0.0010483018706849,0.0010482972115722,-0.00095611961051914,0.00095612300354596,-0.0009561256320646,0.00095611700425022,-0.00095611921672829,0.00095612336184979,-0.00095612522939628,0.00095611735415934,-0.0003649323914745,0.00036493498524237,-1.2512558339343e-09,-1.5544463082286e-10,3.6167664500103e-10,-1.7444890876569e-09,-0.0012977840961975,0.0012977827196666,-0.0011809289505815,0.0011809251141334,-0.0013253737857195,0.0013253720994093,-0.0013253729016819,0.0013253732574291,-0.0012776523632666,0.0012776513051467,-0.0012776530421832,0.0012776506080373,-0.0012776520148937,0.0012776517118426,-0.0012776526943585,0.0012776510159662,-0.0011809265230614,0.0011809275848764,-0.0011809285963848,0.0011809255085456,-0.0013253744806107,0.0013253714035086,-0.0013253735992195,0.0013253725673986,-0.0011809268775081,0.001180927196432,-3.3189594462381e-09,2.8187045722749e-09,-0.00074943302906678,0.00074943252868096,-1.3039351398493e-09,8.0081121674359e-10,-0.00054153799080855,0.00054153357521608,-0.00064642727416254,0.00064643088042953,-0.00064642930432786,0.0006464288336246,-0.00054153406383523,0.00054153748512538,-0.00054154010399188,0.00054153151655906,-0.00064642932716025,0.00064642878750678,-0.00064643138850377,0.00064642676521889,-0.00095119294320546,0.00095118969793179,-0.00095119221768228,0.00095119037693991,-0.00095119088383419,0.00095119173408428,-0.00095119018488294,0.00095119243802012,-0.00087312130266211,0.00087312751028652,-0.00087312730407539,0.0008731214870497,-0.00087312805813294,0.00087312083786909,-0.00087312198871557,0.00087312679637575,-0.00054153201562047,0.00054153958645076,0.70917941643623,129794,2964,0.0034470017993931,0.0053915581088096,0.0031191897508372,25.304816761532,-3.756146590774e-05,-3.756146590774e-05,-3.756146590774e-05,3788133.9320915,0.012030457524952
29991759,0.70455004541252,0.012485257574355,0.0038268616452401,0.0050220831424737,0.0036363127866416,-0.00083871853557204,0.00083871618795138,1.9438175640607e-09,-4.2719486524011e-09,-6.673268325351e-10,-1.7957273941872e-09,-0.00036839724349369,0.00036838757360277,-0.00053891598852957,0.00053891450616848,-0.0005389180587613,0.00053891243509563,-0.00036838998573827,0.00036839482273452,-0.00036839608289268,0.00036838876022492,-0.00053891491587777,0.00053891560129771,-0.00053891697465687,0.00053891352234882,-0.0010622686357466,0.0010622688018287,-0.0010622707093029,0.0010622667298632,-0.0010622690693773,0.0010622684307682,-0.0010622711433238,0.0010622663587105,-0.00096908698784845,0.00096909035894546,-0.00096909308807765,0.00096908428069157,-0.00096908654523426,0.00096909075990379,-0.00096909263648212,0.00096908467284833,-0.00036839118947376,0.00036839368181167,-1.3227303017325e-09,-1.1082077397385e-10,3.5488089419111e-10,-1.7737860723463e-09,-0.0013165251837519,0.0013165237735199,-0.0011970672805904,0.0011970633406787,-0.0013434669012912,0.0013434650938595,-0.0013434659160257,0.0013434663648901,-0.0012966727926312,0.0012966716667166,-0.001296673479601,0.0012966709623768,-0.0012966724067256,0.0012966721157916,-0.001296673094206,0.0012966714125733,-0.00119706478685,0.0011970658770534,-0.0011970668833585,0.0011970637788659,-0.0013434676043269,0.001343464390908,-0.001343466621659,0.0013434656674515,-0.0011970651840673,0.0011970654446,-3.3635471638547e-09,2.8547832570664e-09,-0.00075812451973679,0.00075812401065422,-1.3201053322103e-09,8.0770187217768e-10,-0.00054726452439678,0.00054726004305088,-0.00065366998889604,0.0006536736351465,-0.00065367204664097,0.00065367156258707,-0.00054726053514703,0.00054726400495141,-0.00054726665326407,0.00054725795732755,-0.00065367206383803,0.00065367151897148,-0.0006536741519811,0.00065366946987879,-0.00096329785058292,0.00096329456206147,-0.00096329711340675,0.00096329524492563,-0.00096329576204419,0.00096329662303079,-0.00096329505539426,0.00096329733468408,-0.00088402306937772,0.00088402935563775,-0.00088402914710342,0.0008840232507289,-0.00088402991685792,0.00088402260159933,-0.00088402376250571,0.00088402863316775,-0.00054725846623939,0.00054726612849882,0.74657307848379,129794,2964,0.0034909052461972,0.0054691593820996,0.0031553468670214,25.555723254997,-3.5554213960025e-05,-3.5554213960025e-05,-3.5554213960025e-05,3795436.1730872,0.012190054201371
30191759,0.71341348370811,0.012631479448844,0.0038711523656721,0.0050846192480011,0.0036757078351711,-0.00084864723172371,0.00084864481304889,1.9493652571413e-09,-4.3469775029976e-09,-6.2340955906001e-10,-1.9160312800743e-09,-0.00037076627274146,0.00037075628952662,-0.00054427348060354,0.00054427178433884,-0.00054427557757194,0.00054426968654193,-0.00037075877272854,0.00037076377629005,-0.00037076494836962,0.00037075763473405,-0.00054427223374883,0.00054427303385073,-0.00054427431889999,0.00054427092775259,-0.0010758257830438,0.0010758259529485,-0.0010758278833731,0.0010758238539449,-0.001075826256793,0.0010758255293125,-0.0010758283576073,0.0010758234302835,-0.00098113855013698,0.00098114187523052,-0.00098114472935418,0.00098113571810398,-0.00098113804915853,0.00098114233122505,-0.00098114421913899,0.00098113616483881,-0.00037076014011833,0.00037076247648424,-1.4742071888058e-09,-7.6014147797904e-11,3.2475792423966e-10,-1.8351187648603e-09,-0.0013346061960606,0.0013346046903546,-0.0012121953712081,0.0012121912556081,-0.0013610560052844,0.0013610539256814,-0.0013610548518936,0.0013610553764271,-0.001315115960293,0.0013151146980694,-0.0013151166583178,0.0013151139835524,-0.0013151155223984,0.0013151152051363,-0.0013151162209259,0.0013151144917306,-0.0012121927914464,0.0012121938772086,-0.0012121949197838,0.0012121917494479,-0.0013610567191137,0.0013610532125893,-0.0013610555682599,0.001361054668704,-0.0012121932428024,0.0012121933890527,-3.4075176213669e-09,2.8914665907981e-09,-0.00076620901700992,0.00076620850047037,-1.3400381980231e-09,8.1949431227691e-10,-0.00055170709210261,0.00055170255493933,-0.00065995101353619,0.00065995470928011,-0.00065995309646146,0.00065995260840401,-0.00055170305346594,0.0005517065633746,-0.00055170925622816,0.00055170044336157,-0.00065995311914837,0.00065995256168647,-0.00065995523693866,0.00065995048874765,-0.00097504832999233,0.00097504499680742,-0.00097504758066617,0.00097504568863298,-0.0009750462131549,0.00097504708341715,-0.00097504549668227,0.00097504780623479,-0.00089422212154295,0.0008942284907255,-0.00089422827666026,0.00089422230502113,-0.00089422906226799,0.00089422165027052,-0.00089422282422244,0.00089422775614881,-0.00055170095688849,0.00055170872054206,0.7001917156127,129794,2964,0.0035322093634504,0.0055440202776372,0.0031889847719203,25.806561077728,-3.3547511378176e-05,-3.3547511378176e-05,-3.3547511378176e-05,3799887.458608,0.012341726601461
30391759,0.72221753103962,0.012771543724608,0.0039137291682013,0.0051444385985636,0.0037133759578429,-0.00085828466987802,0.00085828217982583,1.9547125605495e-09,-4.4221873656233e-09,-5.6559602297386e-10,-2.0506417010831e-09,-0.00037332790997871,0.00037331758319189,-0.00054924060786878,0.00054923867108166,-0.00054924273159599,0.00054923654634612,-0.00037332013788276,0.00037332533708729,-0.00037332639187525,0.00037331911688616,-0.00054923916435979,0.00054924010463107,-0.00054924127594596,0.00054923797152635,-0.0010890635092285,0.0010890637067733,-0.0010890656364201,0.0010890615808811,-0.0010890640602719,0.0010890632204937,-0.0010890661879543,0.0010890610944549,-0.00099266372210506,0.00099266699437449,-0.00099266998062893,0.000992660758441,-0.00099266315894543,0.00099266751399282,-0.00099266940771693,0.00099266126874102,-0.00037332169863663,0.00037332384930995,-1.6257763862356e-09,-1.8825508895464e-11,3.0727193265632e-10,-1.8956366803874e-09,-0.0013520867550749,0.0013520851686211,-0.0012266270811918,0.0012266227820419,-0.0013778442548361,0.0013778418974796,-0.001377842906425,0.0013778435548313,-0.0013331644978028,0.0013331631061107,-0.0013331652102889,0.0013331623774179,-0.0013331639981196,0.001333163681591,-0.0013331647111981,0.0013331629540144,-0.0012266243954314,0.0012266255109036,-0.0012266265660109,0.0012266233408636,-0.0013778449829921,0.001377841170414,-0.0013778436373438,0.0013778428329287,-0.0012266249105459,0.0012266249576778,-3.4475489496615e-09,2.9320889106964e-09,-0.00077410267388957,0.00077410215792088,-1.3614589572347e-09,8.414912395924e-10,-0.00055586467646391,0.00055586010422898,-0.00066591348647155,0.00066591725194989,-0.00066591559470101,0.00066591512320169,-0.00055586060229747,0.00055586414922012,-0.00055586689166381,0.00055585795793324,-0.00066591563400666,0.00066591506123314,-0.00066591778148995,0.00066591296432374,-0.00098654487253811,0.00098654149859198,-0.00098654410832041,0.00098654220444978,-0.00098654272801738,0.00098654361153074,-0.00098654199791453,0.00098654434944171,-0.00090397693960599,0.00090398340313291,-0.00090398317609036,0.00090397714066508,-0.00090398397375294,0.00090397646876926,-0.00090397765658437,0.00090398265360171,-0.00055585846567786,0.00055586635104545,0.67548311461354,129794,2964,0.0035722983707768,0.0056163892202805,0.0032218273362177,26.074919706187,-3.1400642350502e-05,-3.1400642350502e-05,-3.1400642350502e-05,3814825.588324,0.012488863287283
30591759,0.73102121401576,0.012916414458505,0.003957676304237,0.005206239372291,0.003752498781977,-0.00086836705531184,0.00086836450962755,1.9678478706278e-09,-4.4896214849101e-09,-5.512135930384e-10,-2.1250269880165e-09,-0.00037661157353552,0.00037660101894726,-0.00055491368024996,0.00055491162280917,-0.00055491583060782,0.00055490947130187,-0.00037660362951418,0.00037660894117864,-0.0003766099628373,0.00037660264229409,-0.00055491214914968,0.00055491314243518,-0.00055491428731836,0.00055491098228678,-0.001102650204257,0.001102650406696,-0.0011026523584303,0.0011026482539596,-0.0011026507898904,0.0011026498911133,-0.0011026529444634,0.0011026477381682,-0.0010048569692329,0.001004860238012,-0.001004863307021,0.0010048539235065,-0.0010048563776749,0.0010048607875286,-0.0010048627053911,0.0010048544632075,-0.00037660528379329,0.00037660736423571,-1.683944696469e-09,1.7095269712642e-11,3.4020740714356e-10,-1.9476670890449e-09,-0.0013700796331801,0.0013700780267001,-0.0012417570864169,0.0012417526545901,-0.0013950404343808,0.0013950379886596,-0.001395038997587,0.0013950397435785,-0.001351661479758,0.0013516600671445,-0.0013516622200725,0.0013516593102555,-0.0013516609531288,0.0013516606747973,-0.0013516616940218,0.0013516599190398,-0.0012417542876491,0.0012417554979349,-0.0012417565414353,0.0012417532437156,-0.0013950411908063,0.0013950372335452,-0.0013950397567093,0.0013950389935369,-0.0012417548323251,0.0012417549143601,-3.48473089908e-09,2.9755928635335e-09,-0.000782448084867,0.0007824475752721,-1.4003199798384e-09,8.8722013378622e-10,-0.00056082927020416,0.00056082470899494,-0.00067253353484479,0.00067253741712908,-0.00067253566914885,0.00067253526085091,-0.0005608252009265,0.00056082875032331,-0.00056083157540232,0.00056082248701752,-0.00067253576480503,0.00067253514216404,-0.00067253794123785,0.00067253302056973,-0.00099838142277053,0.00099837800010321,-0.00099838063027246,0.00099837873389659,-0.00099837925089985,0.00099838013960147,-0.00099837849308365,0.00099838090600207,-0.00091422832524653,0.00091423490230385,-0.0009142346432188,0.00091422856320955,-0.00091423546697149,0.00091422786098845,-0.00091422907051659,0.00091423412446693,-0.00056082298273123,0.00056083103640771,0.69870694595029,129794,2964,0.0036142327388849,0.0056908736068609,0.0032565450067672,26.468430413499,-2.8252556692005e-05,-2.8252556692005e-05,-2.8252556692005e-05,3832321.4521278,0.012641928240738
30791759,0.73981526360133,0.013066036896857,0.0040029443397921,0.0052700681760777,0.0037930243809869,-0.00087865288640285,0.00087865028308827,1.9800138481714e-09,-4.5580735526582e-09,-5.5682648608307e-10,-2.1816428656609e-09,-0.00037996702506167,0.00037995627899276,-0.00056094597689814,0.00056094383357751,-0.00056094815399376,0.00056094165544876,-0.00037995894821151,0.0003799643318159,-0.00037996536013704,0.00037995795405696,-0.00056094439528531,0.00056094540227829,-0.00056094655987506,0.00056094321507048,-0.0011164373747938,0.0011164375673884,-0.001116439555853,0.0011164353876838,-0.0011164379820088,0.0011164370349746,-0.0011164401634486,0.0011164348550559,-0.0010174531104238,0.0010174563852236,-0.0010174595266656,0.0010174499911287,-0.0010174525007567,0.0010174569521648,-0.0010174589077413,0.0010174505488809,-0.00037996065673321,0.00037996270262053,-1.7299177310243e-09,2.7554200545073e-11,3.6554152220374e-10,-2.005221452839e-09,-0.0013884876495102,0.0013884860102124,-0.0012574721748261,0.001257467611333,-0.0014127493541668,0.0014127468461804,-0.0014127478680567,0.001412748660991,-0.0013704230502449,0.0013704216156211,-0.0013704238179658,0.0013704208313068,-0.0013704225087335,0.0013704222430302,-0.0013704232769637,0.001370421459785,-0.0012574692756448,0.0012574705533249,-0.0012574716120041,0.0012574682183427,-0.0014127501384253,0.0014127460635147,-0.0014127486546832,0.0014127478831728,-0.0012574698381652,0.0012574699517523,-3.5246601265232e-09,3.0163178881178e-09,-0.00079092245260547,0.00079092194369859,-1.4415578539522e-09,9.2893497929397e-10,-0.00056607803531363,0.00056607347682148,-0.00067944643371461,0.00067945042423854,-0.00067944859426294,0.00067944824062091,-0.00056607396875485,0.00056607751571911,-0.00056608042614786,0.0005660711785888,-0.00067944874425009,0.00067944806672857,-0.00067945094888641,0.00067944592005698,-0.001010364170151,0.001010360693675,-0.0010103633494571,0.0010103614545796,-0.0010103619707792,0.0010103628595705,-0.0010103611856833,0.0010103636539578,-0.00092481292832771,0.00092481961359144,-0.0009248193274421,0.00092481319726948,-0.00092482017857489,0.0009248124664299,-0.0009248137014971,0.00092481880738189,-0.00056607167048138,0.00056607988449012,0.72242073311218,129794,2964,0.0036570141813825,0.0057670688355409,0.0032917995532354,26.865160592727,-2.5078715258186e-05,-2.5078715258186e-05,-2.5078715258186e-05,3841730.0846291,0.012798150398265
30991759,0.74858855012491,0.013220398911191,0.0040495167716736,0.0053359628424374,0.0038349192970801,-0.00088916205052045,0.00088915938605337,1.990398851152e-09,-4.628274943348e-09,-5.8186906007904e-10,-2.222731277394e-09,-0.00038358156073679,0.00038357065373786,-0.00056737019499294,0.00056736799631805,-0.00056737239883401,0.00056736579150028,-0.00038357338508611,0.00038357880324618,-0.00038357987520185,0.0003835723461489,-0.00056736859741212,0.00056736957972572,-0.0005673707882026,0.00056736736520887,-0.0011304451159727,0.0011304452831226,-0.0011304473238779,0.0011304430764494,-0.0011304457316538,0.0011304447454598,-0.0011304479399904,0.0011304425386042,-0.0010304295081981,0.0010304327971523,-0.0010304360027198,0.0010304263232333,-0.0010304288925211,0.0010304333691182,-0.0010304353789523,0.00103042688726,-0.00038357511358479,0.00038357715593381,-1.7605884475256e-09,1.9052074045745e-11,3.9054894619631e-10,-2.0658529240901e-09,-0.0014072849292253,0.0014072832537015,-0.0012737549813227,0.0012737502920842,-0.0014309336647723,0.0014309311269908,-0.0014309321640554,0.0014309329677627,-0.0013894561751141,0.001389454727691,-0.0013894569718326,0.001389453914766,-0.001389455629966,0.001389455363481,-0.0013894564271727,0.0013894545516119,-0.0012737519919691,0.0012737533246424,-0.0012737544134833,0.001273750906582,-0.0014309344782347,0.0014309303157583,-0.0014309329797917,0.0014309321612458,-0.0012737525595592,0.0012737527155099,-3.567405483112e-09,3.0542506962378e-09,-0.00079951381939316,0.0007995133055259,-1.4876818784317e-09,9.6956787951847e-10,-0.00057152470181647,0.00057152014356905,-0.00068664706512628,0.00068665116150222,-0.00068664925221766,0.00068664895092644,-0.00057152063972059,0.00057152417588008,-0.00057152718126021,0.0005715177658802,-0.00068664945952168,0.00068664871804696,-0.00068665169316516,0.00068664654697478,-0.0010224693371798,0.0010224658000916,-0.0010224684870149,0.0010224665892639,-0.0010224671101588,0.0010224679922589,-0.0010224662967235,0.0010224688159601,-0.00093572522884648,0.00093573201799375,-0.00093573170804746,0.00093572552352529,-0.00093573258875545,0.00093572476338122,-0.00093572603109505,0.0009357311818998,-0.00057151825873689,0.00057152663030853,0.74698825157155,129794,2964,0.0037007255381019,0.0058448668786706,0.0033275409769096,27.262021347709,-2.1903829218326e-05,-2.1903829218326e-05,-2.1903829218326e-05,3844145.9678056,0.012957454956673
31191759,0.75739778458783,0.013382452934882,0.0040982325514112,0.0054052380346989,0.0038789823487722,-0.00090029373840937,0.00090029102468026,2.0061914266114e-09,-4.6918309588436e-09,-6.6199995956153e-10,-2.195435505967e-09,-0.00038771463399618,0.00038770370627272,-0.00057457492769806,0.00057457280587508,-0.00057457715593088,0.00057457057591149,-0.00038770648360329,0.00038771183101516,-0.00038771305162879,0.00038770529110959,-0.00057457343409783,0.00057457428332024,-0.00057457565113434,0.00057457204052964,-0.0011450972992207,0.0011450974110769,-0.0011450995342808,0.0011450951777303,-0.0011450978828614,0.0011450969089621,-0.0011451001173113,0.0011450946760114,-0.0010442827990187,0.001044286152276,-0.0010442893696118,0.0010442796012334,-0.0010442822175172,0.0010442866908051,-0.0010442887814346,0.0010442801290459,-0.00038770811270906,0.00038771028212968,-1.728065972359e-09,-6.1188413230463e-11,4.3961357934221e-10,-2.1581888015599e-09,-0.0014270143165717,0.0014270125967328,-0.0012911368400623,0.0012911320064935,-0.0014501728232744,0.001450170399586,-0.0014501714394085,0.0014501721306004,-0.0014092659336551,0.0014092645273363,-0.0014092667781555,0.0014092636678628,-0.0014092654282398,0.0014092651264935,-0.0014092662722943,0.0014092642679747,-0.0012911337513207,0.0012911351408094,-0.0012911363090305,0.0012911325826525,-0.001450173686437,0.0014501695417344,-0.0014501723017378,0.0014501712770618,-0.0012911342787571,0.0012911345708552,-3.6097777232427e-09,3.0934728543513e-09,-0.00080858990565507,0.00080858938833179,-1.5578310564703e-09,1.0366521922422e-09,-0.00057759580684691,0.00057759129812699,-0.00069455012289656,0.0006945543784314,-0.00069455233775211,0.00069455214010474,-0.00057759179602255,0.00057759527309883,-0.00057759842114757,0.00057758879466706,-0.0006945526526885,0.00069455179903207,-0.00069455491508558,0.0006945496040817,-0.0010350870990004,0.0010350834852522,-0.0010350862028149,0.0010350843191073,-0.0010350848443855,0.0010350857040407,-0.0010350839852082,0.0010350865740877,-0.00094738777605865,0.00094739468834984,-0.00094739433778262,0.00094738811494131,-0.00094739526291018,0.00094738731105582,-0.00094738862329083,0.00094739380507615,-0.00057758928196805,0.00057759786539579,0.78082574674887,129794,2964,0.003747025803431,0.0059265140544281,0.0033652969800362,27.788253579823,-1.7693971361418e-05,-1.7693971361418e-05,-1.7693971361418e-05,3841905.4639941,0.013125347271743
31391759,0.76625005614732,0.013539173338861,0.0041454344619696,0.0054723339655455,0.0039214049113459,-0.00091116234609363,0.00091115959569652,2.0285093893423e-09,-4.7503142531015e-09,-7.5657716588104e-10,-2.1411761417886e-09,-0.00039095198466961,0.0003909410831004,-0.00058098478980668,0.0005809828013872,-0.00058098704540829,0.00058098054342506,-0.00039094390003837,0.00039094914024583,-0.00039095054572861,0.00039094252304638,-0.00058098344248174,0.00058098413130634,-0.00058098568545563,0.00058098186113236,-0.0011597157337668,0.0011597157900087,-0.0011597179954197,0.0011597135297393,-0.0011597162713641,0.0011597153378726,-0.0011597185329521,0.0011597130777468,-0.0010577608345591,0.0010577642814023,-0.0010577674859062,0.0010577576510611,-0.0010577603028004,0.00105776476925,-0.001057766946953,0.0010577581299795,-0.00039094538285349,0.0003909477382133,-1.6833203387191e-09,-1.5739168038779e-10,4.9322417167468e-10,-2.2592635585868e-09,-0.0014467445854835,0.0014467428174937,-0.001308229209733,0.0013082242241041,-0.0014695725630577,0.0014695702792812,-0.0014695713224452,0.0014695718742692,-0.0014290662442338,0.0014290648894678,-0.0014290671397847,0.0014290639785882,-0.0014290657878636,0.0014290654425261,-0.0014290666831905,0.0014290645327866,-0.0013082260179004,0.0013082274651095,-0.0013082287285574,0.00130822475563,-0.0014695734759663,0.0014695693701568,-0.0014695722365135,0.0014695709711608,-0.0013082264968167,0.0013082269419495,-3.6492417499048e-09,3.1347714288552e-09,-0.00081736511032608,0.0008173645950737,-1.6349285285962e-09,1.1157992568486e-09,-0.00058269377871397,0.00058268934676083,-0.00070183592867751,0.00070184036666623,-0.00070183816991636,0.00070183810245037,-0.00058268984337687,0.00058269324881613,-0.00058269655196145,0.00058268669160899,-0.0007018386115435,0.0007018376342934,-0.00070184090260868,0.00070183541397646,-0.0010476764908774,0.0010476728007415,-0.0010476755414562,0.0010476736857232,-0.0010476742085484,0.001047675045801,-0.0010476732976391,0.0010476759677734,-0.0009587298296853,0.00095873687501807,-0.00095873647047856,0.00095873022207849,-0.0009587374488513,0.00095872936533557,-0.00095873072956444,0.00095873593907137,-0.00058268717545298,0.00058269599353875,0.75165982023466,129794,2964,0.0037922386744992,0.0060081572441326,0.0034018068165628,28.355699794316,-1.315440164547e-05,-1.315440164547e-05,-1.315440164547e-05,3836905.4645481,0.013290904547015
31591759,0.77512985249297,0.013689694008114,0.0041909349484925,0.0055367474695244,0.0039620115900973,-0.00092176218680842,0.00092175939181323,2.0472845904493e-09,-4.8127374933496e-09,-8.5148233931372e-10,-2.0946556878977e-09,-0.00039415611716322,0.00039414522452877,-0.00058693458163977,0.00058693271059153,-0.00058693686466457,0.00058693042584736,-0.00039414808778267,0.00039415322410019,-0.00039415481227478,0.00039414652760163,-0.00058693337355694,0.00058693389991983,-0.00058693564266084,0.00058693160275828,-0.0011740751227518,0.0011740751184781,-0.0011740774115149,0.0011740728313322,-0.0011740756183701,0.0011740747137775,-0.0011740779071076,0.0011740724265145,-0.0010706473602327,0.0010706508900084,-0.0010706540907517,0.0010706441793797,-0.0010706468734769,0.0010706513306949,-0.0010706535969649,0.0010706446121722,-0.00039414943478314,0.00039415196042825,-1.6472734206924e-09,-2.5297439104497e-10,5.4047725111451e-10,-2.3619868008327e-09,-0.0014659514637802,0.0014659496401355,-0.0013245811118756,0.001324575967792,-0.0014882025492692,0.0014882003898331,-0.0014882014446143,0.0014882018577187,-0.0014486089438447,0.0014486076290569,-0.0014486098888346,0.0014486066682228,-0.0014486085342538,0.0014486081390424,-0.00144860947928,0.001448607179362,-0.0013245778144307,0.0013245793096885,-0.0013245806750159,0.0013245764533329,-0.0014882035119687,0.0014881994309038,-0.0014882024086164,0.0014882009036047,-0.0013245782496539,0.001324578830917,-3.6854649703654e-09,3.1786097398602e-09,-0.0008259415222266,0.00082594101444041,-1.7071263055073e-09,1.1954014632149e-09,-0.00058733437055365,0.00058733001749429,-0.00070871974949863,0.00070872436919665,-0.00070872201610204,0.00070872207740177,-0.00058733050576092,0.00058733384737106,-0.00058733729631467,0.00058732721601065,-0.00070872257978955,0.00070872148609705,-0.00070872489872186,0.00070871924021057,-0.0010600740575755,0.0010600702977535,-0.0010600730565222,0.0010600712320527,-0.0010600717476721,0.0010600725690383,-0.0010600707868639,0.0010600735416774,-0.00096961386486898,0.00096962104727409,-0.00096962058399301,0.00096961431641819,-0.00096962161516261,0.00096961340976811,-0.00096961481501459,0.00096962006030323,-0.00058732769216572,0.00058733674279372,0.71981430599516,129794,2964,0.0038363312496088,0.0060876274341596,0.0034374889423429,28.924255320343,-8.6059574372586e-06,-8.6059574372586e-06,-8.6059574372586e-06,3841840.8672116,0.013452313884641
31791759,0.78390063684059,0.013830495039711,0.0042337044878756,0.0055969273366882,0.0039998632151474,-0.00093143178483969,0.00093142893662763,2.0613336112908e-09,-4.8789472231584e-09,-8.6221329776972e-10,-2.1414566865123e-09,-0.00039662033389851,0.00039660927172542,-0.00059176364533682,0.00059176170739859,-0.00059176595446449,0.00059175939692794,-0.00039661218740506,0.00039661738695502,-0.0003966189919077,0.00039661060936099,-0.00059176240150572,0.00059176293145303,-0.0005917646975796,0.00059176060666767,-0.001187458177156,0.0011874581625325,-0.0011874604928808,0.0011874558483221,-0.0011874586894042,0.001187457745717,-0.0011874610046866,0.0011874554318941,-0.0010822139200774,0.0010822174628512,-0.0010822207283893,0.0010822106739206,-0.0010822134179129,0.0010822179168287,-0.0010822202209374,0.0010822111188856,-0.00039661357451164,0.00039661608400869,-1.6922106939484e-09,-2.6180535195819e-10,5.5612324694154e-10,-2.4274422424675e-09,-0.0014838372433812,0.0014838353695684,-0.0013395189952727,0.0013395137096693,-0.0015052800815132,0.0015052778647228,-0.0015052789488679,0.0015052793694289,-0.0014670518758869,0.0014670505286642,-0.001467052848121,0.0014670495403822,-0.0014670514581672,0.0014670510509933,-0.001467052430154,0.001467050064697,-0.0013395156058148,0.0013395171415965,-0.0013395185470494,0.0013395142078791,-0.0015052810720715,0.0015052768781529,-0.0015052799395288,0.001505278389163,-0.0013395160513486,0.0013395166515594,-3.7291288990432e-09,3.2159808067292e-09,-0.00083374039281541,0.00083373987872713,-1.750318154151e-09,1.2315938795237e-09,-0.00059097629006719,0.00059097192665335,-0.00071451258716797,0.00071451730493173,-0.00071451488073724,0.00071451498477233,-0.00059097242421319,0.00059097575822617,-0.00059097929607299,0.00059096905403037,-0.00071451549476269,0.00071451434247807,-0.00071451784100042,0.00071451207166627,-0.001071628130428,0.0010716243114303,-0.0010716271019227,0.0010716252704859,-0.0010716257927404,0.0010716266086567,-0.0010716248059073,0.0010716276083103,-0.00097939635906741,0.00097940364206808,-0.00097940315846361,0.00097939683147375,-0.00097940421692287,0.00097939589977992,-0.00097939733617181,0.00097940262722385,-0.00059096953247504,0.00059097873480105,0.68196835027721,129794,2964,0.0038765546639231,0.0061616252142899,0.003469938679152,29.26193784811,-5.9044972151215e-06,-5.9044972151215e-06,-5.9044972151215e-06,3852828.2402257,0.013601004645302
31991759,0.79239165800386,0.013980434031775,0.0042789936752246,0.005660917933143,0.0040405224234076,-0.00094096651946681,0.00094096358830057,2.0613932484395e-09,-4.9599820089249e-09,-8.2491826613675e-10,-2.2690747682352e-09,-0.0003999122928676,0.00039990089879497,-0.00059736854077782,0.00059736637791354,-0.00059737087731203,0.0005973640392381,-0.00039990390089671,0.00039990925959098,-0.00039991078351077,0.00039990240207257,-0.00059736713484448,0.00059736776271067,-0.0005973694575892,0.00059736541002934,-0.0012003029189411,0.0012003029079649,-0.0012003052615631,0.0012003005665877,-0.0012003034892838,0.0012003024361707,-0.0012003058315944,0.0012003000950318,-0.0010938832213495,0.0010938867096051,-0.0010938901092641,0.001093879840679,-0.0010938826660066,0.0010938872185512,-0.0010938895477871,0.0010938803410811,-0.00039990545351295,0.00039990779064673,-1.7941491405635e-09,-1.9233811305378e-10,5.4702041992004e-10,-2.4482136753226e-09,-0.0015012978393181,0.0015012959354536,-0.0013547426761438,0.0013547372924668,-0.0015217563955943,0.0015217539832967,-0.0015217551045357,0.0015217556635311,-0.0014849198202722,0.0014849183936575,-0.0014849207977434,0.00148491740201,-0.0014849193516612,0.001484918974332,-0.0014849203288145,0.0014849179847344,-0.0013547392171165,0.0013547407910243,-0.0013547421731484,0.0013547378488053,-0.0015217573896906,0.0015217529929514,-0.0015217560999592,0.001521754681028,-0.0013547397182249,0.001354740244137,-3.7776612215391e-09,3.2475545419968e-09,-0.00084143185229151,0.00084143132067333,-1.7666768517055e-09,1.2286172310033e-09,-0.00059561308023766,0.00059560863240773,-0.00072071944159984,0.00072072417841127,-0.00072072176106386,0.00072072183234691,-0.00059560914690933,0.00059561252818138,-0.0005956161016156,0.00059560575069502,-0.00072072236040768,0.00072072120183964,-0.00072072473487001,0.00072071890672218,-0.0010825921015222,0.0010825882343452,-0.001082591067424,0.0010825891966958,-0.0010825897357455,0.0010825905571794,-0.0010825887450225,0.0010825915615621,-0.00098924399179026,0.00098925134150844,-0.00098925087212613,0.00098924445450415,-0.00098925193370019,0.00098924351695718,-0.00098924497401929,0.00098925032245758,-0.00059560624429655,0.00059561551803782,0.74979062640032,129794,2964,0.003916210068265,0.0062338548954814,0.0035019363846822,29.279610120752,-5.7631190339849e-06,-5.7631190339849e-06,-5.7631190339849e-06,3860107.4091719,0.013746880137626
32191759,0.80060333235156,0.014128253483322,0.0043235734266366,0.0057240408977641,0.0040806391589216,-0.00095023105148544,0.00095022804087514,2.0624863564576e-09,-5.0388950363625e-09,-8.4785583495388e-10,-2.3322239936726e-09,-0.00040230285506611,0.00040229125595981,-0.00060265130536943,0.00060264904327619,-0.00060265366844107,0.00060264667884781,-0.00040229434100959,0.00040229973803968,-0.00040230129995705,0.00040229280201028,-0.0006026498612174,0.00060265046702931,-0.00060265220853076,0.0006026480869404,-0.0012129249130824,0.0012129248673551,-0.0012129272822979,0.0012129224992005,-0.0012129255002667,0.0012129243818894,-0.001212927869393,0.0012129220140513,-0.0011054616592354,0.0011054651345508,-0.0011054686252105,0.0011054581865816,-0.0011054610882074,0.0011054656577661,-0.0011054680477956,0.0011054587015001,-0.0004022959372156,0.0004022982266632,-1.8410247433108e-09,-1.9017041963194e-10,5.6145461617482e-10,-2.5036099809107e-09,-0.0015186667886667,0.0015186648433821,-0.0013698770010516,0.0013698714928079,-0.0015385894009865,0.0015385869241967,-0.0015385880711056,0.0015385886569019,-0.0015024107859736,0.0015024093277436,-0.0015024117878293,0.0015024083133029,-0.001502410306517,0.0015024099261551,-0.0015024113081416,0.0015024089135153,-0.0013698734564237,0.0013698750742913,-0.0013698764826174,0.001369872063804,-0.001538590420051,0.0015385859115951,-0.0015385890909333,0.0015385876498264,-0.0013698739725555,0.0013698745110508,-3.827599248713e-09,3.2787565971778e-09,-0.00084876143317718,0.0008487608826211,-1.8125025542176e-09,1.2540821144799e-09,-0.000599661829567,0.00059965735299755,-0.00072669067666842,0.00072669548997874,-0.00072669302236104,0.00072669311616965,-0.00059965788381395,0.00059966125662036,-0.00059966492538645,0.00059965440611638,-0.00072669366395108,0.00072669244265925,-0.00072669606836529,0.00072669012264793,-0.0010933112067477,0.0010933072706572,-0.0010933101477302,0.0010933082553052,-0.0010933088127441,0.0010933096196364,-0.0010933077992209,0.0010933106480867,-0.00099895345012923,0.00099896088437652,-0.00099896041111513,0.00099895391960233,-0.00099896149781109,0.00099895295907027,-0.00099895445496347,0.00099895984102903,-0.00059965491602143,0.00059966431707997,0.76436055090536,129794,2964,0.0039547505312255,0.00630569837906,0.0035324353407245,29.288951708062,-5.6883863355063e-06,-5.6883863355063e-06,-5.6883863355063e-06,3850385.7373052,0.013889738287185
32391759,0.80854067275737,0.014274315886206,0.0043675704323731,0.0057864279195584,0.0041203175342745,-0.00095934198101522,0.00095933889465165,2.0658730174092e-09,-5.1162852898493e-09,-8.9638075178628e-10,-2.3660136770092e-09,-0.00040475872182712,0.00040474697517405,-0.0006079401749847,0.00060793787155048,-0.00060794256491262,0.00060793548037523,-0.00040475013900914,0.00040475552609548,-0.00040475717531402,0.00040474851014369,-0.00060793874685153,0.00060793928073568,-0.00060794111945051,0.000607936872577,-0.0012253002013053,0.0012253001060822,-0.001225302597321,0.0012252977108878,-0.0012253007856892,0.0012252996250251,-0.001225303181805,0.0012252972301883,-0.0011169274820536,0.0011169309693897,-0.0011169345268773,0.0011169239413374,-0.0011169269173109,0.0011169314870347,-0.0011169339557963,0.0011169244516511,-0.00040475172495772,0.00040475402509182,-1.8538901156354e-09,-2.0877299694443e-10,5.9384189694577e-10,-2.5657644432384e-09,-0.0015357531863264,0.0015357512113854,-0.001384842756893,0.0013848371286859,-0.0015552275083004,0.0015552250399312,-0.0015552261925406,0.0015552267724602,-0.0015195635373804,0.0015195620857228,-0.0015195645723434,0.00151956104038,-0.001519563065106,0.0015195626838039,-0.0015195640998092,0.0015195616401226,-0.001384839120034,0.0013848407990299,-0.0013848422411308,0.0013848376974556,-0.001555228559548,0.001555223996456,-0.0015552272446926,0.0015552257340391,-0.0013848396336078,0.0013848402377109,-3.8772030560676e-09,3.3095442875467e-09,-0.00085589706781212,0.00085589649806134,-1.8713939396924e-09,1.2920825339806e-09,-0.00060354518067779,0.00060354069992582,-0.00073261344782237,0.00073261836134799,-0.00073261581952402,0.00073261596052978,-0.00060354124872213,0.00060354458612725,-0.00060354837461208,0.00060353766263222,-0.00073261652824547,0.00073261521782889,-0.00073261896175424,0.00073261287343492,-0.001103778538574,0.0011037745250717,-0.001103777446203,0.001103775540686,-0.001103776116651,0.0011037768999522,-0.0011037750715279,0.0011037779608798,-0.0010085056231693,0.0010085131499354,-0.0010085126636739,0.0010085061072516,-0.0010085137840823,0.0010085051155412,-0.001008506659603,0.0010085120737995,-0.00060353818949101,0.00060354774238671,0.78118420731908,129794,2964,0.0039926540148969,0.0063763653698048,0.0035621282516551,29.297953858105,-5.6163691351585e-06,-5.6163691351585e-06,-5.6163691351585e-06,3836848.7649414,0.014029959644677
32591759,0.81619289032857,0.014406843072898,0.0044076726896063,0.0058430137378009,0.004156156645491,-0.00096759056832939,0.00096758742575494,2.0791844143728e-09,-5.184352235392e-09,-9.8237887969073e-10,-2.3413543293795e-09,-0.00040620955247302,0.00040619777264162,-0.00061199644612946,0.00061199421738232,-0.00061199886365715,0.00061199179852527,-0.00040620099606231,0.00040620629745411,-0.00040620810911345,0.00040619920177329,-0.00061199512834324,0.00061199551673512,-0.00061199752649757,0.00061199308081048,-0.0012368524510026,0.0012368522939211,-0.0012368548739235,0.0012368498715773,-0.001236853001838,0.0012368518495061,-0.0012368554252817,0.0012368494272696,-0.0011272028449583,0.0011272063942055,-0.0011272099697342,0.0011271992854685,-0.001127202316121,0.0011272068745422,-0.0011272094343993,0.0011271997602411,-0.0004062024741635,0.00040620490291417,-1.8254067990165e-09,-2.8072063237774e-10,6.4368073118668e-10,-2.6561012390186e-09,-0.0015517276977411,0.0015517256818129,-0.0013984815467745,0.001398475775985,-0.0015708067470337,0.001570804383541,-0.0015708055367297,0.0015708060216601,-0.001535687143358,0.001535685733027,-0.0015356882263224,0.0015356846410324,-0.0015356867080609,0.0015356862992557,-0.0015356877910772,0.0015356852088045,-0.0013984778086397,0.0013984795499275,-0.0013984810683905,0.0013984763127967,-0.0015708078445761,0.0015708032936551,-0.0015708066365403,0.0015708049368223,-0.0013984782863861,0.0013984790202013,-3.9215490080976e-09,3.3449889027969e-09,-0.00086225397924907,0.00086225340033861,-1.9486170811979e-09,1.3591663213159e-09,-0.00060607701609432,0.0006060725892837,-0.00073742663106666,0.00073743170105877,-0.00073742902906737,0.00073742927444083,-0.00060607314498567,0.00060607641092292,-0.00060608035536301,0.00060606941372592,-0.00073742985036902,0.00073742841561817,-0.00073743231410824,0.00073742604807223,-0.0011135577608504,0.0011135536642056,-0.0011135566186221,0.0011135547260813,-0.0011135553107101,0.0011135560644631,-0.0011135542184752,0.0011135571736716,-0.0010170429240427,0.0010170505681027,-0.001017050042017,0.0010170434473141,-0.0010170512139374,0.0010170424091745,-0.0010170440077493,0.0010170494431094,-0.00060606994826121,0.00060607970879672,0.73524667530474,129794,2964,0.00402697744972,0.0064424287354709,0.0035885873590319,29.270835433596,-5.8333165312311e-06,-5.8333165312311e-06,-5.8333165312311e-06,3822922.405841,0.014158625561549
32791759,0.82355392755113,0.014525210087022,0.0044437329357079,0.0058934524798128,0.0041880246715016,-0.0009750521320526,0.00097504895916424,2.1045330985761e-09,-5.2391990063608e-09,-1.070511886729e-09,-2.2858034360829e-09,-0.00040753123081259,0.00040751948147432,-0.00061524742297473,0.00061524532919536,-0.00061524986694627,0.00061524288393959,-0.00040752273551481,0.00040752794433301,-0.00040752992571153,0.00040752076961859,-0.00061524624714338,0.00061524648542032,-0.00061524867133809,0.00061524402260397,-0.0012474670267568,0.0012474668221667,-0.0012474694766149,0.001247464373132,-0.0012474675349815,0.0012474664254248,-0.0012474699852617,0.0012474639764437,-0.0011361743823692,0.0011361780269928,-0.0011361815857459,0.0011361708397417,-0.0011361738984714,0.0011361784606674,-0.0011361810950949,0.0011361712674561,-0.00040752407382599,0.00040752668974951,-1.7861744000687e-09,-3.7841898142385e-10,7.0120343563916e-10,-2.7675429321267e-09,-0.0015661922525077,0.0015661901822292,-0.0014105406061974,0.0014105346627537,-0.0015845072576657,0.0015845050316357,-0.001584506186485,0.0015845065346723,-0.0015506427820535,0.0015506414197396,-0.0015506439202719,0.0015506402715741,-0.0015506423938129,0.0015506419408859,-0.0015506435320461,0.0015506407940334,-0.0014105367498812,0.0014105385566165,-0.0014105401746399,0.0014105351523624,-0.0015845084114023,0.0015845038859794,-0.0015845073419979,0.0015845053928627,-0.0014105371805699,0.0014105380731621,-3.9577240744889e-09,3.3896224508609e-09,-0.00086805794727939,0.00086805737683498,-2.0286864566187e-09,1.4484620317623e-09,-0.00060811691864804,0.00060811258851875,-0.00074142241914348,0.000741427691003,-0.0007414248433672,0.00074142523712577,-0.00060811313411636,0.00060811632188988,-0.00060812042807088,0.00060810925098153,-0.00074142580376345,0.00074142423792958,-0.00074142829680982,0.00074142184591391,-0.0011225919191323,0.0011225877475718,-0.001122590718793,0.0011225888637585,-0.0011225894408321,0.0011225901737822,-0.001122588293025,0.0011225913396673,-0.0010245517734895,0.0010245595611578,-0.0010245589679095,0.0010245523588782,-0.0010245602014127,0.0010245512697385,-0.0010245529111888,0.0010245583783392,-0.00060810977432604,0.0006081197882576,0.6827383577837,129794,2964,0.0040580225903395,0.0065022439806129,0.0036127441940961,29.212650518539,-6.2987958516904e-06,-6.2987958516904e-06,-6.2987958516904e-06,3822807.0866933,0.014275309530484
32991759,0.83063227080958,0.014644272831631,0.0044799396796476,0.0059440819115296,0.0042202512404536,-0.00098254897633047,0.00098254577682256,2.1315892279417e-09,-5.2923689830545e-09,-1.1518630817118e-09,-2.233146825515e-09,-0.00040984344185948,0.00040983171796404,-0.00061915266372894,0.0006191506993671,-0.00061915513402763,0.00061914822773729,-0.00040983499737973,0.00040984012775538,-0.00040984226712013,0.0004098328739774,-0.0006191516200822,0.00061915172204777,-0.00061915407080127,0.0006191492318999,-0.0012577884932116,0.0012577882483461,-0.0012577909700963,0.0012577857725519,-0.0012577889621926,0.0012577878960666,-0.0012577914392585,0.0012577854204862,-0.0011451448655768,0.0011451486053839,-0.0011451521476483,0.0011451413400933,-0.0011451444234068,0.0011451489956389,-0.0011451516992278,0.001145141723625,-0.00040983620720252,0.00040983900359413,-1.749468568642e-09,-4.737281653323e-10,7.6238961999838e-10,-2.882621599682e-09,-0.0015801991978196,0.0015801970730676,-0.0014226421426109,0.0014226360163521,-0.0015974658968847,0.0015974638058494,-0.0015974649602317,0.0015974651778862,-0.0015651735461994,0.0015651722330321,-0.0015651747419628,0.0015651710260656,-0.0015651732039326,0.0015651727104957,-0.00156517439954,0.0015651715050598,-0.0014226381583141,0.0014226400395213,-0.0014226417558507,0.0014226364614882,-0.0015974671092608,0.0015974626013703,-0.0015974661737707,0.0015974639777726,-0.0014226385435992,0.0014226396011704,-3.9931137627038e-09,3.4351324264447e-09,-0.00087403681767301,0.00087403625752578,-2.110573216687e-09,1.5414633272069e-09,-0.00061123062568453,0.00061122639815217,-0.00074583067097966,0.00074583615266408,-0.0007458331216969,0.00074583367101888,-0.00061122693392897,0.00061123003847909,-0.00061123430918335,0.00061122289299509,-0.00074583422687511,0.00074583252628087,-0.00074583674833499,0.00074583010961564,-0.0011313781222752,0.0011313738758868,-0.0011313768620164,0.0011313750480538,-0.0011313756159094,0.0011313763279014,-0.0011313744106208,0.0011313775524099,-0.0010321716739492,0.0010321796094441,-0.0010321789459676,0.0010321723256402,-0.0010321802403747,0.0010321711813623,-0.0010321728691533,0.0010321783670503,-0.00061122340290777,0.00061123367911521,0.71399333645219,129794,2964,0.0040892026550723,0.0065601631455919,0.0036376197014169,29.153651568888,-6.7707874488939e-06,-6.7707874488939e-06,-6.7707874488939e-06,3832280.8942407,0.0143909414216
33191759,0.83743675967922,0.014765883062087,0.0045167801168189,0.0059957743807425,0.0042533285645257,-0.0009900738199539,0.00099007058456995,2.1541057807529e-09,-5.3503504280553e-09,-1.2278245062453e-09,-2.1958011063717e-09,-0.00041209485547533,0.00041208312572359,-0.00062334804096739,0.00062334617564188,-0.00062335053794465,0.0006233436772775,-0.00041208644109379,0.00041209150342928,-0.00041209378917462,0.00041208417097808,-0.00062334710787847,0.0006233470852122,-0.00062334958480437,0.00062334456785368,-0.0012680363655732,0.0012680360800478,-0.0012680388695309,0.0012680335775939,-0.001268036804716,0.0012680357656231,-0.0012680393087811,0.001268033263336,-0.0011543908108743,0.0011543946310898,-0.0011543981720031,0.0011543872869886,-0.0011543904053606,0.0011543949842566,-0.0011543977600045,0.0011543876331717,-0.00041208754194898,0.00041209048996134,-1.72198237015e-09,-5.5305597284319e-10,8.2791821619989e-10,-2.9944738879646e-09,-0.0015943022897334,0.0015943001177937,-0.0014351006738674,0.0014350943641498,-0.0016108382068517,0.0016108362309485,-0.0016108373786456,0.0016108374983661,-0.0015794998648818,0.0015794986007951,-0.0015795011190608,0.0015794973348288,-0.0015794995603505,0.0015794990427823,-0.0015795008143763,0.0015794977782795,-0.0014350965528256,0.0014350985255496,-0.0014351003250598,0.0014350947730424,-0.0016108394781743,0.001610834967577,-0.0016108386510428,0.0016108362391946,-0.0014350969001351,0.0014350981234048,-4.0308780685596e-09,3.4779647517995e-09,-0.00087998937829843,0.00087998882323411,-2.1967655826337e-09,1.6331153227889e-09,-0.00061455921663781,0.00061455508981469,-0.00075049559024428,0.00075050127820472,-0.00075049806730598,0.00075049876956962,-0.00061455561983481,0.00061455863412424,-0.00061456307730947,0.00061455141380988,-0.00075049931988219,0.0007504974762498,-0.00075050187037912,0.00075049503523602,-0.0011400518693702,0.0011400475418263,-0.0011400505488833,0.0011400487720275,-0.0011400493353238,0.0011400500200468,-0.001140048071452,0.0011400513040781,-0.0010400190998867,0.0010400271786974,-0.0010400264499202,0.0010400198149193,-0.001040027805001,0.0010400186127107,-0.0010400203536039,0.0010400258762731,-0.00061455191615772,0.00061456245029353,0.75848139732897,129794,2964,0.0041205014696343,0.0066184759055579,0.0036623867664471,29.094619414498,-7.2430446840118e-06,-7.2430446840118e-06,-7.2430446840118e-06,3830752.1960044,0.014506994747794
33391759,0.84406630906694,0.014886394199075,0.0045532474741711,0.0060470166459075,0.0042861300789961,-0.00099786984880077,0.00099786658132772,2.1765748214568e-09,-5.4039224064387e-09,-1.3345837542648e-09,-2.1231539323401e-09,-0.00041428751778221,0.00041427586448706,-0.00062773148166803,0.0006277297807104,-0.00062773399983017,0.00062772725878123,-0.00041427920156215,0.00041428414385079,-0.00041428663160488,0.00041427672490593,-0.00062773072034962,0.00062773051455648,-0.00062773322484325,0.00062772796729808,-0.0012786278759326,0.0012786275304095,-0.0012786304066126,0.0012786250019325,-0.0012786282641096,0.0012786272748552,-0.0012786307926132,0.001278624748466,-0.0011640742868374,0.0011640782057643,-0.0011640817203717,0.0011640707911402,-0.0011640739385404,0.0011640785041521,-0.0011640813701751,0.0011640710754249,-0.000414280137288,0.00041428329466235,-1.6435816097688e-09,-6.8796646555076e-10,9.2226009033731e-10,-3.1378069025859e-09,-0.0016088771572779,0.0016088749341512,-0.0014480161112877,0.0014480095909175,-0.0016250211957254,0.0016250194570714,-0.0016250205823091,0.0016250205112072,-0.0015941029142664,0.0015941017503141,-0.0015941042481631,0.0015941004049036,-0.0015941026824517,0.0015941021204254,-0.0015941040136725,0.0015941007775604,-0.0014480118415624,0.0014480139243527,-0.0014480158355931,0.0014480099337306,-0.0016250225501161,0.001625018114044,-0.0016250219307746,0.0016250191759035,-0.0014480121064041,0.001448013593171,-4.0695001020359e-09,3.5240864531367e-09,-0.00088611305358855,0.00088611250632195,-2.3027684751453e-09,1.7495145210819e-09,-0.00061779453157149,0.00061779054639013,-0.00075541339360541,0.00075541934180045,-0.00075541590308606,0.0007554168062703,-0.00061779107010186,0.00061779395065697,-0.00061779860860504,0.00061778666628836,-0.00075541734596077,0.00075541532131526,-0.00075541992693544,0.00075541286062325,-0.0011490181331448,0.0011490137109715,-0.0011490167382747,0.0011490150125725,-0.0011490155705152,0.0011490162157528,-0.0011490142322258,0.0011490175750792,-0.0010481985676029,0.0010482068128525,-0.0010482060034266,0.0010481993625193,-0.0010482074287948,0.0010481980899936,-0.0010481998963267,0.0010482054323629,-0.00061778714060646,0.00061779799236435,0.77139461498217,129794,2964,0.0041529324601458,0.0066787355812903,0.0036878677089727,29.271020777247,-5.8318337820245e-06,-5.8318337820245e-06,-5.8318337820245e-06,3821677.7865598,0.014626912967098
33591759,0.85056655514338,0.015006723699714,0.0045896267565602,0.0060981924241016,0.0043189045190517,-0.0010058369979992,0.0010058337051478,2.2084972995411e-09,-5.4604706454582e-09,-1.4733807471119e-09,-2.012629648634e-09,-0.00041673367175608,0.00041672213804754,-0.00063231012759358,0.00063230867607505,-0.00063231267968041,0.000632306120098,-0.00041672551573283,0.00041673025589573,-0.00041673301503531,0.00041672276801879,-0.00063230961604704,0.00063230915928388,-0.00063231214405671,0.00063230658731762,-0.0012893797229112,0.0012893792998052,-0.0012893822817477,0.0012893767437625,-0.0012893800295573,0.0012893791296567,-0.0012893825893288,0.0012893765719996,-0.0011739923390498,0.0011739964099346,-0.0011739998648692,0.0011739889034185,-0.001173992080147,0.0011739966178142,-0.0011739995947244,0.0011739891087882,-0.00041672619408486,0.00041672966676447,-1.5765300450893e-09,-8.0208715620156e-10,1.0178412439979e-09,-3.2770677868387e-09,-0.001623679633926,0.0016236773669987,-0.0014612796267426,0.001461272897951,-0.0016395138747735,0.0016395123442181,-0.0016395134397279,0.0016395132252694,-0.001608855448478,0.0016088543786046,-0.0016088568583626,0.0016088529565096,-0.0016088552771348,0.0016088546908274,-0.001608856688116,0.0016088532687892,-0.001461275187534,0.0014612774003835,-0.0014612794200755,0.001461273178194,-0.00163951530109,0.0016395109266191,-0.0016395148717831,0.0016395118092809,-0.0014612753959506,0.0014612771268699,-4.1010219415653e-09,3.5652666504041e-09,-0.00089234935900496,0.00089234882149539,-2.4280889153151e-09,1.8848270188624e-09,-0.00062102815536461,0.00062102437276133,-0.00076046697404368,0.0007604732073153,-0.0007604695032742,0.00076047065129978,-0.00062102487411649,0.00062102759611595,-0.00062103250497717,0.00062102022715667,-0.00076047117576803,0.00076046893442586,-0.00076047378878195,0.0007604664463934,-0.0011581232181401,0.0011581186930688,-0.0011581217336468,0.0011581200820708,-0.001158120629168,0.0011581212231389,-0.0011581192057973,0.0011581226677574,-0.0010565578877111,0.0010565662963157,-0.0010565653895554,0.001056558778992,-0.0010565669075743,0.0010565574152032,-0.0010565592992204,0.0010565648335184,-0.0006210207044102,0.00062103188035583,0.78538310757357,129794,2964,0.0041860759180801,0.0067399318415597,0.0037138162641485,29.57133716472,-3.4293026822432e-06,-3.4293026822432e-06,-3.4293026822432e-06,3811569.5044814,0.014748993502641
33791759,0.85693390776452,0.015124354070909,0.0046252084564887,0.006148225562675,0.0043509200517453,-0.0010136186388674,0.001013615308754,2.2288652928129e-09,-5.5177232630771e-09,-1.5751979919297e-09,-1.9519165682593e-09,-0.0004189588334049,0.00041894734340062,-0.00063662407829005,0.00063662276965815,-0.0006366266553116,0.00063662019035527,-0.00041895075535238,0.00041895538150611,-0.00041895833811495,0.00041894781174429,-0.00063662372735246,0.00063662309459781,-0.0006366262819454,0.00063662049456334,-0.0012999411770198,0.001299940692435,-0.001299943762267,0.0012999381097505,-0.0012999414330872,0.0012999405748234,-0.0012999440183163,0.0012999379918713,-0.001183695744713,0.0011836999071909,-0.0011837033440123,0.0011836923254861,-0.0011836955359565,0.001183700062951,-0.0011837031281087,0.0011836924755071,-0.00041895128233569,0.00041895494406625,-1.5106005105443e-09,-9.134591967868e-10,1.1146253801509e-09,-3.4175318455293e-09,-0.0016382966012607,0.0016382942910178,-0.0014743726113672,0.001474365664699,-0.0016538930903321,0.0016538917729895,-0.0016538928368213,0.0016538924818065,-0.001623386448112,0.0016233854758004,-0.0016233879377408,0.0016233839736384,-0.0016233863393325,0.0016233857284651,-0.0016233878285657,0.0016233842274105,-0.0014743679948759,0.0014743703346566,-0.0014743724619453,0.0014743658840585,-0.0016538945974259,0.001653890274397,-0.0016538943456576,0.0016538909863103,-0.0014743681434722,0.0014743701216798,-4.1405586629662e-09,3.6093109380872e-09,-0.00089838465778438,0.00089838412468839,-2.5412554967401e-09,2.0016900282993e-09,-0.00062390239841892,0.00062389875980296,-0.00076525753584844,0.00076526402559499,-0.00076526009235211,0.00076526143785087,-0.00062389926345546,0.00062390183788175,-0.00062390696904067,0.00062389439372755,-0.00076526196191836,0.00076525952236677,-0.00076526460123511,0.00076525700990872,-0.0011670674086129,0.0011670627846398,-0.0011670658465695,0.0011670642478585,-0.0011670647911504,0.0011670653408977,-0.0011670632915962,0.0011670668630665,-0.0010647159669698,0.0010647245413053,-0.0010647235512372,0.0010647169399479,-0.0010647251489009,0.0010647155030721,-0.0010647174564163,0.0010647229989375,-0.00062389486633399,0.00062390635603452,0.78367691346067,129794,2964,0.0042184507845973,0.0068003564215447,0.003738930608129,29.87493536599,-1.0005170720794e-06,-1.0005170720794e-06,-1.0005170720794e-06,3799514.3644691,0.014868680006879
33991759,0.86316383884014,0.015235504495986,0.0046589311902302,0.0061954769966691,0.0043810963090871,-0.0010210367589284,0.0010210333922547,2.2510411882663e-09,-5.5756541487695e-09,-1.6629539174434e-09,-1.9042307395874e-09,-0.00042091687974647,0.00042090540488414,-0.00064045980064936,0.00064045861122719,-0.00064046240413073,0.00064045600560286,-0.00042090885414248,0.00042091338939711,-0.00042091651475064,0.00042090574052276,-0.00064045958347294,0.00064045880231799,-0.00064046216396639,0.00064045617472422,-0.001310120879532,0.0013101203436271,-0.0013101234916338,0.001310117734123,-0.0013101210941904,0.0013101202709764,-0.0013101237061757,0.0013101176613302,-0.0011928447456702,0.0011928489958551,-0.0011928524233521,0.001192841335813,-0.0011928445806525,0.0011928491068412,-0.0011928522517263,0.001192841440769,-0.00042090925085655,0.00042091308314088,-1.4674529582606e-09,-1.0022445427165e-09,1.203443371484e-09,-3.5487372215984e-09,-0.0016523563399084,0.0016523539869176,-0.0014868325205496,0.0014868253599032,-0.0016676414928285,0.0016676403360727,-0.001667641374697,0.0016676409171198,-0.0016374642881591,0.0016374633910596,-0.001637465850651,0.0016374618157537,-0.0016374642251813,0.0016374636009259,-0.001637465787275,0.0016374620267963,-0.0014868277330996,0.0014868302013552,-0.0014868324162577,0.0014868255353927,-0.001667643073499,0.0016676387642759,-0.001667642956498,0.0016676393488071,-0.0014868278359052,0.0014868300326974,-4.1779953427793e-09,3.6528246381559e-09,-0.00090411770177859,0.00090411717470587,-2.6478963715945e-09,2.114670881207e-09,-0.00062635566652424,0.00062635216976934,-0.0007695889664743,0.00076959570451657,-0.00076959154956653,0.00076959308935232,-0.00062635266774432,0.00062635511132149,-0.00062636045400422,0.00062634759162055,-0.00076959360686615,0.0007695909842071,-0.00076959627526061,0.00076958844758912,-0.0011757107548042,0.001175706036874,-0.0011757091184366,0.0011757075717234,-0.0011757081095684,0.00117570861926,-0.0011757065372259,0.0011757102148225,-0.0010724173809338,0.0010724261143029,-0.0010724250442089,0.0010724184327428,-0.0010724267169431,0.0010724169246078,-0.0010724189435988,0.0010724244977553,-0.00062634805565998,0.00062635984651157,0.75679008220779,129794,2964,0.0042493146384179,0.0068584734422147,0.0037627888599337,30.178667746298,1.4293419703847e-06,1.4293419703847e-06,1.4293419703847e-06,3790276.0251208,0.014983231066108
34191759,0.86934357685078,0.015343546985707,0.0046917868961279,0.0062413588835105,0.0044104012060684,-0.0010287918956418,0.0010287885131072,2.286987087879e-09,-5.6267361113094e-09,-1.7857854515685e-09,-1.7986448049741e-09,-0.00042353053495046,0.0004235191786318,-0.00064468375344269,0.00064468280337684,-0.00064468638741809,0.00064468016338557,-0.00042352265888405,0.00042352701935454,-0.00042353038242885,0.0004235193034244,-0.00064468376305864,0.00064468276243312,-0.00064468636662519,0.00064468011019334,-0.0013205915795238,0.0013205909827716,-0.0013205942199017,0.0013205883459263,-0.0013205917212914,0.001320590987861,-0.001320594364439,0.00132058834764,-0.0012021912373451,0.0012021956372846,-0.0012021990075256,0.0012021878894598,-0.0012021911544137,0.0012021956691621,-0.0012021989068579,0.0012021879232302,-0.00042352281877344,0.00042352695119966,-1.4145420552406e-09,-1.1080351978331e-09,1.2990334193766e-09,-3.690528300152e-09,-0.0016665508832859,0.0016665484814757,-0.0014994412062684,0.0014994338254617,-0.0016813083630308,0.0016813073846396,-0.0016813083968731,0.001681307811331,-0.0016518193516086,0.0016518185346479,-0.0016518209894399,0.0016518168823828,-0.001651819340135,0.0016518186933981,-0.0016518209810557,0.0016518170395004,-0.0014994362527294,0.0014994388617457,-0.001499441165077,0.0014994339507789,-0.0016813100159953,0.0016813057394651,-0.0016813100635024,0.0016813061635704,-0.0014994363030085,0.0014994387408975,-4.2056891457453e-09,3.6990689222777e-09,-0.00091027354346349,0.00091027303556221,-2.7672851065675e-09,2.2569693332551e-09,-0.00062940086456391,0.0006293975798526,-0.00077428282217515,0.00077428986508556,-0.00077428542847945,0.00077428723270791,-0.00062939803968592,0.00062940034331203,-0.00062940593134827,0.00062939274037402,-0.00077428771786776,0.0007742848944258,-0.00077429042501185,0.0007742823343914,-0.0011846887676298,0.0011846839546341,-0.0011846870412521,0.0011846855765214,-0.0011846860955821,0.001184686562307,-0.0011846844382775,0.0011846882436625,-0.0010804019811159,0.001080410886401,-0.001080409710674,0.0010804031351762,-0.0010804114752306,0.0010804015372044,-0.0010804036237842,0.0010804091853708,-0.00062939318638564,0.00062940532011422,0.74153685266162,129794,2964,0.0042815718809552,0.0069171455936154,0.0037883992273489,30.743993956697,5.951951653578e-06,5.951951653578e-06,5.951951653578e-06,3793015.2528984,0.015101550386024
34391759,0.87548806541296,0.015450107321877,0.0047242293554863,0.0062865813374646,0.0044392966289261,-0.0010366132172529,0.0010366098011217,2.3081631721112e-09,-5.680785386053e-09,-1.8729040336556e-09,-1.7484976917281e-09,-0.00042635331910145,0.00042634199044901,-0.00064901228125978,0.00064901145208908,-0.00064901493822197,0.00064900879045847,-0.00042634549337961,0.00042634977519451,-0.00042635330571584,0.000426341975285,-0.00064901242478724,0.00064901127726996,-0.00064901505721456,0.0006490085967646,-0.0013311024180902,0.0013311017727385,-0.0013311050847216,0.0013310991094696,-0.0013311025201504,0.001331101821672,-0.001331105187502,0.001331099157313,-0.0012115292351755,0.0012115337175381,-0.0012115370753034,0.0012115258983262,-0.001211529190908,0.0012115337075918,-0.001211537021009,0.001211525884323,-0.00042634553439605,0.00042634982873461,-1.3593787370303e-09,-1.2200672189365e-09,1.3899266115858e-09,-3.8356809737446e-09,-0.0016807070305707,0.0016807045752548,-0.0015120638606973,0.001512056247428,-0.0016948300726117,0.0016948292881884,-0.0016948302816004,0.0016948295511504,-0.0016661919820477,0.0016661912494728,-0.0016661936985409,0.0016661895169078,-0.0016661920306896,0.0016661913515908,-0.0016661937480368,0.0016661896197049,-0.0015120587267455,0.0015120614520359,-0.0015120638718284,0.0015120563171214,-0.0016948318063555,0.0016948275599183,-0.0016948320224991,0.0016948278265642,-0.001512058719282,0.0015120613902854,-4.2427515307097e-09,3.7481372021872e-09,-0.0009165536656064,0.00091655316981706,-2.8720542448558e-09,2.3733499701538e-09,-0.0006327118668303,0.00063270871777765,-0.00077906396502173,0.00077907126514828,-0.00077906659974381,0.00077906859770997,-0.00063270917828982,0.00063271134616504,-0.00063271714281977,0.0006327036734789,-0.00077906907655593,0.00077906606985085,-0.00077907180884566,0.00077906348680259,-0.0011937259733274,0.0011937210716212,-0.0011937241722449,0.0011937227637868,-0.0011937232720899,0.0011937237052158,-0.001193721541169,0.001193725461997,-0.0010884506862456,0.0010884597660303,-0.0010884585015577,0.0010884519262082,-0.0010884603419876,0.0010884502598514,-0.0010884524057623,0.001088457986192,-0.00063270410290746,0.00063271655639245,0.7356016470914,129794,2964,0.0043141000777971,0.0069756561049925,0.0038145236317574,31.386541602962,1.1092332823693e-05,1.1092332823693e-05,1.1092332823693e-05,3801103.4291544,0.01522051546472
34591759,0.88158413302843,0.01555966627789,0.0047575216721818,0.0063330586478269,0.0044690859578809,-0.0010445820818492,0.0010445786230916,2.3272993257208e-09,-5.7419014429994e-09,-1.9474652250683e-09,-1.7203028628255e-09,-0.00042948606273598,0.00042947470781056,-0.00065367374634212,0.00065367299841352,-0.00065367643067332,0.00065367031119995,-0.00042947825273527,0.00042948247274006,-0.00042948614646174,0.0004294745906228,-0.00065367399173003,0.00065367272248142,-0.00065367665079988,0.00065367001418049,-0.0013416944779988,0.0013416937858322,-0.0013416971715106,0.0013416910955967,-0.0013416945491596,0.0013416938690111,-0.0013416972431478,0.0013416911779887,-0.001221107924095,0.0012211124769412,-0.0012211158418748,0.0012211045790593,-0.0012211079110097,0.0012211124330919,-0.0012211158206141,0.0012211045306447,-0.00042947819548497,0.00042948262340625,-1.3288909699989e-09,-1.3000467717613e-09,1.4697532344042e-09,-3.9624672939039e-09,-0.0016950224388954,0.0016950199368905,-0.001525047987463,0.0015250401612591,-0.0017085354274787,0.0017085347762596,-0.0017085357536918,0.0017085349336075,-0.0016806413087272,0.0016806406356003,-0.001680643092847,0.0016806388339859,-0.0016806413961442,0.0016806407026536,-0.0016806431809418,0.0016806389017763,-0.0015250426864352,0.0015250455282836,-0.0015250480349133,0.0015250401935059,-0.0017085372324694,0.0017085329791621,-0.0017085375623826,0.0017085331392588,-0.0015250426404183,0.0015250455026506,-4.2803791425282e-09,3.7913783315533e-09,-0.00092297942198148,0.00092297893173215,-2.9712654842742e-09,2.4779182010627e-09,-0.00063646416191975,0.00063646114135902,-0.00078411045904876,0.00078411798966745,-0.00078411312019665,0.00078411529411492,-0.00063646159850168,0.00063646364546929,-0.00063646963523372,0.00063645589791654,-0.0007841157689281,0.0007841125928735,-0.00078411852686634,0.00078410998390628,-0.0012028089103172,0.0012028039193671,-0.0012028070401845,0.0012028056781649,-0.0012028061814551,0.0012028065791772,-0.0012028043826712,0.0012028084043788,-0.0010967320253735,0.0010967412590077,-0.0010967399204319,0.0010967333392354,-0.0010967418304832,0.0010967316071315,-0.0010967338138684,0.0010967394103835,-0.00063645632085259,0.00063646905784357,0.76226247178848,129794,2964,0.0043472384324058,0.0070348214987767,0.0038412513099288,32.031181652,1.6249453216003e-05,1.6249453216003e-05,1.6249453216003e-05,3809082.8475332,0.015341389129924
34791759,0.88769657000059,0.015673780526458,0.0047921135731466,0.0063814903219739,0.0045001766313378,-0.0010531541248842,0.0010531506270904,2.3471073605107e-09,-5.7996747875928e-09,-2.0434350908136e-09,-1.6671529191815e-09,-0.000432915180109,0.00043290386030504,-0.00065887892064528,0.00065887830187481,-0.00065888162629846,0.00065887558724512,-0.00043290744448552,0.00043291155696614,-0.00043291541394177,0.00043290359360538,-0.00065887930897291,0.00065887787891969,-0.0006588819930388,0.00065887513989283,-0.0013529643257412,0.0013529635744381,-0.0013529670455968,0.0013529608578066,-0.0013529643499776,0.0013529637067712,-0.0013529670695789,0.0013529609904414,-0.0012315431463253,0.0012315477837849,-0.0012315511435788,0.001231539815042,-0.0012315431843452,0.0012315476940625,-0.0012315511744354,0.0012315397170329,-0.00043290724418149,0.00043291184548286,-1.2677574052933e-09,-1.4098017369622e-09,1.5649993894275e-09,-4.0978179765389e-09,-0.0017103124861431,0.0017103099395098,-0.001539072328069,0.0015390642924704,-0.0017234989001013,0.0017234984428041,-0.0017234993981981,0.0017234984325161,-0.0016958428342396,0.0016958422487873,-0.00169584469449,0.0016958403711867,-0.0016958429800443,0.0016958422592726,-0.0016958448399368,0.0016958403840175,-0.0015390668841973,0.0015390698585508,-0.0015390724423063,0.0015390642841293,-0.0017235007826758,0.0017234965715008,-0.0017235012829198,0.0017234965691272,-0.0015390667636165,0.0015390698837101,-4.3204562665231e-09,3.8351836911238e-09,-0.00092989441867638,0.00092989393315881,-3.0774348162692e-09,2.5930599601557e-09,-0.00064063052773765,0.00064062765093588,-0.00078974534004437,0.00078975313380584,-0.00078974803527325,0.00078975041881307,-0.00064062809917019,0.00064063001839829,-0.00064063622910389,0.00064062220216545,-0.00078975087663465,0.00078974752491479,-0.0007897536726228,0.00078974490001053,-0.0012124942737215,0.0012124891861846,-0.00121249232938,0.0012124910163272,-0.0012124915162839,0.0012124918723197,-0.0012124896438824,0.0012124937714448,-0.0011057341041957,0.0011057434966714,-0.0011057420821172,0.0011057354891862,-0.0011057440618413,0.0011057336845178,-0.001105735966808,0.0011057415706616,-0.00064062259454038,0.00064063564590115,0.79180217520077,129794,2964,0.0043828858533664,0.0070980117551481,0.0038700133290484,32.909164404853,2.3273315238825e-05,2.3273315238825e-05,2.3273315238825e-05,3812544.9754129,0.015470979508572
34991759,0.89385644090409,0.015783397077691,0.0048254419342468,0.0064280352229917,0.0045299199204526,-0.0010616975635394,0.0010616940307877,2.3695290294852e-09,-5.856148799174e-09,-2.1477551762595e-09,-1.6021267455688e-09,-0.00043573976786711,0.00043572849654224,-0.00066358250978635,0.00066358204404489,-0.00066358524308466,0.00066357930240281,-0.00043573211346285,0.0004357361055573,-0.00043574016679056,0.00043572806267152,-0.00066358306275536,0.00066358145329843,-0.00066358577608189,0.00066357868761977,-0.0013644192121001,0.0013644183994959,-0.0013644219583823,0.0013644156565473,-0.0013644191839515,0.0013644185886798,-0.0013644219293897,0.0013644158461197,-0.0012419055054286,0.0012419102431216,-0.0012419135787107,0.0012419021962142,-0.0012419055979972,0.0012419100958409,-0.0012419136659789,0.0012419020411746,-0.0004357317525557,0.00043573656161354,-1.2100414382411e-09,-1.5204043104126e-09,1.6544029819591e-09,-4.2381257788394e-09,-0.0017258437875287,0.0017258411912537,-0.0015530329150245,0.0015530246592433,-0.0017388742911783,0.0017388740268815,-0.0017388749622366,0.0017388738539078,-0.0017112772873489,0.0017112767878796,-0.0017112792237996,0.0017112748326464,-0.0017112774919529,0.0017112767431111,-0.001711279427873,0.0017112747914963,-0.0015530272963017,0.0015530303854384,-0.0015530330856512,0.0015530245947534,-0.0017388762484393,0.0017388720763776,-0.0017388769225384,0.0017388719166824,-0.0015530271205201,0.0015530304686345,-4.3588698629074e-09,3.8791052683497e-09,-0.00093673104032426,0.00093673056014003,-3.1891311069268e-09,2.708561196095e-09,-0.00064407834380412,0.00064407561130019,-0.00079506295072473,0.00079507099502645,-0.00079506567162014,0.00079506824964933,-0.00064407605980828,0.00064407783412364,-0.0006440842617225,0.0006440699385033,-0.00079506870625189,0.00079506516001174,-0.00079507152534671,0.00079506250733277,-0.0012223839654569,0.0012223787805128,-0.0012223819442513,0.0012223806851524,-0.0012223811796905,0.001222381493237,-0.001222379231528,0.001222383468766,-0.0011146331208717,0.0011146426765739,-0.0011146411805502,0.0011146345890509,-0.0011146432367542,0.0011146327102289,-0.0011146350601377,0.00111464067388,-0.00064407033221123,0.00064408368971503,0.7549474095135,129794,2964,0.0044184208414463,0.0071621955124218,0.003898454433795,33.939617673362,3.1516941386899e-05,3.1516941386899e-05,3.1516941386899e-05,3813003.9788259,0.015601161596222
35191759,0.90004003600864,0.015890599590564,0.0048581122528068,0.0064735296908807,0.0045589576468762,-0.0010701753369392,0.0010701717658919,2.3924380392778e-09,-5.9165693022221e-09,-2.2144959211697e-09,-1.5762250304661e-09,-0.00043893362350732,0.00043892231723343,-0.0006682882498572,0.00066828786104893,-0.0006682910125789,0.00066828509413547,-0.00043892597675002,0.0004389299184554,-0.00043893410578127,0.00043892179905922,-0.00066828889819952,0.00066828717881343,-0.00066829163593276,0.00066828438753801,-0.0013757548864968,0.0013757540355944,-0.0013757576603801,0.0013757512653626,-0.001375754831848,0.0013757542559025,-0.0013757576054423,0.0013757514853566,-0.0012519905229082,0.0012519953375186,-0.001251998675696,0.0012519872057583,-0.001251990644691,0.0012519951574886,-0.0012519987907602,0.0012519870201735,-0.00043892552373974,0.00043893046432387,-1.1989299028086e-09,-1.5795543862492e-09,1.7240809414335e-09,-4.3555010065535e-09,-0.0017410616913804,0.0017410590487895,-0.0015667444021546,0.0015667359404166,-0.0017535869290642,0.0017535867542891,-0.0017535876740558,0.0017535865142728,-0.0017266155452138,0.0017266150856765,-0.0017266175427925,0.0017266130685502,-0.0017266157748955,0.0017266150185362,-0.0017266177727375,0.0017266130034226,-0.0015667386134268,0.001566741812279,-0.0015667445926852,0.0015667358415106,-0.0017535889505745,0.0017535847414643,-0.0017535896976608,0.0017535845071469,-0.0015667384207327,0.0015667419208711,-4.3946750369222e-09,3.9207605516329e-09,-0.00094359978345976,0.00094359930867568,-3.2844275511546e-09,2.808315481955e-09,-0.00064773901444176,0.00064773640271287,-0.00080029643098963,0.00080030469137999,-0.00080029917508425,0.00080030191722712,-0.0006477368425,0.00064773850954976,-0.00064774512482336,0.00064773053732626,-0.00080030237179669,0.00080029866215076,-0.00080030521739338,0.0008002959815129,-0.0012321906528073,0.0012321853815805,-0.0012321885647914,0.0012321873502985,-0.0012321878399808,0.0012321881201103,-0.0012321858275911,0.0012321901606451,-0.0011233668027416,0.0011233765060284,-0.0011233749382079,0.0011233683456626,-0.0011233770644137,0.0011233664030687,-0.0011233688057496,0.0011233744398,-0.00064773093310509,0.00064774455756267,0.73556804787044,129794,2964,0.0044536757924939,0.0072250804494833,0.0039270242691853,34.974102167272,3.9792817338177e-05,3.9792817338177e-05,3.9792817338177e-05,3823636.0735803,0.015729885326951
35391759,0.90616472442007,0.015993778311535,0.0048896286125601,0.0065172994698452,0.0045868502291299,-0.001078140750977,0.0010781371354217,2.4110941469347e-09,-5.9789868270566e-09,-2.2246458853306e-09,-1.6106627753284e-09,-0.00044179857012538,0.00044178711655043,-0.00067250426544526,0.00067250383234794,-0.00067250705468334,0.00067250104503527,-0.0004417908228023,0.00044179482294002,-0.00044179902145844,0.00044178662745942,-0.00067250489708476,0.00067250317562096,-0.00067250765555434,0.00067250035875573,-0.0013865214876024,0.0013865206298865,-0.0013865242892341,0.0013865178331969,-0.0013865214466247,0.0013865208413498,-0.0013865242475119,0.001386518044173,-0.0012613687145023,0.0012613735581199,-0.0012613769431652,0.0012613653440454,-0.001261368825717,0.0012613733857174,-0.0012613770481074,0.0012613651662914,-0.00044179039194549,0.00044179533708675,-1.2401453667633e-09,-1.5766358338612e-09,1.77300283787e-09,-4.4425431515805e-09,-0.0017555142350109,0.0017555115546999,-0.0015796904602569,0.0015796818143536,-0.0017673542372254,0.0017673540351805,-0.0017673549432793,0.001767353839145,-0.0017413135874855,0.0017413131180117,-0.00174131563025,0.0017413110582704,-0.0017413138022828,0.0017413130664142,-0.0017413158445432,0.0017413110044427,-0.0015796845145243,0.0015796878217178,-0.0015796906281633,0.0015796817136456,-0.0017673563138815,0.0017673519804325,-0.0017673570115169,0.0017673517713249,-0.0015796843405534,0.0015796879158947,-4.4322270193636e-09,3.9623471935425e-09,-0.00095006842957006,0.00095006795821178,-3.3527607055556e-09,2.8805502649525e-09,-0.00065115118982258,0.00065114864460584,-0.00080504589707948,0.00080505432133775,-0.00080504866629308,0.00080505151794078,-0.00065114907486579,0.00065115069011971,-0.00065115744222986,0.00065114264557654,-0.00080505197272198,0.00080504815114747,-0.00080505484792967,0.00080504544327288,-0.0012414855803711,0.0012414802375762,-0.0012414834440376,0.0012414822513321,-0.0012414827402039,0.0012414830026855,-0.0012414806822708,0.0012414850901443,-0.0011315420317096,0.0011315518651526,-0.0011315502440164,0.0011315436287691,-0.001131552423877,0.0011315416433598,-0.0011315440804192,0.0011315497538769,-0.00065114303820641,0.0006511568767272,0.71497033847834,129794,2964,0.0044867982479372,0.0072847988941162,0.0039539303148651,35.839360154193,4.6714881233544e-05,4.6714881233544e-05,4.6714881233544e-05,3837255.4873675,0.015851551079556
35591759,0.91213804240988,0.016089552487142,0.0049189947588717,0.0065579048359662,0.0046126528923036,-0.0010853082021839,0.001085304525571,2.421074928117e-09,-6.0492044549857e-09,-2.1864740967172e-09,-1.717306446761e-09,-0.00044410778004085,0.00044409603644823,-0.00067596244513896,0.00067596183048451,-0.00067596526211701,0.00067595901261625,-0.0004440998014745,0.00044410396578245,-0.00044410808967338,0.00044409568971594,-0.00067596293142986,0.00067596131396214,-0.0006759657205621,0.00067595846859636,-0.0013964009628463,0.0013964001250031,-0.001396403790683,0.0013963973008232,-0.0013964009744229,0.0013964002879884,-0.0013964038019639,0.0013963974637852,-0.0012696718262669,0.0012696766399453,-0.0012696801352973,0.0012696683481874,-0.0012696718890919,0.001269676514653,-0.001269680193452,0.001269668218716,-0.00044409952203628,0.00044410433815479,-1.3285659861034e-09,-1.5279619500171e-09,1.7959321260909e-09,-4.5020609535657e-09,-0.0017687614401053,0.0017687587235599,-0.0015913770830376,0.0015913682734575,-0.0017797123587967,0.0017797120069403,-0.0017797129367448,0.0017797119503047,-0.0017549856049399,0.0017549850884068,-0.0017549876758545,0.001754982998643,-0.0017549857806522,0.0017549850820511,-0.0017549878510873,0.0017549829933124,-0.0015913710129819,0.0015913744075853,-0.0015913772134344,0.0015913682301308,-0.0017797144546459,0.001779709920582,-0.0017797150323668,0.0017797098667943,-0.0015913708811798,0.0015913744570262,-4.4751022183167e-09,4.0012005516873e-09,-0.00095589082706917,0.00095589035193002,-3.3956540299036e-09,2.9177378583222e-09,-0.00065401624879949,0.00065401369426286,-0.00080905632936303,0.00080906485369143,-0.00080905912464417,0.00080906202223996,-0.00065401413730557,0.00065401574147174,-0.0006540225793818,0.0006540076174967,-0.00080906248098696,0.0008090586032092,-0.00080906538082096,0.00080905587081888,-0.0012499932972997,0.0012499878989196,-0.0012499911325682,0.0012499899377368,-0.0012499904285749,0.0012499906890349,-0.001249988344328,0.0012499928040838,-0.0011388250924899,0.0011388350293604,-0.0011388333849454,0.0011388267106523,-0.0011388355907357,0.0011388246968686,-0.0011388271705512,0.0011388328890266,-0.00065400801587189,0.00065402201118879,0.6807734865904,129794,2964,0.0045166016408385,0.0073395334799565,0.0039781499632083,36.485407615856,5.1883260926845e-05,5.1883260926845e-05,5.1883260926845e-05,3853312.3813102,0.015962065758859
35791759,0.91794480141796,0.016188059007623,0.0049490955393481,0.0065996295960237,0.0046393338722516,-0.001092615633316,0.0010926119005379,2.4337761922197e-09,-6.117100691067e-09,-2.1567619585056e-09,-1.8073418430355e-09,-0.00044724913072265,0.00044723713081471,-0.00068005511170651,0.0006800543454814,-0.00068005795526165,0.00068005150003958,-0.00044724095429611,0.00044724525862734,-0.00044724931837281,0.00044723690324768,-0.00068005547677249,0.00068005394322601,-0.00068005829207532,0.00068005107052148,-0.0014061773174697,0.0014061764944105,-0.0014061801721861,0.0014061736433545,-0.0014061773739434,0.0014061766177301,-0.0014061802285706,0.001406173766671,-0.0012781502421914,0.00127815504062,-0.0012781586310314,0.0012781466703053,-0.0012781502672862,0.0012781549561236,-0.0012781586498664,0.0012781465811956,-0.0004472407939464,0.00044724551232429,-1.4138752703751e-09,-1.4811136681044e-09,1.8169606628894e-09,-4.5537058828182e-09,-0.0017818426837789,0.0017818399342841,-0.0016032988861763,0.0016032899349041,-0.0017917632545975,0.0017917627566765,-0.0017917637040914,0.001791762831764,-0.0017684611745567,0.0017684606088843,-0.0017684632698632,0.0017684584952305,-0.0017684613107465,0.0017684606463662,-0.0017684634058601,0.0017684585337283,-0.0016032927088201,0.0016032961877586,-0.0016032989773051,0.0016032899355983,-0.0017917653748211,0.0017917606475187,-0.0017917658249154,0.001791760724841,-0.0016032926158581,0.0016032961932512,-4.5172710818295e-09,4.0394488995795e-09,-0.00096193443867688,0.00096193395955067,-3.4345268726848e-09,2.9531981411116e-09,-0.00065781284532322,0.00065781028284429,-0.00081354448735322,0.00081355310887751,-0.00081354730981657,0.00081355025272347,-0.00065781072530968,0.00065781233429795,-0.00065781925451871,0.00065780413812909,-0.00081355071265212,0.00081354678682916,-0.00081355364386798,0.0008135440314532,-0.0012583943677397,0.00125838891372,-0.0012583921779725,0.0012583909768031,-0.0012583914715875,0.0012583917304526,-0.0012583893634742,0.0012583938705818,-0.0011463564427172,0.0011463664780657,-0.0011463648144443,0.0011463580815238,-0.0011463670432743,0.0011463560424047,-0.0011463585433517,0.0011463643124857,-0.00065780453378131,0.00065781867587051,0.72027366278442,129794,2964,0.0045469771536294,0.0073935793766189,0.0040032812715648,37.125705961779,5.7005647694236e-05,5.7005647694236e-05,5.7005647694236e-05,3874942.6156143,0.016073393557293
35991759,0.92357264197609,0.016289448348073,0.0049799460109753,0.0066425963345369,0.0046669060025613,-0.0010999706515462,0.0010999670498194,2.5385239917757e-09,-6.0928579782828e-09,-1.9511841863095e-09,-1.8702507104775e-09,-0.00045012175121381,0.0004501095540569,-0.00068424094630223,0.00068424008710412,-0.00068424381614906,0.00068423721454766,-0.00045011323999804,0.00045011801345179,-0.00045012168498995,0.000450109581215,-0.00068424104928098,0.00068423994328241,-0.00068424389226783,0.00068423704474435,-0.0014159879998751,0.0014159874207088,-0.0014159908821518,0.0014159845433906,-0.0014159881467256,0.0014159874555539,-0.0014159910283482,0.0014159845777508,-0.0012869740408642,0.0012869789575953,-0.0012869825098181,0.001286970509445,-0.0012869739786504,0.0012869789609003,-0.0012869824416888,0.0012869705085381,-0.00045011333559343,0.0004501180142584,-1.5563484429763e-09,-1.3608185623645e-09,1.8021363128183e-09,-4.5567899080804e-09,-0.0017952112338116,0.0017952084657168,-0.0016156443828612,0.0016156353368184,-0.0018046015388642,0.0018046007580926,-0.0018046017184781,0.001804601074735,-0.0017818875726502,0.0017818868919748,-0.0017818896575281,0.0017818847815056,-0.0017818876122554,0.0017818870136767,-0.0017818896968706,0.001781884904209,-0.0016156381330309,0.0016156416713689,-0.0016156443852036,0.0016156354209054,-0.0018046036520312,0.0018045986522982,-0.0018046038322909,0.0018045989711489,-0.0016156381289935,0.0016156415935078,-4.5149150059678e-09,4.1223992852375e-09,-0.00096791718704626,0.0009679167944134,-3.3790467329252e-09,2.9914946120691e-09,-0.00066158163994584,0.00066157907710222,-0.00081817813462627,0.00081818686165645,-0.00081818098394666,0.00081818397894561,-0.00066157943340741,0.00066158122217593,-0.00066158803728992,0.00066157294391369,-0.00081818434696383,0.0008181805532114,-0.00081818730430787,0.00081817777073242,-0.0012667880635415,0.0012667826726845,-0.0012667858797002,0.001266784729865,-0.0012667851412748,0.0012667855171809,-0.0012667830389823,0.0012667876511953,-0.0011540967285364,0.0011541069213696,-0.0011541051785626,0.0011540984450291,-0.0011541074000981,0.0011540964096577,-0.0011540988245616,0.0011541047620423,-0.00066157325221502,0.00066158755105339,0.76499783197147,129794,2964,0.0045775572586726,0.0074488086097479,0.0040281638786053,37.765768258962,6.2126146071699e-05,6.2126146071699e-05,6.2126146071699e-05,3882993.2241383,0.016185892530307
36191759,0.92886004770117,0.016382016247004,0.0050081579858918,0.0066818478002516,0.0046920104608604,-0.0011057711618669,0.0011057674945158,2.5445500449781e-09,-6.164578228249e-09,-1.7166546759662e-09,-2.1753747925874e-09,-0.00045113289627456,0.00045112002116089,-0.00068673939450309,0.00068673795917694,-0.00068674229307073,0.00068673506593688,-0.00045112376645393,0.00045112909111709,-0.0004511322991565,0.00045112057563128,-0.00068673897149413,0.00068673834986296,-0.00068674184344505,0.00068673542560237,-0.0014242256654023,0.0014242252282539,-0.0014242285738467,0.0014242223239969,-0.0014242259940647,0.0014242250822981,-0.0014242289006795,0.0014242221789167,-0.0012941453854143,0.001294150134205,-0.0012941539212943,0.0012941416067048,-0.0012941451369386,0.0012941503170887,-0.0012941536733374,0.0012941417821048,-0.00045112440234037,0.00045112855434126,-1.8173649254549e-09,-1.0990548469579e-09,1.718584987151e-09,-4.4789739345449e-09,-0.0018068520926328,0.0018068493249201,-0.0016261585656818,0.0016261494966566,-0.001816060789745,0.0018160594568445,-0.0018160604723836,0.001816060291454,-0.0017935047979894,0.001793503896009,-0.0017935068331958,0.0017935018375325,-0.0017935046658036,0.0017935041910614,-0.0017935066990279,0.0017935021330973,-0.001626152268507,0.0016261558033322,-0.001626158378882,0.0016261497333659,-0.0018160628525007,0.0018160573967532,-0.0018160625298911,0.0018160582344462,-0.0016261524534401,0.0016261555614199,-4.5635824231932e-09,4.1565312646171e-09,-0.00097232678256084,0.00097232637395148,-3.3063049872753e-09,2.8963131178393e-09,-0.00066332827872764,0.00066332543989478,-0.00082114610715091,0.00082115466306848,-0.00082114897810383,0.00082115173764093,-0.0006633258327986,0.00066332783328385,-0.0006633344865369,0.00066331947081599,-0.00082115214058447,0.00082114850707596,-0.00082115510846503,0.00082114568868858,-0.0012736980333334,0.0012736926549691,-0.0012736959045179,0.0012736946561561,-0.0012736950835316,0.001273695526402,-0.0012736930357314,0.001273697606205,-0.001160192574406,0.0011602027845968,-0.001160201111418,0.0011601942316445,-0.0011602032799942,0.0011601922540991,-0.0011601946204237,0.0011602006818903,-0.00066331981741643,0.00066333401171281,0.7436084903538,129794,2964,0.0046016914604898,0.0074968945881144,0.0040465191986514,37.870089392266,6.2960715138129e-05,6.2960715138129e-05,6.2960715138129e-05,3871546.587796,0.016277964069087
36391759,0.93371234753181,0.016465897675734,0.0050337615928998,0.0067173834990714,0.0047147525837628,-0.0011103219194871,0.0011103181778145,2.5477517895199e-09,-6.2411769184175e-09,-1.4286474772855e-09,-2.5363823646569e-09,-0.00045168298755963,0.00045166933487807,-0.00068841483358023,0.00068841270815818,-0.00068841775155989,0.00068840980059024,-0.00045167316234982,0.00045167912333489,-0.00045168174707538,0.00045167053118156,-0.0006884137814225,0.00068841374115839,-0.00068841666468704,0.00068841078860829,-0.0014309074370421,0.0014309071694176,-0.0014309103740638,0.001430904239424,-0.0014309079868918,0.0014309068059677,-0.0014309109204452,0.001430903877545,-0.0012997744022901,0.001299778937786,-0.0012997830135068,0.0012997703342779,-0.0012997739361142,0.001299779343361,-0.0012997825487556,0.0012997707266178,-0.00045167442518667,0.00045167792483377,-2.1387882838978e-09,-7.7562810183839e-10,1.5990574619142e-09,-4.3512122012482e-09,-0.0018164812183304,0.0018164784526504,-0.0016348860876623,0.0016348770581267,-0.0018252929191962,0.0018252908808229,-0.0018252919735235,0.0018252923484897,-0.0018032663193343,0.0018032651124534,-0.0018032682727833,0.0018032631430165,-0.0018032659698,0.0018032656227466,-0.0018032679202926,0.001803263647506,-0.0016348798333236,0.001634883352519,-0.0016348856823881,0.0016348774958876,-0.0018252949220944,0.0018252889130802,-0.0018252939481413,0.0018252903497602,-0.0016348802177827,0.0016348828884672,-4.6142142217721e-09,4.1853195818009e-09,-0.00097564169564143,0.00097564126527237,-3.1901509915035e-09,2.7628382497431e-09,-0.00066435068962133,0.00066434751659135,-0.00082306907685622,0.00082307740239454,-0.00082307198136984,0.0008230744588645,-0.00066434791374311,0.00066435023266038,-0.0006643566712881,0.00066434181236514,-0.000823074876628,0.00082307149578088,-0.00082307789079794,0.00082306866186319,-0.0012791841518772,0.0012791788060411,-0.001279182108059,0.0012791807224079,-0.0012791811763405,0.001279181705416,-0.0012791792137173,0.00127918370137,-0.001164908510399,0.0011649186951345,-0.0011649171271824,0.0011649100626757,-0.0011649192143552,0.0011649081731349,-0.0011649104716305,0.0011649166778497,-0.00066434214772758,0.00066435615587072,0.73413358452597,129794,2964,0.0046206294831701,0.0075366658308065,0.004060322777893,37.543315721401,6.0346525771208e-05,6.0346525771208e-05,6.0346525771208e-05,3859657.7716614,0.016351680953523
36591759,0.93816605115902,0.016538380837256,0.0050559889506758,0.0067480604248096,0.0047343314617706,-0.0011141985460657,0.0011141947302413,2.5523637959204e-09,-6.3189768940346e-09,-1.2171887295875e-09,-2.8333933469693e-09,-0.00045188694371019,0.00045187262256413,-0.00068956111455647,0.00068955843827851,-0.00068956406374164,0.00068955549049142,-0.00045187652308586,0.00045188298660804,-0.00045188520204816,0.00045187432133308,-0.00068955955066307,0.00068955996031236,-0.00068956247106147,0.00068955698134528,-0.001436747998872,0.0014367478605311,-0.0014367509617193,0.0014367449027849,-0.0014367487218256,0.0014367473298334,-0.0014367516833603,0.0014367443720378,-0.001304459548158,0.001304463925221,-0.0013044682490275,0.0013044552400462,-0.0013044589203098,0.0013044644956917,-0.0013044676179787,0.0013044558053401,-0.00045187829551384,0.00045188130954527,-2.4282656699741e-09,-5.2518219796715e-10,1.4646860219504e-09,-4.2447397236924e-09,-0.0018248703446527,0.0018248675497201,-0.0016423003782034,0.0016422913832602,-0.0018331762006816,0.0018331735041445,-0.0018331747319877,0.0018331755081297,-0.0018119185048565,0.0018119170236555,-0.0018119203797118,0.0018119151303656,-0.0018119179872936,0.0018119177122479,-0.0018119198606925,0.0018119158177489,-0.0016422941978921,0.0016422976324132,-0.0016422998186555,0.0016422920279763,-0.0018331781038149,0.0018331716136355,-0.0018331766304764,0.0018331736150356,-0.0016422947526354,0.0016422969894099,-4.6682295299834e-09,4.2112442797309e-09,-0.00097845532981388,0.00097845487218651,-3.0896140802765e-09,2.6313936504242e-09,-0.00066496147154845,0.00066495796334793,-0.00082448630451617,0.00082449440048384,-0.0008244892331791,0.00082449143453203,-0.00066495839211579,0.00066496098667172,-0.00066496723088245,0.00066495247831444,-0.00082449187297483,0.00082448872728255,-0.0008244949126024,0.00082448586767801,-0.0012839896729766,0.0012839843527646,-0.0012839877041889,0.0012839861923813,-0.0012839866686243,0.0012839872768326,-0.0012839847839179,0.0012839891962477,-0.0011688500052977,0.0011688601580648,-0.0011688586990437,0.001168851448348,-0.0011688607004003,0.0011688496267584,-0.0011688518872581,0.0011688582166951,-0.00066495285078335,0.00066496667782053,0.69114506598876,129794,2964,0.0046367627970993,0.0075713142943259,0.0040720411694562,37.205131115928,5.7641048927425e-05,5.7641048927425e-05,5.7641048927425e-05,3851719.1418623,0.016415225216679
36791759,0.94225717531009,0.016603083962998,0.0050758842743344,0.006775406493421,0.0047517931952431,-0.0011176740047125,0.0011176701311602,2.5645051079234e-09,-6.387571401343e-09,-1.0371476527629e-09,-3.0766056909698e-09,-0.00045252465254373,0.00045250977267603,-0.00069074239895136,0.00069073927125099,-0.0006907453754467,0.00069073629607809,-0.00045251373356004,0.00045252063374384,-0.00045252249212056,0.0004525118879931,-0.00069074041617707,0.00069074120408458,-0.00069074336391525,0.00069073819851199,-0.0014419044958663,0.0014419044751951,-0.0014419074853287,0.0014419014902984,-0.0014419053707873,0.0014419038036949,-0.0014419083591609,0.0014419008189374,-0.001308470060854,0.0013084743217247,-0.0013084788403637,0.0013084655569392,-0.0013084692940127,0.0013084750328435,-0.0013084780703841,0.0013084662637466,-0.000452515924248,0.00045251854109898,-2.6778505195636e-09,-3.3860799524347e-10,1.3390021807959e-09,-4.1703628995886e-09,-0.0018321220729978,0.0018321192252858,-0.0016487153535464,0.0016487063644433,-0.0018395668597256,0.0018395636150926,-0.0018395649734238,0.0018395660464907,-0.0018196425295795,0.001819640790725,-0.0018196443393238,0.0018196389635284,-0.0018196418737542,0.0018196416229075,-0.0018196436823717,0.0018196397954345,-0.0016487092296997,0.0016487125576869,-0.0016487146544227,0.0016487071511057,-0.0018395686968199,0.0018395617910529,-0.001839566807,0.0018395642207221,-0.0016487099246425,0.0016487117721357,-4.7180279325514e-09,4.2417108918204e-09,-0.00098108515404382,0.00098108467672317,-3.001021666872e-09,2.5213368541453e-09,-0.00066592540522875,0.00066592160241921,-0.00082584150965861,0.00082584941585192,-0.00082584446434725,0.0008258464228476,-0.00066592204990281,0.00066592489868352,-0.00066593097372369,0.00066591631786534,-0.00082584688175231,0.00082584393738109,-0.00082584995066594,0.00082584105400878,-0.0012882465094304,0.0012882412098414,-0.0012882446058223,0.0012882429819774,-0.0012882434767045,0.0012882441592996,-0.0012882416594932,0.0012882460133456,-0.0011723175580326,0.0011723277032944,-0.0011723263321601,0.0011723189173221,-0.0011723282661381,0.0011723171614449,-0.001172319371757,0.0011723258272401,-0.00066591670777565,0.00066593039656148,0.67162364306883,129794,2964,0.0046512178004595,0.0076012638367541,0.0040829875815904,36.866476824668,5.4931814597342e-05,5.4931814597342e-05,5.4931814597342e-05,3855503.1644647,0.016471500799598
36991759,0.94610803836787,0.016667565735667,0.0050956422765105,0.0068026304368352,0.004769293022321,-0.001121909278548,0.0011219053667921,2.586267304368e-09,-6.4464797242048e-09,-9.3276465890054e-10,-3.2215745469178e-09,-0.00045431775696748,0.00045430251623727,-0.0006929931373482,0.00069298975085504,-0.00069299613883029,0.00069298674775331,-0.00045430651478599,0.00045431370063128,-0.00045431534883286,0.00045430487446747,-0.00069299090384015,0.00069299192255036,-0.00069299387765819,0.00069298888918044,-0.001447669892915,0.0014476699520262,-0.0014476729094169,0.0014476669401997,-0.0014476708655688,0.0014476691982019,-0.0014476738810535,0.0014476661866766,-0.0013133436362995,0.0013133478558936,-0.0013133524970641,0.0013133390135825,-0.0013133427899923,0.0013133486522472,-0.0013133516452831,0.0013133398044024,-0.00045430895186218,0.00045431136299062,-2.8512897651137e-09,-2.5095022432673e-10,1.2560040654968e-09,-4.1540336357994e-09,-0.0018399468649846,0.0018399439457503,-0.0016558988659173,0.001655889829109,-0.0018465390546157,0.0018465354441991,-0.0018465369192149,0.0018465381261279,-0.0018278540508656,0.0018278521246276,-0.0018278558283047,0.0018278503316683,-0.0018278533122253,0.0018278530414259,-0.0018278550883239,0.0018278512478216,-0.0016558927730324,0.0016558960230819,-0.0016558980912282,0.0016558907056091,-0.0018465408594382,0.0018465336562992,-0.0018465387206431,0.0018465363351925,-0.0016558935411503,0.0016558951510834,-4.7624040250099e-09,4.2774569777726e-09,-0.00098453458272689,0.00098453409703016,-2.9546104531843e-09,2.468442709862e-09,-0.00066811777947753,0.00066811379672284,-0.00082826385997222,0.00082827169312546,-0.00082826684328313,0.00082826867848653,-0.00066811424603747,0.00066811726831528,-0.0006681232622302,0.00066810861955663,-0.00082826913995506,0.00082826631695429,-0.00082827224418047,0.00082826341362646,-0.0012931307535541,0.0012931254515882,-0.0012931288824782,0.0012931271893773,-0.0012931276930758,0.0012931284270727,-0.0012931259101741,0.0012931302483151,-0.0011766417087148,0.0011766518884832,-0.0011766505618972,0.0011766430241426,-0.0011766524581773,0.0011766413001209,-0.0011766434856149,0.0011766500444068,-0.00066810900350956,0.00066812266577979,0.71099418105297,129794,2964,0.0046688206956045,0.0076335818850398,0.004097331592571,36.972964334465,5.5783714675721e-05,5.5783714675721e-05,5.5783714675721e-05,3868814.0044482,0.016536837222072
37191759,0.94977186771524,0.016732625144666,0.0051154948959452,0.0068301106559193,0.0047870195928016,-0.0011264522079784,0.0011264482639497,2.6099993203418e-09,-6.5019256525168e-09,-8.5172643528323e-10,-3.3379613345872e-09,-0.0004559724136572,0.00045595686833686,-0.00069543659553837,0.00069543300591291,-0.00069543962390028,0.00069542997600605,-0.00045596090052234,0.00045596832111658,-0.00045596980994626,0.00045595941969552,-0.0006954341639854,0.00069543536667235,-0.00069543716374992,0.00069543230721834,-0.0014537988698277,0.0014537989985919,-0.0014538019125731,0.0014537959602792,-0.0014537999262582,0.0014537981798617,-0.0014538029683856,0.0014537951417214,-0.0013188083750606,0.0013188125770577,-0.0013188173137518,0.0013188036565033,-0.0013188074658374,0.0013188134384237,-0.0013188163982402,0.0013188045132463,-0.00045596353124281,0.00045596579288873,-3.0064206616184e-09,-1.7792494835687e-10,1.2025813906809e-09,-4.1668687343642e-09,-0.0018483771359091,0.0018483741485051,-0.0016637039683312,0.0016636948359055,-0.0018546375887669,0.0018546336697618,-0.0018546352383433,0.0018546365727563,-0.0018363499251209,0.0018363478473709,-0.0018363516893978,0.0018363460680802,-0.0018363491152611,0.0018363488375818,-0.0018363508784002,0.0018363470574174,-0.0016636978439083,0.0016637010591842,-0.0016637031246173,0.0016636957838048,-0.0018546393792954,0.0018546318950942,-0.0018546370268916,0.0018546347954311,-0.0016636986830351,0.0016637001160944,-4.805424194288e-09,4.316239171562e-09,-0.00098818789359593,0.00098818740354845,-2.9380932554627e-09,2.4467039263111e-09,-0.00067034446679384,0.00067034035991195,-0.00083101465477713,0.00083102247159015,-0.00083101766370881,0.00083101942858331,-0.00067034081565029,0.00067034395200589,-0.0006703499186709,0.00067033522629746,-0.00083101989544985,0.00083101713199233,-0.00083102302920104,0.00083101420342378,-0.0012983527606342,0.0012983474399912,-0.001298350901632,0.001298349164585,-0.0012983496720487,0.001298350442207,-0.0012983479027024,0.00129835225108,-0.001181394439023,0.0011814046820814,-0.0011814033739362,0.0011813957397514,-0.0011814052547114,0.0011813940248436,-0.0011813962024114,0.0011814028503881,-0.00067033561462892,0.00067034931324457,0.75399384121917,129794,2964,0.004687708746663,0.007668400727489,0.004112526994345,37.297080626587,5.8376645012696e-05,5.8376645012696e-05,5.8376645012696e-05,3871944.7080691,0.016606895579792
37391759,0.9532533218559,0.016791816423472,0.0051336008775777,0.0068551269206419,0.0048030886252524,-0.0011305742347794,0.0011305702493886,2.6301940350541e-09,-6.5629194544921e-09,-7.2857305153457e-10,-3.5066182738805e-09,-0.00045668512386871,0.00045666916600939,-0.00069716308837693,0.00069715919320125,-0.00069716614494286,0.00069715613742755,-0.00045667323827158,0.00045668098474769,-0.00045668223090576,0.00045667200199472,-0.00069716036756902,0.00069716183725876,-0.00069716339494908,0.00069715875092708,-0.0014596273181173,0.0014596275405168,-0.0014596303878736,0.0014596244749062,-0.0014596284909619,0.0014596266252023,-0.0014596315600041,0.0014596235600751,-0.0013238917187899,0.0013238958642243,-0.0013239007352886,0.001323886863035,-0.0013238907118459,0.0013238968215057,-0.0013238997243195,0.0013238878164226,-0.00045667615854111,0.0004566781697439,-3.1927105975887e-09,-7.0229082468855e-11,1.1682895872536e-09,-4.1971383478109e-09,-0.0018565436999388,0.0018565406475562,-0.0016710363212858,0.0016710270355931,-0.0018628413852021,0.001862837112542,-0.0018628387589585,0.0018628403017213,-0.001844448893517,0.0018444466589538,-0.0018444506563929,0.0018444448800716,-0.0018444479918011,0.0018444477442665,-0.0018444497535791,0.0018444459651541,-0.0016710301007969,0.0016710333371724,-0.0016710353829601,0.0016710280723969,-0.001862843174405,0.0018628353368238,-0.0018628405456905,0.0018628385247236,-0.0016710310354505,0.0016710323030244,-4.8461166274746e-09,4.3553772448619e-09,-0.00099136157983031,0.00099136108803878,-2.9372869753532e-09,2.4424101909708e-09,-0.00067155607399092,0.00067155187944335,-0.00083318965642108,0.00083319748853802,-0.00083319268883877,0.00083319441393644,-0.0006715523435608,0.00067155555548627,-0.000671561521296,0.0006715467554974,-0.00083319488740812,0.00083319214937487,-0.0008331980456505,0.00083318919465942,-0.0013033126602862,0.0013033073136546,-0.0013033108023693,0.0013033090359616,-0.0013033095443442,0.0013033103416217,-0.0013033077773295,0.0013033121497411,-0.0011856859962271,0.0011856963158093,-0.0011856950122408,0.0011856872979865,-0.001185696889973,0.0011856855818367,-0.0011856877591902,0.0011856944850419,-0.0006715471491439,0.00067156091726464,0.72209467393933,129794,2964,0.0047048585282151,0.007702129228903,0.0041257373239945,37.627019768227,6.1016158145819e-05,6.1016158145819e-05,6.1016158145819e-05,3863782.2118414,0.0166720709799
37591759,0.95655619447684,0.016845742461714,0.0051501449003886,0.0068779076926575,0.004817689868668,-0.0011344346312553,0.0011344305968077,2.6465107757066e-09,-6.6271862892432e-09,-5.7744717389992e-10,-3.7112061736253e-09,-0.00045771087141979,0.00045769443340533,-0.0006988744886544,0.00069887021700405,-0.00069887757212713,0.00069886713441138,-0.00045769855460324,0.00045770667919042,-0.00045770762600993,0.00045769761778348,-0.00069887141399051,0.00069887320522095,-0.00069887446814178,0.00069887009210221,-0.0014650537280452,0.0014650540587463,-0.0014650568246893,0.0014650509661925,-0.001465055040948,0.001465053025866,-0.0014650581369069,0.0014650499338647,-0.0013284866238759,0.0013284906843078,-0.0013284957191782,0.0013284816037012,-0.0013284855011071,0.0013284917593966,-0.0013284945927222,0.0013284826756022,-0.00045770182706428,0.00045770351601065,-3.4223484038996e-09,7.1943991928813e-11,1.1397113719786e-09,-4.2373002501176e-09,-0.0018639928269523,0.0018639897031161,-0.0016777251846056,0.0016777157022475,-0.0018699903845363,0.001869985677613,-0.0018699874070495,0.0018699892289721,-0.0018520326535032,0.0018520302346972,-0.0018520344200495,0.0018520284518887,-0.0018520316352156,0.0018520314411987,-0.0018520334007088,0.0018520296582635,-0.0016777188364781,0.0016777221332817,-0.0016777241302813,0.0016777168575242,-0.0018699921775344,0.0018699838980692,-0.0018699891977405,0.001869987448339,-0.0016777198873197,0.0016777209807204,-4.8855270551344e-09,4.396272935056e-09,-0.00099439874944438,0.00099439825911445,-2.9424273202034e-09,2.4490659278985e-09,-0.00067287665710293,0.00067287239749293,-0.00083522698112146,0.0008352348528347,-0.00083523003885135,0.00083523175034349,-0.00067287286175217,0.00067287614179062,-0.00067288212470384,0.00067286727039628,-0.00083523222269321,0.00083522950109185,-0.00083523541073215,0.00083522652300093,-0.0013079453781195,0.0013079400022928,-0.0013079435154392,0.001307941727542,-0.00130794223429,0.0013079430561015,-0.001307940464321,0.0013079448687983,-0.0011896137589041,0.0011896241624004,-0.0011896228549302,0.0011896150673069,-0.0011896247352001,0.0011896133458858,-0.0011896155242142,0.0011896223263915,-0.00067286765782473,0.00067288151746219,0.69345403953399,129794,2964,0.0047209141043026,0.0077328931274866,0.004138374601137,37.957199025478,6.3657592203825e-05,6.3657592203825e-05,6.3657592203825e-05,3865041.5828721,0.016732537869526
37791759,0.95961193262203,0.016893913960243,0.0051649615408681,0.0068982477197799,0.0048307046995949,-0.0011372077866633,0.0011372036874214,2.6550833966718e-09,-6.6993909734397e-09,-3.194684057242e-10,-4.0329774004411e-09,-0.00045827830486426,0.00045826116107598,-0.00069985054444579,0.00069984565972203,-0.00069985365186559,0.00069984256360777,-0.00045826534929906,0.0004582740566893,-0.00045827448100481,0.00045826491538546,-0.00069984690741846,0.00069984922035614,-0.00069984997616938,0.00069984608036457,-0.0014691396171896,0.001469140112649,-0.0014691427420564,0.001469136993274,-0.001469141146349,0.0014691388860194,-0.00146914426947,0.0014691357683322,-0.0013317053041197,0.001331709186924,-0.0013317144698669,0.0013317000255796,-0.0013317039828467,0.0013317104592243,-0.0013317131478018,0.001331701289108,-0.00045826918495474,0.00045827030434382,-3.7529699265214e-09,3.2425098391384e-10,1.0944349715864e-09,-4.2546698521306e-09,-0.001869714841521,0.0018697116524885,-0.0016828246385626,0.0016828149354422,-0.001875132268101,0.0018751269313638,-0.0018751287342406,0.0018751310481551,-0.0018580756834516,0.0018580729924836,-0.0018580774398773,0.001858071224768,-0.0018580744719408,0.0018580743910613,-0.0018580762255687,0.001858072615439,-0.001682818117416,0.0016828215092197,-0.0016828233768978,0.0016828162462752,-0.0018751340716983,0.0018751251639362,-0.0018751305131961,0.0018751292479781,-0.0016828193617865,0.0016828201695101,-4.923148827907e-09,4.4368565323138e-09,-0.00099651662137806,0.00099651613334006,-2.9253491726294e-09,2.4359265513398e-09,-0.00067368061722838,0.00067367625569069,-0.00083638193017255,0.00083638979793109,-0.00083638501357846,0.00083638666352812,-0.00067367671395822,0.00067368010777249,-0.0006736860615486,0.00067367117495693,-0.00083638714115615,0.00083638447036239,-0.00083639036200706,0.00083638146794614,-0.0013113511563961,0.0013113457640191,-0.0013113493042839,0.0013113474785053,-0.0013113479866517,0.0013113488446628,-0.0013113462271243,0.001311350647276,-0.001192379628452,0.0011923901065429,-0.0011923888074739,0.0011923809398074,-0.0011923906838363,0.001192379233047,-0.0011923813830401,0.0011923882816497,-0.00067367155064508,0.00067368545829549,0.66961884013984,129794,2964,0.0047324476620772,0.0077565216492631,0.0041471892397512,37.836168832273,6.2689350658183e-05,6.2689350658183e-05,6.2689350658183e-05,3867964.8131597,0.016777263550627
37991759,0.96242175258152,0.016939546938644,0.0051789735280924,0.0069174994901298,0.0048430739204215,-0.0011396399654508,0.0011396357810761,2.6573881827328e-09,-6.7836816234182e-09,-2.6308310769753e-11,-4.4205243176488e-09,-0.00045906063106994,0.00045904261755366,-0.00070086442538051,0.00070085881153205,-0.00070086756696817,0.00070085567633905,-0.0004590468760266,0.00045905627616988,-0.00045905612908265,0.00045904703917537,-0.00070086010440691,0.00070086302678991,-0.00070086321469696,0.00070085985986489,-0.0014726500667709,0.0014726507441155,-0.0014726532212308,0.0014726475982955,-0.0014726518456678,0.001472649296166,-0.001472654996252,0.001472646148347,-0.0013344850318197,0.0013344886971875,-0.0013344942885292,0.0013344794508366,-0.0013344834922792,0.0013344901931808,-0.0013344927481495,0.0013344809459765,-0.00045905139771756,0.00045905186925326,-4.1431184273407e-09,6.0447717638719e-10,1.0341212961609e-09,-4.2805935263208e-09,-0.0018746351922205,0.0018746319152307,-0.0016873189484075,0.0016873089784355,-0.0018793418262153,0.0018793357171739,-0.0018793376574316,0.0018793404995816,-0.0018633640317542,0.0018633610380536,-0.0018633657791848,0.0018633592767933,-0.0018633626132085,0.0018633626569851,-0.0018633643599928,0.0018633608944151,-0.0016873122488322,0.001687315731819,-0.0016873174912212,0.0016873105233049,-0.0018793436023426,0.0018793339587002,-0.0018793394249352,0.0018793387296103,-0.001687313701769,0.0016873141776144,-4.9598670161878e-09,4.4749698887416e-09,-0.00099840871652996,0.00099840822896634,-2.9103188815096e-09,2.4199947814571e-09,-0.00067472689834973,0.00067472246195233,-0.0008374781220797,0.00083748597519404,-0.00083748122290357,0.00083748281537512,-0.00067472291861105,0.00067472639428253,-0.00067473230851746,0.00067471739646346,-0.00083748329431665,0.00083748067950879,-0.00083748652543028,0.00083747764549444,-0.0013142448685085,0.0013142394619115,-0.0013142430290959,0.0013142411688854,-0.0013142416744774,0.0013142425693842,-0.0013142399261402,0.0013142443623869,-0.0011948130148467,0.0011948235557474,-0.0011948222631643,0.0011948143140437,-0.0011948241232906,0.0011948126099698,-0.0011948147618549,0.0011948217431962,-0.00067471777796967,0.00067473171725209,0.68978257923172,129794,2964,0.0047425578573635,0.0077768389192716,0.0041550605522502,37.59404404437,6.075235235496e-05,6.075235235496e-05,6.075235235496e-05,3874611.1207199,0.016816212673603
38191759,0.96500671590309,0.016981908182008,0.0051919720938214,0.0069353678280123,0.004854568260174,-0.0011418195118144,0.0011418152300695,2.6462705596038e-09,-6.8694464449206e-09,2.7633996320969e-10,-4.8313031459464e-09,-0.00045941300726923,0.00045939413896697,-0.00070161356505735,0.00070160716625634,-0.00070161672896528,0.00070160400477332,-0.00045939851077167,0.00045940855608266,-0.00045940781388166,0.00045939925791949,-0.00070160853286263,0.00070161207718906,-0.0007016116648836,0.00070160888283337,-0.001475873371583,0.0014758742355518,-0.0014758765497026,0.0014758710625162,-0.0014758754187763,0.0014758725499173,-0.0014758785955646,0.0014758693768396,-0.0013370765755507,0.0013370799802927,-0.0013370859069961,0.001337070661492,-0.0013370748015609,0.0013370817137702,-0.0013370841300021,0.0013370723922961,-0.00045940372978545,0.00045940345617596,-4.5913118602802e-09,9.3135714763066e-10,9.8050638763673e-10,-4.3155526702271e-09,-0.001879271243271,0.0018792678717078,-0.0016915200890961,0.0016915098031739,-0.0018835576168102,0.0018835506408128,-0.0018835527042672,0.0018835561746591,-0.0018682177261053,0.0018682143863376,-0.001868219465469,0.0018682126310886,-0.0018682160638787,0.0018682162571528,-0.0018682178019373,0.0018682145009014,-0.0016915131727629,0.0016915168039522,-0.0016915183883281,0.0016915116081102,-0.0018835593854642,0.0018835488887204,-0.0018835544681546,0.0018835544174354,-0.0016915148692089,0.0016915149982237,-5.0054655432981e-09,4.5160915775611e-09,-0.0010000437607819,0.0010000432697573,-2.9023668336579e-09,2.4084821927134e-09,-0.00067542810721056,0.0006754235404977,-0.00083837630817769,0.00083838417790146,-0.00083837944044034,0.00083838099085802,-0.000675424007718,0.00067542759818728,-0.00067543352092325,0.00067541851653766,-0.00083838146781942,0.00083837890217645,-0.00083838474417922,0.00083837585297498,-0.0013168914601447,0.0013168860300317,-0.0013168896269536,0.0013168877309327,-0.0013168882362263,0.0013168891638308,-0.0013168864942096,0.0013168909506965,-0.0011970274913759,0.0011970381031971,-0.0011970368326753,0.0011970287832275,-0.0011970386763211,0.001197027078559,-0.0011970292263829,0.0011970362918601,-0.00067541888864963,0.00067543290130812,0.69607506612872,129794,2964,0.0047516226859047,0.0077959825622653,0.0041618665636146,37.348596461077,5.8788771688613e-05,5.8788771688613e-05,5.8788771688613e-05,3874115.4626773,0.016851825302447
38391759,0.96739831287726,0.017022954625176,0.0052045303292097,0.0069526775648181,0.004865746731148,-0.0011440547758685,0.0011440504071381,2.6430890499438e-09,-6.9521012092861e-09,6.0271000394663e-10,-5.2455292406677e-09,-0.00045991238874684,0.00045989263844733,-0.0007025272250334,0.00070252003019239,-0.00070253040548282,0.0007025168532126,-0.00045989710641924,0.00045990785653243,-0.00045990645867261,0.00045989848638289,-0.00070252146010111,0.00070252566364472,-0.00070252460208556,0.00070252244088915,-0.0014790894413388,0.0014790905114422,-0.0014790926475966,0.0014790873127015,-0.0014790917770384,0.0014790885793797,-0.0014790949811511,0.0014790853816821,-0.0013397965412333,0.0013397996895447,-0.0013398059546083,0.001339790298897,-0.0013397945248658,0.0013398016772327,-0.0013398039341141,0.0013397922790742,-0.00045990304118319,0.00045990200792582,-5.0420339412064e-09,1.2526854652527e-09,9.3810491389176e-10,-4.3574541591994e-09,-0.0018838921597911,0.0018838886877233,-0.0016957938386327,0.0016957832291547,-0.0018879089102963,0.0018879010758993,-0.0018879032582516,0.0018879073543241,-0.001872954923163,0.0018729512213695,-0.0018729566586372,0.001872949475193,-0.0018729530104563,0.0018729533431857,-0.0018729547432622,0.0018729515894115,-0.001695786721939,0.0016957905319673,-0.0016957919012524,0.0016957852839831,-0.0018879107049039,0.0018878993405056,-0.0018879050221911,0.0018879055769514,-0.0016957886300964,0.0016957884617293,-5.044096115918e-09,4.5577379040591e-09,-0.0010017298238968,0.0010017293383231,-2.8920913371702e-09,2.4149528823274e-09,-0.00067626297753033,0.00067625835015275,-0.00083943190475856,0.00083943983444105,-0.00083943507769436,0.00083943663725452,-0.00067625878540438,0.00067626249254846,-0.00067626843463514,0.00067625336496306,-0.00083943708821487,0.00083943457522549,-0.00083944042911829,0.00083943152008886,-0.0013195431358606,0.0013195376830053,-0.0013195413073665,0.0013195393812993,-0.0013195398859612,0.0013195408447884,-0.0013195381483516,0.0013195426292269,-0.0011993234035406,0.0011993340923491,-0.0011993328262218,0.0011993246923359,-0.0011993346614754,0.001199322987716,-0.0011993251294576,0.0011993322802437,-0.00067625367415073,0.00067626777768964,0.72889799679794,129794,2964,0.0047609190984299,0.007815063761285,0.0041688839042634,37.197794925204,5.7582359401629e-05,5.7582359401629e-05,5.7582359401629e-05,3871856.4265312,0.016887825687432
38591759,0.96962892655244,0.017061874402477,0.0052164239550022,0.0069690938678238,0.0048763565796507,-0.0011463463798601,0.0011463419124163,2.6354270156902e-09,-7.0409139777346e-09,9.5452731494868e-10,-5.7099450282459e-09,-0.00046008858903073,0.0004600678398285,-0.00070333709399133,0.00070332901619407,-0.00070334030899022,0.00070332580259238,-0.00046007239016191,0.00046008393827864,-0.00046008185300076,0.00046007448404032,-0.00070333051060181,0.00070333543885513,-0.00070333369503722,0.00070333219116739,-0.0014824271308447,0.0014824284277339,-0.001482430363001,0.0014824252012704,-0.0014824297836151,0.0014824262269233,-0.0014824330143254,0.0014824230008572,-0.0013427171490979,0.0013427200157501,-0.0013427266396215,0.0013427105412301,-0.0013427148653472,0.001342722269972,-0.0013427243527963,0.0013427127920784,-0.00046007915201874,0.00046007730982362,-5.5424304872002e-09,1.5968750169357e-09,8.8593548435261e-10,-4.4300321591825e-09,-0.001888757015977,0.0018887534237494,-0.0017002516308819,0.0017002406106433,-0.0018928685127597,0.0018928597338246,-0.0018928620645052,0.0018928668358191,-0.0018777359943686,0.0018777319289934,-0.0018777377382076,0.001877730168801,-0.0018777338235973,0.0018777343239891,-0.0018777355656669,0.0018777325611757,-0.0017002441975187,0.0017002481581599,-0.0017002494243844,0.0017002429331791,-0.0018928702905368,0.0018928579767511,-0.0018928638341699,0.0018928650695078,-0.0017002463950733,0.001700245833994,-5.0850858991163e-09,4.597317809979e-09,-0.0010034063234386,0.0010034058354265,-2.9091463044854e-09,2.4205404232251e-09,-0.0006768079255775,0.00067680322219065,-0.00084049096806423,0.0008404989181972,-0.00084049415157883,0.0008404956764164,-0.00067680369077296,0.00067680742580162,-0.00067681338878132,0.00067679821149885,-0.00084049614793027,0.00084049362476466,-0.00084049949161781,0.0008404905343011,-0.0013223225447476,0.0013223170567411,-0.0013223207074,0.001322318765774,-0.0013223192668136,0.0013223202436143,-0.0013223175201684,0.0013223220383657,-0.0012017049010619,0.0012017156785587,-0.0012017144088498,0.0012017062082619,-0.0012017162459108,0.0012017044853373,-0.0012017066380657,0.001201713856413,-0.00067679856132417,0.00067681275329931,0.74096371081157,129794,2964,0.0047704561175625,0.007835152886715,0.0041758658358077,37.193781356286,5.7550250850288e-05,5.7550250850288e-05,5.7550250850288e-05,3861969.7318554,0.016925064710224
38791759,0.97170945698086,0.017098274964865,0.0052275470922221,0.0069844464403573,0.0048862814322861,-0.0011484599310364,0.0011484553577958,2.6239179970475e-09,-7.1325675636334e-09,1.337760446969e-09,-6.2098882534706e-09,-0.00046006368086948,0.00046004187088621,-0.00070397569040186,0.00070396665392225,-0.00070397893314556,0.00070396341334806,-0.00046004652990408,0.00046005891385118,-0.00046005607085149,0.00046004938141645,-0.00070396822751655,0.00070397393432901,-0.00070397143939009,0.00070397066070982,-0.0014855753637162,0.0014855769036233,-0.0014855786224394,0.0014855736502644,-0.0014855783605779,0.0014855744107309,-0.0014855816179608,0.001485571157773,-0.0013454673129759,0.0013454698671082,-0.0013454768812911,0.0013454603130613,-0.0013454647413775,0.0013454724141207,-0.0013454743073856,0.0013454628580934,-0.00046005416403124,0.00046005142078647,-6.0821331171259e-09,1.9821797670077e-09,8.4034923109165e-10,-4.4972162428348e-09,-0.0018934076809373,0.0018934039708124,-0.0017045207437672,0.001704509299286,-0.0018977070904517,0.0018976972912774,-0.0018976997656019,0.0018977052941429,-0.0018822473323429,0.0018822428664091,-0.0018822490824913,0.0018822410981628,-0.0018822448729309,0.0018822455623963,-0.0018822466216391,0.0018822437923571,-0.001704512995799,0.0017045171581348,-0.0017045182464124,0.0017045119152456,-0.0018977088742977,0.001897695526223,-0.0018977015428271,0.0018977035216274,-0.0017045154862584,0.0017045145403296,-5.1224874891815e-09,4.6405132973277e-09,-0.0010048944916781,0.001004894009108,-2.917659760646e-09,2.4341900454651e-09,-0.00067705821911805,0.00067705346408328,-0.00084135699298451,0.0008413649955954,-0.00084136019993869,0.00084136172345208,-0.00067705393034062,0.00067705772699174,-0.00067706372018593,0.00067704844726899,-0.00084136219214,0.00084135967809949,-0.00084136556738053,0.00084135656636623,-0.0013249337890623,0.0013249282724103,-0.001324931945846,0.0013249299904601,-0.0013249304837457,0.0013249314857689,-0.0013249287305216,0.0013249332888248,-0.0012038932971881,0.0012039041667678,-0.0012039028919656,0.0012038946261881,-0.0012039047274947,0.0012038928860081,-0.0012038950405687,0.0012039023357101,-0.00067704878320478,0.00067706308110218,0.74287813639523,129794,2964,0.0047792560761413,0.0078543566500628,0.0041820665571976,37.193616023524,5.7548928188189e-05,5.7548928188189e-05,5.7548928188189e-05,3849186.0038536,0.016959861558317
38880000,0.97259903430312,0.01711385936244,0.0052323106017413,0.0069910164268046,0.0048905323338937,-0.0011493190885347,0.0011493144670499,2.6182353852062e-09,-7.1736676763473e-09,1.5237976752623e-09,-6.4486686497905e-09,-0.0004599593823643,0.00045993706828781,-0.00070415072344259,0.00070414122732229,-0.00070415397800265,0.00070413797485803,-0.00045994177553374,0.00045995456320501,-0.00045995135095457,0.0004599449964691,-0.00070414283704788,0.0007041489218591,-0.00070414606083912,0.00070414563661918,-0.001486921790733,0.0014869234474689,-0.0014869250612599,0.0014869201822711,-0.0014869249481707,0.0014869208138629,-0.0014869282173776,0.0014869175490958,-0.0013466258864218,0.0013466282929097,-0.0013466354894768,0.0013466187039968,-0.0013466231824214,0.0013466309807832,-0.0013466327831519,0.001346621390126,-0.00045994983094742,0.00045994665298573,-6.3128302628394e-09,2.1950011952423e-09,8.4428664891286e-10,-4.5004098649217e-09,-0.0018954563130564,0.0018954526005971,-0.0017064399527649,0.0017064283631562,-0.0018998445076671,0.0018998342684506,-0.0018998367584385,0.0018998427056122,-0.0018842161737549,0.0018842115689048,-0.0018842179258742,0.0018842097981236,-0.0018842135762106,0.0018842144084872,-0.0018842153269474,0.0018842126360762,-0.0017064320597716,0.001706436370596,-0.001706437317311,0.0017064311207519,-0.0018998462937513,0.0018998325011509,-0.0018998385382181,0.0018998409309836,-0.0017064346885155,0.0017064336116104,-5.1395130361105e-09,4.658974295298e-09,-0.0010054501088102,0.0010054496276916,-2.9204314113857e-09,2.438657961983e-09,-0.00067700223633537,0.00067699745573105,-0.00084160419034544,0.00084161221357586,-0.00084160740854197,0.00084160892935651,-0.00067699792175784,0.00067700174799908,-0.00067700775346334,0.00067699244035466,-0.0008416093960039,0.00084160688860494,-0.00084161278646109,0.00084160376841137,-0.0013260396283142,0.0013260340987365,-0.0013260377849735,0.0013260358214841,-0.0013260363116083,0.0013260373244349,-0.0013260345564391,0.0013260391303479,-0.0012047553495766,0.001204766257562,-0.0012047649880569,0.0012047566912171,-0.0012047668138503,0.0012047549365195,-0.0012047570951628,0.001204764423956,-0.00067699276804024,0.00067700710949902,0.74369371242064,129794,2964,0.004782835680037,0.0078628151794556,0.0041843839140842,37.193609155971,5.7548873247769e-05,5.7548873247769e-05,5.7548873247769e-05,3841747.1747431,0.016974466723443
