time,ASR_ext,ASR_strain,ASR_strain_xx,ASR_strain_yy,ASR_strain_zz,disp_x_101,disp_x_102,disp_x_103,disp_x_104,disp_x_105,disp_x_106,disp_x_p10_neg,disp_x_p10_pos,disp_x_p11_neg,disp_x_p11_pos,disp_x_p12_neg,disp_x_p12_pos,disp_x_p13_neg,disp_x_p13_pos,disp_x_p14_neg,disp_x_p14_pos,disp_x_p15_neg,disp_x_p15_pos,disp_x_p16_neg,disp_x_p16_pos,disp_x_p1_neg,disp_x_p1_pos,disp_x_p2_neg,disp_x_p2_pos,disp_x_p3_neg,disp_x_p3_pos,disp_x_p4_neg,disp_x_p4_pos,disp_x_p5_neg,disp_x_p5_pos,disp_x_p6_neg,disp_x_p6_pos,disp_x_p7_neg,disp_x_p7_pos,disp_x_p8_neg,disp_x_p8_pos,disp_x_p9_neg,disp_x_p9_pos,disp_y_101,disp_y_102,disp_y_103,disp_y_104,disp_y_105,disp_y_106,disp_y_p10_neg,disp_y_p10_pos,disp_y_p11_neg,disp_y_p11_pos,disp_y_p12_neg,disp_y_p12_pos,disp_y_p1_neg,disp_y_p1_pos,disp_y_p2_neg,disp_y_p2_pos,disp_y_p3_neg,disp_y_p3_pos,disp_y_p4_neg,disp_y_p4_pos,disp_y_p5_neg,disp_y_p5_pos,disp_y_p6_neg,disp_y_p6_pos,disp_y_p7_neg,disp_y_p7_pos,disp_y_p8_neg,disp_y_p8_pos,disp_y_p9_neg,disp_y_p9_pos,disp_z_101,disp_z_102,disp_z_103,disp_z_104,disp_z_105,disp_z_106,disp_z_p10_neg,disp_z_p10_pos,disp_z_p11_neg,disp_z_p11_pos,disp_z_p12_neg,disp_z_p12_pos,disp_z_p13_neg,disp_z_p13_pos,disp_z_p14_neg,disp_z_p14_pos,disp_z_p15_neg,disp_z_p15_pos,disp_z_p16_neg,disp_z_p16_pos,disp_z_p1_neg,disp_z_p1_pos,disp_z_p2_neg,disp_z_p2_pos,disp_z_p3_neg,disp_z_p3_pos,disp_z_p4_neg,disp_z_p4_pos,disp_z_p5_neg,disp_z_p5_pos,disp_z_p6_neg,disp_z_p6_pos,disp_z_p7_neg,disp_z_p7_pos,disp_z_p8_neg,disp_z_p8_pos,disp_z_p9_neg,disp_z_p9_pos,humidity,ndof,nelem,strain_xx,strain_yy,strain_zz,temp,thermal_strain_xx,thermal_strain_yy,thermal_strain_zz,vonmises,vstrain
14391759,0,0,0,0,0,0,0,0,0,0,0,0,0,0,0,0,0,0,0,0,0,0,0,0,0,0,0,0,0,0,0,0,0,0,0,0,0,0,0,0,0,0,0,0,0,0,0,0,0,0,0,0,0,0,0,0,0,0,0,0,0,0,0,0,0,0,0,0,0,0,0,0,0,0,0,0,0,0,0,0,0,0,0,0,0,0,0,0,0,0,0,0,0,0,0,0,0,0,0,0,0,0,0,0,0,0,0,0,0,0,0,0,0,0,0,0,0,0,0,0,0,0,0
14591759,0.019291978502998,0.0003391741268761,0.00011305804229203,0.00011305804229203,0.00011305804229203,-2.8331100462753e-05,2.8332529186948e-05,7.1687628774043e-10,7.0354776925667e-10,-1.384129244718e-09,2.8720444482093e-09,-2.4249143890233e-05,2.425482545745e-05,-2.5640718551655e-05,2.5646394366025e-05,-2.5640712523678e-05,2.5646381152949e-05,-2.4253336096993e-05,2.4250548233547e-05,-2.425338909219e-05,2.4250589874583e-05,-2.5644850975715e-05,2.564213138581e-05,-2.5644876923762e-05,2.5642152751513e-05,-3.0020704026885e-05,3.0020730535084e-05,-3.0020722731432e-05,3.0020739082766e-05,-3.0019351222095e-05,3.0022158126501e-05,-3.0019353768764e-05,3.0022150810364e-05,-2.8346390048728e-05,2.8349234404107e-05,-2.8346407998898e-05,2.8349226141938e-05,-2.8347782846835e-05,2.8347790706775e-05,-2.8347833577222e-05,2.8347816193864e-05,-2.4249151021082e-05,2.4254852644156e-05,1.3926492996393e-09,-2.8649229844515e-09,3.6721508523135e-09,-5.0810971478368e-09,-3.0497192448139e-05,3.0495776992237e-05,-2.9204700364245e-05,2.9196127020227e-05,-3.0175114575858e-05,3.0180763546982e-05,-3.0179262138552e-05,3.0176507052563e-05,-3.0594068799507e-05,3.0596932936194e-05,-3.0596878340153e-05,3.059399711914e-05,-3.0595428334489e-05,3.0595510537603e-05,-3.0598238280109e-05,3.0592574796233e-05,-2.9197629711808e-05,2.9203397197979e-05,-2.9206106477284e-05,2.9194699001707e-05,-3.0178000042342e-05,3.0177839069511e-05,-3.018214267089e-05,3.0173580028266e-05,-2.9196220908789e-05,2.9204823506198e-05,1.4345382805031e-09,1.4478382602703e-09,-2.8481615682816e-05,2.848451458765e-05,-2.8281407636492e-09,5.8463797596792e-09,-2.6154184827713e-05,2.6165716983973e-05,-2.7157790322139e-05,2.7169326828524e-05,-2.7157794397411e-05,2.7169319716023e-05,-2.6162788021467e-05,2.6157133832447e-05,-2.6162791664352e-05,2.6157113231815e-05,-2.7166340676907e-05,2.7160794063505e-05,-2.716634345414e-05,2.7160784392535e-05,-2.9860710014778e-05,2.9860693236674e-05,-2.9857829084431e-05,2.9863567788133e-05,-2.9860707940368e-05,2.9860700538193e-05,-2.9857827787217e-05,2.9863576030449e-05,-2.804639514485e-05,2.8052178473554e-05,-2.8046397224056e-05,2.805215484804e-05,-2.8049303549663e-05,2.8049255501962e-05,-2.8049301174638e-05,2.8049277490581e-05,-2.6154173694321e-05,2.616573348552e-05,0.70642002878423,129794,2964,0.00011804223813148,0.0001270605149003,0.00011867231733244,31.357931922463,1.0863455379704e-05,1.0863455379704e-05,1.0863455379704e-05,649250.71425176,0.00036384165178449
14791759,0.038362009372706,0.00066316797215749,0.00021968890801315,0.00022372066901007,0.00021975839513427,-5.2143816233082e-05,5.2144475023615e-05,3.7166037345718e-10,2.829925480936e-10,-3.9911181962295e-10,1.0975822432225e-09,-4.2768863589922e-05,4.2770949024946e-05,-4.5839391151408e-05,4.5841587051881e-05,-4.5839414918475e-05,4.5841552449798e-05,-4.2770244415496e-05,4.2769507945952e-05,-4.2770372116698e-05,4.2769465070902e-05,-4.5840829148679e-05,4.5840079986564e-05,-4.5840877780374e-05,4.5840070345175e-05,-5.6748253091674e-05,5.6748441407548e-05,-5.6748290361245e-05,5.674841868964e-05,-5.6747787930443e-05,5.6748948168208e-05,-5.6747813835488e-05,5.6748914383145e-05,-5.1937510436587e-05,5.1938747926821e-05,-5.193759898341e-05,5.1938662520056e-05,-5.1937994337979e-05,5.1938229759243e-05,-5.1938107583062e-05,5.193816895849e-05,-4.2768787885104e-05,4.2771044989032e-05,2.5547679923783e-10,-1.2471477760462e-09,1.8956599280701e-09,-2.8553231386519e-09,-5.708729944917e-05,5.7086337955802e-05,-5.3914955567009e-05,5.390984413666e-05,-5.6033992885177e-05,5.6036063199901e-05,-5.6035438054351e-05,5.6034548803213e-05,-5.8188886172591e-05,5.8189976547908e-05,-5.8190393944812e-05,5.8188375844118e-05,-5.8189355701015e-05,5.8189472048829e-05,-5.8190863816258e-05,5.8187871906358e-05,-5.3910877723744e-05,5.3914077738125e-05,-5.3915450456355e-05,5.390933607703e-05,-5.6035552700181e-05,5.6034469800427e-05,-5.6036996348505e-05,5.6032955071961e-05,-5.3910382334538e-05,5.3914585850764e-05,1.0283458573574e-09,1.1150933893242e-09,-5.2380705845046e-05,5.2382860862403e-05,-1.2157372658374e-09,3.4675424404982e-09,-4.6539474039935e-05,4.6546238049199e-05,-4.9120764309465e-05,4.9127637297964e-05,-4.9120791750872e-05,4.9127605985772e-05,-4.6544057802895e-05,4.6541674947049e-05,-4.6544133397063e-05,4.654158155994e-05,-4.912537529664e-05,4.9123033089851e-05,-4.9125399906595e-05,4.9122999170424e-05,-5.6300590886727e-05,5.6301133419984e-05,-5.6299038557858e-05,5.6302684774306e-05,-5.6300563741252e-05,5.6301164322167e-05,-5.6299011389148e-05,5.6302715733276e-05,-5.1295378063775e-05,5.1299164338554e-05,-5.1295457626842e-05,5.1299073952941e-05,-5.1297031640309e-05,5.1297504691139e-05,-5.1296952255387e-05,5.1297594436953e-05,-4.6539391733604e-05,4.6546327364442e-05,0.70581018463208,129794,2964,0.00021724354103127,0.00023783282650161,0.00021823322260828,31.086844469561,8.6947557564912e-06,8.6947557564912e-06,8.6947557564912e-06,1292412.4633027,0.00067353881132069
14991759,0.056213108558633,0.00095677757304516,0.00031559201193004,0.0003256436892716,0.00031554187184352,-7.2490193276644e-05,7.2490149970639e-05,6.1901072442669e-11,-1.0159791820922e-10,3.7409818617117e-10,-4.0559318234235e-10,-5.6730371367397e-05,5.6729407312666e-05,-6.1018210533849e-05,6.1017466810374e-05,-6.1018266044967e-05,6.1017412399739e-05,-5.6729431381737e-05,5.673032956347e-05,-5.6729610507916e-05,5.6730195466982e-05,-6.1017438848809e-05,6.1018237198456e-05,-6.1017502865688e-05,6.1018194216911e-05,-8.0600819922678e-05,8.0601084046362e-05,-8.0600872413959e-05,8.0601026949043e-05,-8.060108743779e-05,8.060082841936e-05,-8.0601136085508e-05,8.0600766852493e-05,-7.2758000412686e-05,7.2757864093478e-05,-7.2758142692073e-05,7.2757684519631e-05,-7.2757738586615e-05,7.2758111472023e-05,-7.2757893775245e-05,7.2757947567763e-05,-5.6730212290003e-05,5.6729571285686e-05,-5.6401293516699e-10,2.2237150465975e-10,3.7607434437856e-10,-7.1825579132249e-10,-8.1295559096803e-05,8.1295220230294e-05,-7.6962623370725e-05,7.6960952396498e-05,-8.0964485601508e-05,8.0963733864473e-05,-8.0963697924255e-05,8.0964498505735e-05,-8.2307971329758e-05,8.2307730329778e-05,-8.2308302778179e-05,8.230735193606e-05,-8.2307709920831e-05,8.2307989725553e-05,-8.2308042116767e-05,8.2307611498203e-05,-7.6961349168331e-05,7.6962339450323e-05,-7.6962360183249e-05,7.6961209565611e-05,-8.0964834037854e-05,8.0963353956563e-05,-8.096404634072e-05,8.0964117039172e-05,-7.6961613254538e-05,7.6962081005303e-05,5.3082676455502e-10,6.9151795322988e-10,-7.2736839839453e-05,7.2738060043429e-05,1.1087683610678e-10,1.1701632069396e-09,-6.2834382117799e-05,6.2836546825987e-05,-6.6446425937876e-05,6.644879586764e-05,-6.6446478807359e-05,6.6448741962143e-05,-6.2835285351597e-05,6.2835642981209e-05,-6.2835440983135e-05,6.2835479776099e-05,-6.6447458351851e-05,6.6447759460619e-05,-6.6447510112173e-05,6.6447701975518e-05,-7.9580542757267e-05,7.9581332518263e-05,-7.9580195514649e-05,7.9581681595635e-05,-7.9580487554442e-05,7.9581384966807e-05,-7.9580141523653e-05,7.9581734389474e-05,-7.2064148967593e-05,7.2065875863987e-05,-7.2064314628881e-05,7.2065728345833e-05,-7.2064674066846e-05,7.2065366680988e-05,-7.2064510586391e-05,7.2065518370766e-05,-6.2834223910968e-05,6.283670064236e-05,0.70496388514837,129794,2964,0.00030199705324355,0.00033867211044236,0.00030302624558724,30.085270753612,6.8216602889956e-07,6.8216602889956e-07,6.8216602889956e-07,1439809.3175606,0.0009441467282114
15191759,0.072440227163274,0.0012043463521083,0.00039582807163444,0.00041315383789688,0.00039536444257703,-8.8913251120365e-05,8.8912638279081e-05,-1.8459640818071e-10,-4.2225141920017e-10,8.3455727255775e-10,-1.4593387958964e-09,-6.4461190666734e-05,6.4458073095889e-05,-7.0220179705245e-05,7.0217381268726e-05,-7.0220263802792e-05,7.021730582539e-05,-6.4458686139207e-05,6.446057855958e-05,-6.4458917046927e-05,6.4460350699661e-05,-7.0217926912092e-05,7.0219650032096e-05,-7.0218005708441e-05,7.021957226147e-05,-0.00010125438554449,0.00010125460901126,-0.00010125445727802,0.00010125452165021,-0.00010125514100443,0.00010125384930527,-0.00010125521514386,0.00010125376374582,-8.9780333708131e-05,8.9779200047613e-05,-8.9780544436158e-05,8.9778943718318e-05,-8.9779572302058e-05,8.9779960877605e-05,-8.9779783579875e-05,8.9779707647359e-05,-6.4460954078102e-05,6.4458304217523e-05,-1.2284794409103e-09,1.0815733603903e-09,-9.4202536042651e-10,7.9002936265934e-10,-0.0001022741227006,0.00010227397419345,-9.7308955356177e-05,9.7309740530622e-05,-0.0001036069129355,0.0001036039148112,-0.00010360464887251,0.00010360620502832,-0.0001024582181941,0.00010245673981785,-0.00010245764053128,0.00010245731055002,-0.00010245747210493,0.00010245751006405,-0.00010245689525154,0.00010245808104598,-9.7309913316104e-05,9.7308825832625e-05,-9.7308190802537e-05,9.7310508715438e-05,-0.00010360633252318,0.00010360447927302,-0.00010360406845514,0.00010360676821117,-9.7310678583565e-05,9.7308056298279e-05,1.6224323482825e-11,2.5157894358302e-10,-8.9037035133479e-05,8.9037293386778e-05,1.0091672674737e-09,-7.3011056628835e-10,-7.3340859641492e-05,7.3339200555121e-05,-7.7726520961504e-05,7.7725167854273e-05,-7.7726597180066e-05,7.7725087500409e-05,-7.333891109205e-05,7.3341143640825e-05,-7.3339150335274e-05,7.3340917830713e-05,-7.7724797780701e-05,7.7726882080472e-05,-7.772487805841e-05,7.7726803310335e-05,-9.9549057076806e-05,9.9549798824321e-05,-9.9549635507897e-05,9.9549219682316e-05,-9.954897562981e-05,9.9549874668213e-05,-9.9549557392114e-05,9.9549298016638e-05,-8.9239590714839e-05,8.9239505092916e-05,-8.9239826112939e-05,8.9239281069242e-05,-8.9239255693209e-05,8.9239860918491e-05,-8.9239011809324e-05,8.9240078219612e-05,-7.3340631682167e-05,7.333943205806e-05,0.66036286462003,129794,2964,0.00037040354732583,0.00042604904701368,0.00037091899111018,28.683257422629,-1.0533940618971e-05,-1.0533940618971e-05,-1.0533940618971e-05,1581209.6312302,0.0011680656792072
15391759,0.087144741579331,0.0014546748429487,0.00047682219155289,0.00050212677605981,0.00047572587533602,-0.00010515296978573,0.00010515207321393,-2.8956083015584e-10,-6.0151388939519e-10,1.0317501040293e-09,-1.9506024051046e-09,-7.4129353845985e-05,7.4125193040144e-05,-8.1075329822734e-05,8.1071588217208e-05,-8.1075439087658e-05,8.1071488969897e-05,-7.4126099971952e-05,7.4128457258055e-05,-7.4126396031294e-05,7.4128147688408e-05,-8.1072405869269e-05,8.1074536598789e-05,-8.1072505473142e-05,8.1074429856706e-05,-0.00012067610429912,0.00012067629901627,-0.0001206761999422,0.00012067618598048,-0.00012067708142107,0.00012067530854549,-0.00012067718214242,0.00012067520017063,-0.00010758286510196,0.00010758129007598,-0.00010758315727885,0.00010758097015361,-0.00010758187636016,0.00010758228681775,-0.00010758216271188,0.00010758196275025,-7.4129043970372e-05,7.412549490137e-05,-1.5086247331603e-09,1.4925819015406e-09,-1.8354295864416e-09,1.8118100248331e-09,-0.00012301296751735,0.00012301294734367,-0.00011783219825425,0.00011783476134936,-0.00012597102307335,0.0001259668398856,-0.00012596808879905,0.00012596981744403,-0.00012211529538343,0.0001221130913844,-0.00012211410477481,0.00012211430352898,-0.00012211432890412,0.00012211409253187,-0.00012211313899847,0.00012211530505644,-0.000117834787364,0.00011783217727154,-0.00011783120542989,0.00011783576253616,-0.00012596981251811,0.00012596804595604,-0.00012596687773644,0.00012597102236808,-0.00011783578057054,0.00011783117499997,-2.9485476199236e-10,1.5021289536386e-11,-0.00010510706619942,0.00010510677739029,1.6741169765414e-09,-1.9661498061949e-09,-8.5880316125245e-05,8.5876146375501e-05,-9.063697894623e-05,9.063321536564e-05,-9.0637080660456e-05,9.063311045684e-05,-8.5876416472636e-05,8.5880038046803e-05,-8.5876731213365e-05,8.5879743841136e-05,-9.0633386030474e-05,9.0636799499293e-05,-9.0633492135046e-05,9.0636697460525e-05,-0.00011843544605004,0.00011843625508433,-0.00011843665427788,0.00011843504506577,-0.00011843534040072,0.0001184363563092,-0.0001184365524297,0.000118435149506,-0.00010658779246187,0.00010658660042404,-0.00010658809595462,0.00010658629808946,-0.00010658689170228,0.00010658751591569,-0.00010658657608105,0.00010658780711874,-8.5880015453144e-05,8.5876451890799e-05,0.73442855114789,129794,2964,0.0004380434157737,0.00051242074869914,0.00043785015907963,27.270460354429,-2.1836317164572e-05,-2.1836317164572e-05,-2.1836317164572e-05,1450135.5359615,0.0013892953302381
15591759,0.10063630118253,0.0016901468517269,0.00055292926233962,0.00058614701634588,0.00055107057304141,-0.00012007269881637,0.00012007159916056,-3.539621375232e-10,-7.4044732444177e-10,9.2782012752243e-10,-2.0550902495212e-09,-8.3865677846055e-05,8.386123219307e-05,-9.1804813536775e-05,9.1800889321903e-05,-9.1804949115856e-05,9.1800766339849e-05,-8.3862350669178e-05,8.3864578432259e-05,-8.3862709582937e-05,8.3864187187855e-05,-9.1801894574489e-05,9.1803840736006e-05,-9.1802013287999e-05,9.1803704007158e-05,-0.00013830547602104,0.00013830549395423,-0.0001383055952074,0.0001383053549911,-0.00013830644944865,0.00013830450171356,-0.00013830657655389,0.00013830436990023,-0.00012390865190748,0.00012390694670344,-0.00012390902060976,0.00012390655674103,-0.00012390766571374,0.00012390794768987,-0.00012390802231208,0.00012390754837223,-8.3865292635836e-05,8.386160650844e-05,-1.4677145043441e-09,1.5391939953935e-09,-2.300753168252e-09,2.3641193356871e-09,-0.00014193109708934,0.00014193116379534,-0.00013631652749646,0.00013632017474343,-0.00014587247545308,0.0001458680377462,-0.00014586953997674,0.00014587102456165,-0.00014025495021228,0.0001402525001397,-0.00014025343789303,0.00014025405476128,-0.00014025398502169,0.00014025350333975,-0.00014025247361846,0.00014025505825748,-0.0001363200946654,0.00013631657446808,-0.00013631553446269,0.00013632117929523,-0.00014587093266404,0.00014586958579319,-0.0001458679971755,0.00014587257079745,-0.00013632108887408,0.0001363155686113,-6.2080563602214e-10,-2.3661997657655e-10,-0.00011976801130931,0.00011976714386837,1.8745350528084e-09,-2.767562179043e-09,-9.780787297647e-05,9.780204441462e-05,-0.00010303905782637,0.00010303373533798,-0.0001030391842024,0.00010303360634741,-9.7802902091487e-05,9.7807005125968e-05,-9.780329281472e-05,9.7806640070984e-05,-0.00010303447864781,0.00010303830581115,-0.00010303461073823,0.00010303818000878,-0.0001355291352286,0.00013552968019247,-0.00013553067455126,0.0001355281384761,-0.0001355290053736,0.00013552980694609,-0.00013553054891957,0.00013552826855697,-0.00012244810810528,0.00012244607787696,-0.00012244848244369,0.00012244570126427,-0.00012244694276802,0.00012244725513936,-0.00012244655486567,0.0001224476202021,-9.7807500615161e-05,9.7802421719774e-05,0.74589760675891,129794,2964,0.00050018185305819,0.0005912030240295,0.00049890868021827,26.02536095031,-3.1797112397523e-05,-3.1797112397523e-05,-3.1797112397523e-05,1504196.0577,0.0015915796795227
15791759,0.11380659372612,0.001932732533331,0.00063115896623368,0.00067304083384259,0.00062853273325476,-0.00013670160021631,0.00013670049983746,-3.1793293749935e-10,-7.7844999440908e-10,5.4900925710729e-10,-1.6735623494146e-09,-9.6331476384537e-05,9.63277098545e-05,-0.00010523892032331,0.00010523577030372,-0.00010523908010762,0.0001052356233826,-9.6328826533313e-05,9.633038058842e-05,-9.6329255664369e-05,9.6329908044424e-05,-0.00010523674960627,0.00010523797276645,-0.00010523689064881,0.00010523780622915,-0.00015731301249371,0.00015731280352289,-0.00015731315664617,0.00015731263949756,-0.00015731373603322,0.00015731206305213,-0.00015731388865838,0.00015731190816344,-0.00014232317505713,0.00014232179231695,-0.00014232361746308,0.00014232133246509,-0.00014232244095968,0.00014232254241045,-0.000142322871266,0.00014232206911834,-9.6331020891185e-05,9.6328152927225e-05,-1.0991463375177e-09,1.1374193555004e-09,-2.2614393054547e-09,2.2963655323515e-09,-0.00016266639116134,0.00016266642887662,-0.00015650228364846,0.00015650605275295,-0.00016732031497888,0.00016731664269474,-0.00016731813547723,0.00016731886486543,-0.00016028282690381,0.00016028063960326,-0.00016028135525254,0.00016028215977514,-0.00016028211189713,0.00016028138508059,-0.00016028064051736,0.00016028290648116,-0.00015650599275823,0.00015650229208819,-0.00015650154578361,0.00015650680132209,-0.00016731881143548,0.00016731815602543,-0.00016731663070361,0.00016732037977911,-0.00015650672976987,0.000156501544348,-8.3177923713852e-10,-3.7259634801086e-10,-0.00013611617235267,0.00013611495822252,1.6406661899683e-09,-2.8909232093843e-09,-0.0001126864274772,0.00011268027040476,-0.00011828438836902,0.00011827884505359,-0.00011828454024074,0.00011827868935283,-0.00011268148481821,0.0001126852044159,-0.00011268194669867,0.00011268476956691,-0.00011827992005285,0.00011828330488347,-0.00011828007689084,0.00011828315594699,-0.00015392393543568,0.00015392407607399,-0.00015392543704389,0.00015392257117034,-0.00015392378204673,0.00015392422847942,-0.00015392528716332,0.00015392272756609,-0.00014017849996429,0.00014017623507095,-0.00014017894663597,0.00014017578123625,-0.00014017744246111,0.00014017730090129,-0.00014017698341625,0.00014017774012725,-0.00011268597848743,0.00011268072541708,0.78512881555001,129794,2964,0.00056943482450687,0.00067754535003652,0.00056699033497741,25.604109069413,-3.5167127444696e-05,-3.5167127444696e-05,-3.5167127444696e-05,1575682.6341155,0.001815640192972
15991759,0.12667724278647,0.0021679426596173,0.00070624704934791,0.00075824438191865,0.00070345122835077,-0.00015273940488909,0.00015273839995141,-2.3315481244964e-10,-7.68714129936e-10,2.17870340468e-10,-1.239807874794e-09,-0.00010733372604818,0.00010733073806494,-0.00011768272408617,0.00011768045262759,-0.00011768290890782,0.00011768028000478,-0.00010733175867363,0.00010733272504412,-0.00010733225717676,0.00010733217902494,-0.00011768130466993,0.00011768189761178,-0.00011768146898871,0.00011768170638383,-0.00017589686756066,0.00017589652465041,-0.00017589703735176,0.00017589633680694,-0.00017589734159621,0.00017589603892384,-0.00017589752001976,0.00017589585940696,-0.00016027443693594,0.00016027347579288,-0.00016027495606206,0.0001602729449211,-0.00016027395857043,0.00016027397159789,-0.00016027446231108,0.00016027342686642,-0.0001073331950415,0.00010733125682949,-7.6179254083432e-10,7.184766102145e-10,-2.0490714733047e-09,2.0078529665279e-09,-0.00018317751307938,0.00018317747371589,-0.0001760072186084,0.00017601067247285,-0.00018872572663771,0.00018872288534378,-0.00018872428480666,0.0001887243562472,-0.00018008958280718,0.00018008773119685,-0.00018008827498661,0.00018008908590925,-0.00018008911032182,0.00018008822427297,-0.00018008780291145,0.00018008957888628,-0.00017601068454663,0.0001760071489239,-0.00017600673205469,0.00017601116651526,-0.00018872438957354,0.00018872423424395,-0.00018872294722612,0.00018872570389165,-0.00017601117155077,0.00017600665377175,-9.5619012499611e-10,-4.2312005562715e-10,-0.00015195838969302,0.00015195700082081,1.2989209852034e-09,-2.7263177140449e-09,-0.00012696230957017,0.00012695639960451,-0.00013326748239076,0.00013326228273663,-0.00013326765825408,0.00013326210378807,-0.00012695778912735,0.00012696091325212,-0.00012695832430392,0.00012696040353947,-0.00013326351392946,0.00013326624391993,-0.00013326369708122,0.00013326607090831,-0.00017183905375451,0.00017183882719095,-0.00017184038572233,0.00017183749135965,-0.00017183887621954,0.00017183900530212,-0.00017184021195646,0.00017183767265115,-0.00015734097836671,0.0001573387777887,-0.00015734149392331,0.00015733825009948,-0.00015734015855298,0.00015733960171573,-0.00015733962850148,0.0001573401156042,-0.00012696179156425,0.00012695692437271,0.7789471756054,129794,2964,0.00063622262386823,0.00076294685384366,0.00063296115205543,25.204070749198,-3.8367434006412e-05,-3.8367434006412e-05,-3.8367434006412e-05,1673793.8013419,0.002034223320449
16191759,0.13924039164197,0.0023945248902499,0.00077806281803294,0.00084140269625165,0.00077505937596526,-0.00016810246016986,0.0001681015650544,-1.4163845924818e-10,-7.5145348514126e-10,-2.3636735950706e-11,-8.8233396439864e-10,-0.0001170164071202,0.00011701405251385,-0.0001289505839242,0.0001289490414736,-0.00012895079248949,0.00012894884315761,-0.00011701495695361,0.00011701551470908,-0.0001170155322169,0.0001170148992124,-0.00012894974976093,0.00012894989166636,-0.00012894994037011,0.00012894967677956,-0.00019397178663729,0.00019397137986726,-0.00019397198266087,0.00019397116857262,-0.00019397206645213,0.00019397109388724,-0.00019397227023293,0.00019397089024435,-0.00017757466463449,0.00017757408315004,-0.00017757525932951,0.00017757348269241,-0.00017757438381263,0.00017757437876686,-0.00017757496482061,0.00017757376550347,-0.00011701580412168,0.00011701464399707,-5.1144024763091e-10,3.6564375636272e-10,-1.7550089437219e-09,1.6168282955886e-09,-0.00020332038243725,0.00020332024539806,-0.00019517649514274,0.00019517938097621,-0.00020992834471679,0.00020992622351152,-0.00020992749067108,0.00020992709361809,-0.00019942715789017,0.00019942563311072,-0.00019942607132992,0.00019942675782863,-0.00019942687931467,0.00019942592454244,-0.00019942579318937,0.00019942704951319,-0.00019517949676586,0.00019517633607693,-0.00019517620792521,0.00019517967336365,-0.0002099272327011,0.00020992734404092,-0.00020992637803605,0.00020992821357691,-0.00019517978430934,0.00019517604314476,-9.7876446124247e-10,-3.7097037870516e-10,-0.00016709276914979,0.00016709141191154,9.7743772672504e-10,-2.367227657777e-09,-0.00014017229460587,0.00014016701631645,-0.00014721808523033,0.00014721361677736,-0.00014721828589021,0.00014721341242386,-0.00014016837461652,0.0001401709330402,-0.00014016898103275,0.00014017034881762,-0.00014721478811638,0.00014721690821697,-0.00014721499564309,0.00014721671003652,-0.00018918998448271,0.00018918953793196,-0.00018919109015902,0.00018918842820534,-0.00018918978287711,0.00018918974165558,-0.00018919089196669,0.00018918863502689,-0.00017381791118158,0.00017381603938616,-0.00017381849816721,0.00017381543650313,-0.00017381738963538,0.00017381656147108,-0.00017381678807784,0.00017381715001834,-0.00014017170354966,0.0001401676155183,0.77198523868403,129794,2964,0.00070019733224512,0.00084680807944571,0.00069598110005894,24.804892260689,-4.1560861914489e-05,-4.1560861914489e-05,-4.1560861914489e-05,1781994.3526066,0.002245534227773
16391759,0.15153562370518,0.0026164093621608,0.00084802223487097,0.00092370573530516,0.00084468139198472,-0.00018311051430594,0.00018310970151412,-6.3283136552441e-11,-7.4792797165945e-10,-1.8816952168263e-10,-6.3156211924754e-10,-0.00012609410754954,0.00012609217374259,-0.00013965208955439,0.00013965106634327,-0.00013965232244676,0.00013965084151542,-0.00012609299356658,0.00012609329405531,-0.00012609364363286,0.00012609261112493,-0.00013965166047748,0.00013965150245458,-0.00013965187657328,0.00013965126463325,-0.00021175481342844,0.00021175437623553,-0.00021175503550369,0.00021175414152659,-0.00021175495924922,0.00021175422947764,-0.00021175518842614,0.00021175400092093,-0.00019461845029394,0.00019461816229396,-0.00019461912154764,0.00019461749041838,-0.00019461830728152,0.00019461831809538,-0.00019461896488723,0.00019461763595556,-0.00012609343128987,0.00012609284142556,-3.5730834282098e-10,1.1257598753113e-10,-1.4382416055504e-09,1.2057407278181e-09,-0.00022336068121611,0.00022336044906681,-0.00021428211184207,0.00021428432607744,-0.00023115576823227,0.00023115419047592,-0.00023115531143537,0.00023115465681019,-0.00021857167299669,0.00021857042630281,-0.00021857082120463,0.00021857130746814,-0.00021857152492952,0.00021857058232958,-0.00021857067402334,0.00021857146333564,-0.00021428454275143,0.00021428186738973,-0.00021428196053892,0.00021428448165954,-0.00023115489518141,0.00023115506950478,-0.00023115443891319,0.00023115553379487,-0.00021428469583356,0.00021428171030106,-9.6874078338818e-10,-2.8679419531802e-10,-0.00018181451023073,0.00018181324879125,6.6565764714522e-10,-1.9526779795446e-09,-0.00015289475922417,0.0001528902256451,-0.00016063771686665,0.00016063408826578,-0.00016063794135874,0.00016063385989664,-0.00015289148499444,0.00015289349807068,-0.00015289216595657,0.00015289283901643,-0.00016063513474402,0.00016063666558032,-0.00016063536797402,0.00016063644259428,-0.00020619550951789,0.00020619489124503,-0.00020619637367944,0.00020619402292937,-0.00020619528332486,0.00020619512022608,-0.00020619615122113,0.00020619425449436,-0.00018997890997891,0.00018997744533683,-0.00018997956785129,0.00018997676933809,-0.00018997870183249,0.00018997765143257,-0.00018997802802893,0.00018997831423483,-0.00015289409750666,0.00015289089597382,0.77561769272524,129794,2964,0.00076269070724385,0.00093023543203317,0.00075727956440413,24.447606170571,-4.4419150635431e-05,-4.4419150635431e-05,-4.4419150635431e-05,1886615.5937274,0.0024532444213381
16591759,0.16365940950374,0.0028421902733955,0.00091880242986549,0.0010083043770434,0.00091508346648668,-0.00019837876728253,0.00019837798191075,-1.2416148312839e-11,-7.7109228185127e-10,-2.8544672976893e-10,-5.0606402091507e-10,-0.00013548584174622,0.00013548408580459,-0.00015071229378376,0.00015071154111962,-0.0001507125501179,0.00015071129182653,-0.00013548487333,0.00013548505582118,-0.00013548560051989,0.00013548430129649,-0.00015071208025859,0.00015071175566721,-0.00015071232264032,0.00015071149341587,-0.00022974590974173,0.00022974545164289,-0.00022974615793806,0.00022974519306292,-0.0002297459843594,0.00022974537959466,-0.0002297462382154,0.00022974512675441,-0.00021225701646736,0.00021225690185442,-0.00021225776068059,0.00021225615978774,-0.00021225694558316,0.00021225698346438,-0.00021225767911106,0.0002122562307882,-0.00013548509591235,0.00013548482438776,-2.8134324183355e-10,-4.2543921993453e-11,-1.12618658626e-09,8.1756236125625e-10,-0.00024398836623684,0.00024398805743821,-0.00023407780322915,0.00023407933098717,-0.00025311858614821,0.00025311739000199,-0.00025311835747074,0.00025311762818572,-0.00023815010753221,0.00023814909058465,-0.00023814948249325,0.00023814973726944,-0.00023815003372272,0.00023814917022554,-0.00023814940907016,0.00023814981721698,-0.00023407963095666,0.0002340774890396,-0.00023407772840476,0.00023407940994797,-0.00025311794486143,0.00025311803470752,-0.00025311771488672,0.0002531182722828,-0.00023407970580568,0.00023407740983925,-9.559860036202e-10,-1.9912727244557e-10,-0.00019673960367632,0.00019673844369878,3.7302395296528e-10,-1.5525366974492e-09,-0.00016615789202214,0.00016615407099242,-0.00017453053626192,0.00017452772100044,-0.00017453078610006,0.00017452746630975,-0.0001661552287604,0.00016615673211215,-0.00016615598131852,0.00016615600326439,-0.00017452863649935,0.00017452961519609,-0.0001745288947971,0.00017452936861373,-0.00022334768672965,0.00022334691393113,-0.00022334832100844,0.00022334627547257,-0.00022334743575855,0.00022334716761779,-0.00022334807327223,0.00022334653234329,-0.00020658976281293,0.00020658870296925,-0.00020659049517726,0.00020658795338022,-0.00020658985916976,0.00020658860510731,-0.00020658911233872,0.00020658933991935,-0.00016615715528838,0.0001661548164763,0.80315412063536,129794,2964,0.00082626433918923,0.0010161009689908,0.00081942135279794,24.193084695005,-4.6455322439957e-05,-4.6455322439957e-05,-4.6455322439957e-05,1982214.4725082,0.0026653704673731
16791759,0.17561177741427,0.0030649544429033,0.00098828382377543,0.0010926740859017,0.00098399653322623,-0.00021335643266594,0.00021335564661127,2.4680659728669e-11,-8.0855563353335e-10,-3.3546188745049e-10,-4.5724514145274e-10,-0.00014410082794434,0.00014409909502751,-0.00016112105174554,0.0001611204195859,-0.00016112133254581,0.00016112014463121,-0.00014409988202104,0.0001441000386672,-0.00014410068530777,0.00014409921459317,-0.0001611209331065,0.00016112053460481,-0.00016112120113266,0.00016112024846199,-0.00024758922876821,0.00024758876259258,-0.00024758950267881,0.00024758848018475,-0.00024758927198051,0.00024758872437565,-0.00024758955084345,0.00024758844677387,-0.00022972196319235,0.00022972195477438,-0.00022972278195608,0.0002297211406743,-0.00022972192499852,0.00022972200221564,-0.00022972273376147,0.00022972117908825,-0.00014410000979492,0.00014409990849776,-2.6326408884515e-10,-1.2011349710546e-10,-8.5054521517384e-10,4.8433963414267e-10,-0.00026464564884993,0.00026464528210182,-0.00025400732027068,0.0002540082255392,-0.00027525695573844,0.00027525599595661,-0.00027525682211671,0.00027525614129682,-0.00025762133890923,0.00025762049581341,-0.00025762091103601,0.00025762093896383,-0.000257621295725,0.00025762054429083,-0.00025762086830965,0.00025762098757713,-0.00025400858846238,0.00025400695478502,-0.00025400727827997,0.00025400827240593,-0.00027525651486317,0.00027525643780437,-0.00027525638054969,0.00027525658237236,-0.00025400863092876,0.00025400690744278,-9.4225494275875e-10,-1.1096244380586e-10,-0.00021130572798351,0.00021130467069069,1.2409834500207e-10,-1.1955105520888e-09,-0.00017880605502058,0.00017880286483472,-0.00018780312904747,0.00018780104110901,-0.00018780340324228,0.00018780076163633,-0.00017880391749656,0.0001788049997244,-0.000178804744045,0.00017880419796972,-0.00018780182513079,0.00018780233864425,-0.00018780210906616,0.00018780206791145,-0.00024027839523903,0.00024027749794625,-0.00024027882814632,0.00024027706086902,-0.0002402781192569,0.00024027777633022,-0.00024027855564331,0.00024027734241831,-0.00022298667025273,0.00022298598621565,-0.00022298747602114,0.00022298516446,-0.00022298704174922,0.00022298561344525,-0.00022298622166226,0.00022298642120648,-0.00017880524550713,0.00017880368247895,0.80668160003309,129794,2964,0.00088862535811152,0.0011020825382519,0.00088006538584732,23.941213032835,-4.8470295737317e-05,-4.8470295737317e-05,-4.8470295737317e-05,2076386.3304027,0.0028749402669903
16991759,0.18739001432164,0.0032795852435236,0.0010550662152521,0.0011745761657336,0.0010499428625379,-0.0002277933785743,0.00022779258074935,5.6252892373046e-11,-8.5148868876681e-10,-3.5725626969854e-10,-4.4831014668275e-10,-0.00015168077940823,0.00015167899129414,-0.00017054529798533,0.0001705447077236,-0.00017054560317922,0.000170544407422,-0.00015167978932249,0.00015167997639929,-0.00015168066796896,0.00015167908194634,-0.00017054520787511,0.00017054479080842,-0.00017054550137062,0.00017054448052953,-0.00026507023768031,0.00026506977504085,-0.00026507053714831,0.00026506946854444,-0.00026507027183288,0.00026506974782161,-0.00026507057555265,0.00026506944538488,-0.00024654960741193,0.00024654967113263,-0.00024655049982845,0.00024654878471601,-0.00024654957874728,0.00024654970747497,-0.0002465504622813,0.00024654881327152,-0.00015167988926636,0.00015167987891041,-2.7366479791945e-10,-1.5940469510573e-10,-6.1171703233589e-10,1.9718856838994e-10,-0.00028491666317744,0.00028491624784674,-0.00027354011676483,0.00027354046759913,-0.00029706324624102,0.00029706243949158,-0.00029706314272108,0.00029706255836819,-0.00027665551706908,0.00027665480806013,-0.00027665525974771,0.00027665507535727,-0.00027665548315472,0.0002766548476507,-0.00027665522629738,0.00027665511504722,-0.00027354088390844,0.00027353970849788,-0.0002735400852533,0.00027354050488339,-0.00029706297871559,0.00029706270596265,-0.00029706287462324,0.00029706282403457,-0.00027354091598701,0.00027353967066752,-9.2691801709691e-10,-2.1162575740485e-11,-0.00022525923214799,0.00022525828058443,-8.1808845073053e-11,-8.7877131229725e-10,-0.00019034089065951,0.00019033825200173,-0.00020005841109811,0.00020005697169878,-0.00020005870984056,0.00020005666726116,-0.00019033919668013,0.00019033994240177,-0.00019034009716996,0.00019033906869364,-0.00020005762128355,0.00020005775404819,-0.00020005793085854,0.00020005745930357,-0.00025679266804918,0.0002567916769155,-0.00025679292731623,0.00025679141345365,-0.00025679236703945,0.00025679197995597,-0.00025679262997619,0.00025679171979978,-0.0002387527815989,0.00023875244924776,-0.00023875366069857,0.00023875155505535,-0.00023875340080609,0.0002387518295306,-0.00023875250718132,0.00023875270971196,-0.00019034000817248,0.00019033914210674,0.7913403224892,129794,2964,0.00094873270531447,0.0011864493531,0.00093815602323097,23.689448680301,-5.0484410557595e-05,-5.0484410557595e-05,-5.0484410557595e-05,2169744.6574428,0.0030781136464429
17191759,0.19872054313013,0.0034805828166163,0.0011174975005095,0.0012517814558291,0.0011113038602777,-0.00024075821230895,0.00024075736297084,7.0457976138076e-11,-9.1275254843324e-10,-3.0689673989026e-10,-5.5169808591394e-10,-0.00015770676605361,0.00015770472199144,-0.00017831402233444,0.00017831324751914,-0.00017831435012023,0.0001783129347714,-0.00015770557663725,0.00015770592713223,-0.0001577064872754,0.00015770496868558,-0.00017831378957795,0.0001783134833641,-0.00017831409805282,0.0001783131562732,-0.00028113245376493,0.00028113201540059,-0.00028113278158765,0.00028113168381375,-0.00028113254043228,0.00028113193891239,-0.00028113287183961,0.00028113160853335,-0.00026168422804114,0.00026168426676636,-0.00026168518930749,0.00026168330508575,-0.0002616841477441,0.00026168435787266,-0.00026168509316406,0.0002616833833913,-0.00015770581557081,0.00015770565419954,-3.7369219010716e-10,-7.9531874386161e-11,-4.6059188365232e-10,2.5187456412279e-11,-0.00030361587357822,0.00030361543568816,-0.00029145142114693,0.00029145137734529,-0.00031724425284337,0.00031724335860482,-0.00031724398242791,0.00031724366609768,-0.00029418453538326,0.00029418384410226,-0.00029418438221811,0.00029418400695552,-0.00029418444045449,0.00029418394709691,-0.00029418428872804,0.00029418410664101,-0.00029145182138615,0.00029145100369692,-0.0002914513333035,0.00029145146813229,-0.00031724410217511,0.00031724352550946,-0.00031724381379017,0.00031724380173059,-0.00029145190692293,0.00029145090128145,-9.2153569366474e-10,5.630766925112e-11,-0.00023767909168293,0.00023767822054315,-2.0395842099011e-10,-6.7054893245855e-10,-0.00019995981030008,0.00019995752329681,-0.00021049345162614,0.000210492450979,-0.00021049377665336,0.00021049212020556,-0.00019995835653843,0.00019995894854674,-0.00019995935548785,0.00019995802941017,-0.00021049298799873,0.00021049290639895,-0.00021049333429055,0.00021049258811676,-0.0002718716017953,0.00027187055058315,-0.00027187175158557,0.00027187039842937,-0.00027187127536344,0.00027187088047286,-0.00027187142948528,0.0002718707302762,-0.00025286504057229,0.0002528649646218,-0.00025286599137706,0.0002528640125928,-0.00025286584408304,0.00025286418108408,-0.00025286486844953,0.00025286511981584,-0.00019995886782652,0.00019995846160488,0.77293680410505,129794,2964,0.0010027094184009,0.0012642683366557,0.00098985975480927,23.132042465776,-5.494366027379e-05,-5.494366027379e-05,-5.494366027379e-05,2252493.828451,0.003262201640865
17391759,0.20924617456204,0.0036597496329202,0.0011731258496051,0.0013209536571174,0.0011656701261976,-0.00025145779167768,0.00025145684000272,5.7118174424567e-11,-1.0006405033548e-09,-1.921155434579e-10,-7.740360134664e-10,-0.00016165230755684,0.00016164974574465,-0.00018384054142923,0.00018383935569599,-0.0001838408964159,0.00018383901577237,-0.00016165071279086,0.00016165135766665,-0.00016165168726515,0.00016165033618229,-0.00018383998036396,0.00018383992085633,-0.00018384031165353,0.00018383957305997,-0.00029487288464187,0.00029487248101806,-0.00029487323678564,0.00029487212571759,-0.00029487308179028,0.00029487229368883,-0.00029487343883973,0.00029487193739682,-0.00027416460410324,0.00027416450829658,-0.00027416564284787,0.00027416346945729,-0.00027416441384518,0.00027416470826914,-0.00027416543281172,0.00027416366336154,-0.00016165127723411,0.00016165075748634,-5.60192232703e-10,1.081076812021e-10,-4.0965397195897e-10,-2.5200410147066e-11,-0.00031965983699257,0.00031965939960351,-0.00030663938573455,0.00030663912159265,-0.00033460721211244,0.00033460598085713,-0.00033460657791635,0.00033460666814962,-0.00030923202611694,0.00030923124436989,-0.00030923190498345,0.0003092313740592,-0.00030923180989585,0.00030923147446034,-0.00030923169249031,0.0003092315997687,-0.00030663956365576,0.00030663897356068,-0.00030663917612213,0.00030663933371358,-0.00033460709215425,0.00033460611694809,-0.00033460644352515,0.000334606766322,-0.0003066397744862,0.00030663874219243,-9.393413521424e-10,1.1330213912389e-10,-0.00024780597417204,0.00024780514212687,-2.3965916318323e-10,-5.9415122916649e-10,-0.00020698017713442,0.00020697797574448,-0.00021837007915788,0.00021836925181176,-0.0002183704255143,0.00021836889847968,-0.00020697875798376,0.00020697936329056,-0.00020697984548163,0.00020697836817642,-0.00021836972214154,0.00021836959824728,-0.00021837009807159,0.00021836925392421,-0.00028466165110334,0.0002846605759307,-0.00028466176318629,0.00028466046183485,-0.00028466129900272,0.0002846609314787,-0.00028466141743984,0.00028466081788292,-0.00026443326445878,0.00026443333846582,-0.00026443428655016,0.00026443231350266,-0.00026443418129912,0.00026443244213296,-0.00026443312804398,0.00026443345771978,-0.00020697916924949,0.00020697898078583,0.74411372896975,129794,2964,0.0010472545959722,0.0013310326588596,0.0010320167250188,22.132248753223,-6.2942009974215e-05,-6.2942009974215e-05,-6.2942009974215e-05,2320271.6531133,0.0034161885642086
17591759,0.21900575938648,0.0038195001175813,0.001222774026075,0.0013827834802213,0.001213942611285,-0.00026084116997917,0.00026084011980777,4.4498621906469e-11,-1.0875500004911e-09,-9.972104461995e-11,-9.7064399157322e-10,-0.00016464662963298,0.00016464359834952,-0.00018825843931568,0.00018825689110723,-0.00018825881854428,0.00018825652096987,-0.00016464465886066,0.00016464557372992,-0.00016464573509891,0.00016464447008157,-0.00018825758700666,0.00018825774109449,-0.00018825794969727,0.00018825736229203,-0.00030717580923197,0.00030717543054938,-0.00030717618558804,0.00030717504981954,-0.00030717610154939,0.00030717514619916,-0.00030717648169638,0.00030717476691375,-0.000285002235095,0.00028500201373301,-0.0002850033473534,0.00028500090562697,-0.00028500194580048,0.00028500231073197,-0.00028500304629804,0.00028500119527486,-0.00016464552495729,0.00016464469491611,-6.9393294283964e-10,2.310611766211e-10,-3.8658434739296e-10,-5.8615882053669e-11,-0.00033396142024374,0.00033396097326583,-0.00032000997830746,0.00032000956012523,-0.0003500632658762,0.00035006178831173,-0.0003500623816822,0.00035006272893068,-0.00032271425700335,0.00032271340212309,-0.00032271415484686,0.00032271351133683,-0.00032271395912619,0.00032271371833896,-0.00032271385899041,0.00032271382547379,-0.00032001001515669,0.00032000955230837,-0.00032000968229133,0.00032000986556242,-0.00035006316155688,0.00035006189951501,-0.0003500622684148,0.00035006282275586,-0.00032001031097644,0.00032000923804909,-9.6488593336213e-10,1.6322435779909e-10,-0.00025661651530521,0.00025661570901988,-2.4851043899193e-10,-5.5982766420911e-10,-0.00021256614199567,0.00021256392123126,-0.00022484980399228,0.00022484906935226,-0.00022485017578675,0.00022484868936061,-0.00021256469910439,0.00021256534331011,-0.00021256584165171,0.00021256426939444,-0.00022484949002998,0.00022484937057753,-0.00022484988470959,0.00022484900414201,-0.0002960613462395,0.00029606026056743,-0.00029606144420515,0.00029606015972166,-0.00029606096988239,0.00029606063859253,-0.00029606107289629,0.00029606054064256,-0.0002744470263831,0.00027444721674348,-0.0002744481245539,0.00027444611131083,-0.0002744480303013,0.00027444622526958,-0.0002744469088387,0.0002744473160124,-0.00021256505027483,0.00021256501861419,0.71798588830981,129794,2964,0.0010863194610796,0.0013905427095319,0.0010686930490602,21.121014660075,-7.1031882719402e-05,-7.1031882719402e-05,-7.1031882719402e-05,2382551.5851884,0.0035519198272512
17791759,0.22805752362831,0.0039627424349019,0.0012673512344142,0.0014382939006853,0.0012570972998024,-0.00026913115692506,0.0002691300356736,4.6494861238905e-11,-1.1602818564651e-09,-4.774454798095e-11,-1.0972250777623e-09,-0.00016697976431209,0.0001669764104188,-0.00019188227863984,0.00019188050503142,-0.00019188268218416,0.00019188010916611,-0.00016697754235066,0.00016697863496563,-0.00016697869518942,0.0001669774581175,-0.00019188124876119,0.00019188153019995,-0.00019188163719274,0.00019188112604921,-0.00031823449929222,0.00031823413462183,-0.00031823490063442,0.00031823372896438,-0.00031823485051733,0.00031823379150739,-0.00031823525537355,0.00031823338733323,-0.00029447233448648,0.00029447205690819,-0.00029447352080457,0.00029447087642056,-0.0002944719862567,0.00029447241325057,-0.00029447316096107,0.00029447122518211,-0.0001669785869158,0.00016697758107409,-7.919301798119e-10,3.1032317340854e-10,-3.8818688664513e-10,-7.4851393137276e-11,-0.00034675203499491,0.00034675156990647,-0.00033182381451805,0.00033182330536924,-0.00036385835903465,0.00036385669169694,-0.00036385730382569,0.00036385781124153,-0.00033485497081717,0.00033485404413292,-0.0003348548733152,0.00033485414855706,-0.00033485461573896,0.00033485442046824,-0.00033485452035573,0.00033485452307724,-0.00033182377974034,0.00033182337176182,-0.00033182346068903,0.00033182367176034,-0.00036385825896398,0.0003638567982093,-0.00036385719586028,0.00036385790220381,-0.00033182413353725,0.00033182299802978,-9.9118647672579e-10,2.1124356349237e-10,-0.00026435115160666,0.00026435036725106,-2.4381932909624e-10,-5.4214340210444e-10,-0.00021710870443384,0.00021710644605855,-0.00023028943828734,0.00023028876329022,-0.00023028983503957,0.00023028835904538,-0.00021710720287058,0.00021710792624023,-0.00021710841627041,0.00021710678005842,-0.00023028913735994,0.00023028905170419,-0.00023028955667622,0.00023028866146564,-0.00030626778338614,0.00030626669044653,-0.00030626787679392,0.00030626659407975,-0.00030626738213015,0.00030626709294032,-0.00030626748056583,0.00030626699965389,-0.00028319716180668,0.00028319745129314,-0.00028319833342503,0.00028319627265987,-0.00028319824266471,0.00028319638204778,-0.00028319704906223,0.00028319754563688,-0.00021710753837317,0.00021710761553241,0.69669206609192,129794,2964,0.0011208318941898,0.001443762515896,0.0011008899741468,20.125824051236,-7.8993407590108e-05,-7.8993407590108e-05,-7.8993407590108e-05,2440218.8470097,0.0036722915154753
17991759,0.23646081255532,0.0040938586892795,0.0013081788623125,0.0014891497487444,0.0012965300782226,-0.00027659576360129,0.00027659459874745,6.2030401285879e-11,-1.2192503064018e-09,-3.5421335262816e-11,-1.155269863431e-09,-0.00016902010019359,0.00016901655895685,-0.00019510042675468,0.00019509856313502,-0.00019510085510725,0.00019509814200779,-0.00016901773596877,0.00016901892533961,-0.00016901896212182,0.00016901767653562,-0.00019509932665157,0.00019509965627184,-0.00019509974030957,0.00019509922746243,-0.00032827038097714,0.00032827002186865,-0.00032827080720729,0.00032826959139267,-0.00032827075598087,0.00032826965572127,-0.00032827118579893,0.00032826922674529,-0.00030297111819054,0.00030297084714662,-0.00030297237817189,0.00030296959424021,-0.00030297074645724,0.00030297122706688,-0.00030297199414516,0.00030296996626725,-0.00016901885069338,0.00016901780384241,-8.4431519358863e-10,3.3036841615043e-10,-4.1302083833881e-10,-8.0913174193456e-11,-0.00035835000389595,0.00035834950771533,-0.00034244398693311,0.00034244344177708,-0.00037633020618072,0.00037632842890276,-0.00037632908243551,0.00037632962256698,-0.00034593229221515,0.00034593130499485,-0.00034593218885804,0.00034593141566466,-0.00034593191429555,0.00034593170603059,-0.00034593181316341,0.00034593181503657,-0.00034244394669629,0.00034244351309491,-0.00034244360993256,0.00034244383277003,-0.00037633009952152,0.00037632854201851,-0.00037632896842786,0.00037632972055755,-0.00034244432380409,0.00034244311475531,-1.0246038167672e-09,2.5229537603474e-10,-0.00027128327255394,0.00027128249586305,-2.3074981880933e-10,-5.4795081102894e-10,-0.00022106785079252,0.00022106550787799,-0.00023513640815009,0.00023513574653766,-0.00023513682962542,0.0002351353173724,-0.00022106625709649,0.00022106707943021,-0.0002210675443991,0.00022106586080835,-0.00023513608836854,0.00023513605339152,-0.00023513653282502,0.00023513563851699,-0.0003154947509128,0.00031549364710603,-0.0003154948503036,0.00031549354461406,-0.00031549432481377,0.00031549407447782,-0.00031549442944629,0.00031549397520794,-0.00029104397090683,0.00029104433475102,-0.00029104521502588,0.00029104308295478,-0.00029104511838218,0.00029104319893398,-0.00029104385151068,0.00029104443500085,-0.0002210666118031,0.0002210667499409,0.6892030019326,129794,2964,0.0011519077275473,0.0014920173244153,0.0011297456939543,19.154251141173,-8.6765990870615e-05,-8.6765990870615e-05,-8.6765990870615e-05,2490850.6885696,0.0037808902832652
18191759,0.24425574833231,0.0042173181816122,0.0013465949271567,0.0015370730584362,0.0013336501960193,-0.00028345415313252,0.00028345296012472,8.5094581110135e-11,-1.2705061822759e-09,-4.5167846226832e-11,-1.1749949599091e-09,-0.00017104574716953,0.00017104209373108,-0.0001982192835447,0.00019821740551089,-0.00019821973655372,0.00019821695916896,-0.0001710432999217,0.00017104454245817,-0.00017104459943984,0.00017104322118142,-0.00019821817281428,0.00019821850732799,-0.00019821861121839,0.00019821805357901,-0.00033746031686772,0.00033745995848895,-0.00033746076777953,0.00033745950319178,-0.00033746069568756,0.00033745958931396,-0.0003374611503367,0.00033745913563025,-0.00031087382098931,0.00031087359133402,-0.00031087515425628,0.00031087226594528,-0.00031087344574903,0.00031087397478862,-0.00031087476625429,0.00031087264126988,-0.00017104442530919,0.00017104341278344,-8.6853549230749e-10,3.1780084401725e-10,-4.4634593654188e-10,-8.2696797066674e-11,-0.00036904140557337,0.00036904087407245,-0.00035221336976723,0.00035221281722352,-0.00038780186689749,0.00038780003117957,-0.00038780073351588,0.00038780123807939,-0.00035616833744165,0.00035616730116745,-0.00035616822445243,0.0003561674225916,-0.00035616795599791,0.00035616770648746,-0.00035616784525533,0.0003561678263061,-0.00035221335590633,0.00035221285966793,-0.00035221298967402,0.00035221321251824,-0.0003878017498903,0.00038780015529236,-0.00038780060959908,0.00038780134755846,-0.0003522137362749,0.00035221245720934,-1.0675301173651e-09,2.8406157071694e-10,-0.00027762651612519,0.00027762572819176,-2.2133233610209e-10,-5.6982041827097e-10,-0.00022484531141036,0.00022484285203788,-0.00023976978695498,0.0002397691066958,-0.00023977023313562,0.00023976865272695,-0.00022484361365545,0.00022484452822971,-0.00022484497458547,0.00022484323662887,-0.00023976943600541,0.00023976944450944,-0.00023976990563327,0.00023976900513661,-0.00032390035393004,0.0003238992244951,-0.00032390046324244,0.00032389911172381,-0.00032389990277454,0.0003238996766033,-0.00032390001766289,0.00032389956728703,-0.00029829012032923,0.00029829053600587,-0.00029829143696529,0.00029828921040364,-0.00029829133047207,0.0002982893370415,-0.00029828999024113,0.000298290646191,-0.00022484399978678,0.00022484416770644,0.70094114610938,129794,2964,0.0011804593866462,0.0015364979973148,0.0011561496070738,18.183290395506,-9.4533676835954e-05,-9.4533676835954e-05,-9.4533676835954e-05,2529914.0258591,0.0038807158392276
18391759,0.2516596629809,0.0043348198136165,0.0013831392785326,0.0015827489478017,0.0013689315872822,-0.00029041110617288,0.00029040992464874,1.2693927682752e-10,-1.3030494287197e-09,-1.056182477218e-10,-1.1018453545793e-09,-0.00017334319097825,0.00017333960404816,-0.00020163420912919,0.0002016325011788,-0.00020163468571235,0.00020163202665246,-0.00017334079750615,0.00017334199047748,-0.00017334217986466,0.00017334059945252,-0.00020163322560728,0.00020163346862803,-0.00020163368945463,0.00020163298917602,-0.00034665592201457,0.00034665555633085,-0.00034665639703169,0.00034665507687919,-0.00034665625738995,0.00034665523194203,-0.00034665673648209,0.00034665475419577,-0.00031894199478704,0.00031894189185759,-0.00031894340498487,0.00031894049329235,-0.0003189416642128,0.00031894222926427,-0.00031894306327664,0.00031894082652251,-0.00017334179370345,0.00017334100307815,-8.3032179063631e-10,2.2523613113841e-10,-4.4396661334714e-10,-1.3565378295667e-10,-0.00037972008612613,0.00037971950340698,-0.00036201271075112,0.00036201209828323,-0.00039921388104895,0.00039921213654144,-0.00039921287241121,0.00039921321235977,-0.0003663900188336,0.00036638899459366,-0.00036638992425821,0.00036638909672753,-0.00036638968016962,0.00036638935573272,-0.0003663895882749,0.0003663894572431,-0.00036201268899863,0.00036201215317958,-0.0003620123766008,0.00036201245353867,-0.00039921378084611,0.00039921224322825,-0.00039921276929271,0.00039921330847987,-0.0003620130265523,0.00036201179506292,-1.1044582242947e-09,3.2249904458144e-10,-0.00028407272550389,0.00028407194034531,-2.4751096689001e-10,-5.4031032621004e-10,-0.0002288844313178,0.00022888195527672,-0.00024463835320018,0.00024463775390722,-0.00024463882264441,0.00024463727803479,-0.00022888272073681,0.00022888365545665,-0.00022888415151604,0.00022888228046152,-0.00024463805688226,0.00024463804001721,-0.00024463854991007,0.00024463757702112,-0.00033231410057034,0.00033231293158398,-0.00033231419085289,0.00033231283734474,-0.00033231362487058,0.00033231340847807,-0.00033231372123836,0.00033231331770167,-0.00030566491103652,0.0003056654215616,-0.00030566629788146,0.00030566401530805,-0.00030566620941246,0.00030566412075434,-0.0003056648004479,0.00030566551152744,-0.00022888304594368,0.00022888335028875,0.70344890237571,129794,2964,0.0012094206388863,0.0015809237882956,0.0011829814542291,17.511801847504,-9.9905585219968e-05,-9.9905585219968e-05,-9.9905585219968e-05,2567580.0820635,0.0039813369850392
18591759,0.25893686463335,0.0044477312904376,0.001418263113497,0.0016267338722384,0.0014027343047022,-0.0002978400166073,0.00029783888791666,1.9037609309692e-10,-1.3149934064276e-09,-2.0404709258227e-10,-9.4740676581481e-10,-0.00017598866286983,0.00017598530716067,-0.00020543299173385,0.00020543161325096,-0.00020543349219597,0.00020543111305439,-0.00017598644407211,0.00017598751421739,-0.00017598790444306,0.00017598604988406,-0.00020543225383573,0.00020543232930649,-0.00020543274338874,0.00020543182445829,-0.00035636829551642,0.00035636792441762,-0.00035636879588497,0.00035636742008005,-0.00035636854928984,0.00035636768429614,-0.00035636905341349,0.00035636718177546,-0.00032745490530671,0.0003274550104208,-0.00032745639042207,0.00032745353909269,-0.00032745465772907,0.00032745526403979,-0.00032745613285467,0.00032745378862829,-0.00017598719256374,0.00017598678004777,-7.3833743448937e-10,5.9522761714697e-11,-3.9903924591079e-10,-2.5025713461159e-10,-0.00039089663898676,0.00039089598590045,-0.00037228441042752,0.00037228365813111,-0.00041110129596198,0.00041109978567999,-0.00041110053760641,0.00041110060267047,-0.00037710819053442,0.00037710723402824,-0.0003771081477569,0.00037710728245183,-0.00037710793481153,0.00037710750860374,-0.00037710789456902,0.00037710755693442,-0.00037228432085352,0.00037228378571465,-0.00037228416250537,0.00037228392885776,-0.00041110124850539,0.00041109983948926,-0.00041110048723342,0.00041110064736827,-0.00037228457267052,0.00037228351478704,-1.1244033272051e-09,3.7631883651198e-10,-0.00029098697772175,0.00029098622714085,-3.0786265054733e-10,-4.4343136384846e-10,-0.00023325830417527,0.00023325594564622,-0.00024987350650629,0.00024987312249179,-0.00024987400040558,0.00024987262268652,-0.00023325667962945,0.00023325756471513,-0.00023325817950059,0.00023325611594692,-0.00024987336583779,0.00024987325490626,-0.00024987388270453,0.00024987276824618,-0.00034123662332027,0.00034123541202712,-0.00034123666114072,0.00034123536985384,-0.00034123612349012,0.00034123591354927,-0.00034123616735874,0.0003412358751369,-0.00031352172906304,0.00031352239775749,-0.00031352318642149,0.00031352091634005,-0.00031352314957831,0.00031352096942564,-0.00031352167092646,0.00031352243463978,-0.00023325684674761,0.00023325741592317,0.68932006098378,129794,2964,0.0012403456598199,0.0016274188504797,0.0012117606990048,17.263782379078,-0.00010188974096738,-0.00010188974096738,-0.00010188974096738,2613501.49149,0.0040879739310059
18791759,0.26609426242416,0.0045654576743987,0.00145475501057,0.0016726921599492,0.0014380105038796,-0.00030551978537137,0.00030551867028803,2.346507345076e-10,-1.3444996323709e-09,-2.5393762132851e-10,-8.8358955197512e-10,-0.00017930983722379,0.00017930653751869,-0.00020989729516678,0.00020989606634064,-0.00020989782192977,0.0002098955435019,-0.00017930766116601,0.0001793087051997,-0.00017930918678473,0.00017930716710387,-0.00020989667097024,0.00020989667013942,-0.00020989718480743,0.00020989614149528,-0.00036615151000009,0.00036615113952743,-0.00036615203553123,0.00036615061034001,-0.00036615172763723,0.00036615093746808,-0.00036615225676004,0.00036615040982538,-0.00033647259921504,0.00033647282842688,-0.00033647415286881,0.0003364712845286,-0.00033647238765461,0.00033647304539771,-0.00033647392987402,0.00033647149512349,-0.00017930829541886,0.00017930807918293,-7.0937095066027e-10,-2.2405420967269e-11,-3.5824906018106e-10,-3.4298753287348e-10,-0.00040232006833641,0.00040231936345779,-0.00038287461134458,0.00038287371286768,-0.00042321573727249,0.00042321433118029,-0.00042321509070279,0.00042321503845238,-0.0003880406741781,0.00038803974554502,-0.00038804067499119,0.00038803975018301,-0.00038804045337398,0.0003880399835606,-0.0003880404565962,0.00038803998736156,-0.00038287442426949,0.00038287393076303,-0.0003828743985493,0.00038287394268808,-0.00042321573450572,0.00042321433928027,-0.00042321508319162,0.00042321503507487,-0.00038287463893546,0.00038287369678507,-1.1566422965639e-09,4.1864855178e-10,-0.00029812559362214,0.00029812485205808,-3.7038046613238e-10,-3.7247053804269e-10,-0.00023833952267946,0.00023833723195839,-0.00025580383054204,0.00025580361138704,-0.00025580434992086,0.00025580308390316,-0.0002383379528972,0.00023833878995406,-0.00023833952929875,0.00023833727515852,-0.00025580382029477,0.00025580361025559,-0.00025580436355645,0.0002558030974925,-0.00035019363860273,0.00035019236592583,-0.00035019363178889,0.00035019236818608,-0.00035019311346216,0.00035019289273272,-0.00035019311277032,0.00035019289888227,-0.00032176593241894,0.00032176672749786,-0.00032176746431243,0.00032176517803814,-0.00032176747340274,0.00032176518946002,-0.00032176591760446,0.00032176672167365,-0.00023833799478632,0.00023833877179925,0.73043485588117,129794,2964,0.0012723138107372,0.0016749385473812,0.0012414728549074,17.026680010664,-0.00010378655991469,-0.00010378655991469,-0.00010378655991469,2648791.611845,0.0041976340147916
18991759,0.27313330186087,0.004683166320015,0.0014911431022373,0.0017188414255526,0.0014731817922251,-0.00031313805676696,0.00031313692851391,2.6531201503241e-10,-1.3882964029979e-09,-2.7209756065042e-10,-8.7926157469186e-10,-0.00018245535290464,0.00018245198876401,-0.00021429037680647,0.00021428918099388,-0.00021429092847954,0.00021428863347804,-0.00018245312511713,0.00018245420702283,-0.00018245472387953,0.00018245259616509,-0.00021428977439589,0.00021428976224791,-0.00021429031280367,0.00021428920853869,-0.0003758830748559,0.00037588270909624,-0.00037588362524795,0.00037588215512918,-0.00037588328559617,0.0003758825146733,-0.000375883839571,0.0003758819622704,-0.00034554986488618,0.00034555016081555,-0.00034555149118815,0.00034554854372211,-0.00034554965973538,0.00034555037043347,-0.00034555127491807,0.00034554874722748,-0.00018245373846097,0.00018245360348205,-7.186584452131e-10,-5.3093614045378e-11,-3.1664972259223e-10,-4.2319876512429e-10,-0.00041378196377934,0.00041378122018311,-0.00039356932659523,0.00039356827755329,-0.00043545345113714,0.00043545206788876,-0.00043545282713295,0.00043545275424534,-0.00039892436221693,0.00039892344236113,-0.00039892440313402,0.0003989234065195,-0.00039892414823248,0.00039892367344706,-0.00039892419145823,0.00039892363671889,-0.00039356902700049,0.00039356860686356,-0.00039356912131168,0.00039356849995998,-0.00043545348904169,0.00043545203526449,-0.00043545286012776,0.00043545271023399,-0.00039356923395545,0.00039356838023106,-1.1936700593388e-09,4.5616975822407e-10,-0.00030518023978162,0.00030517949863791,-4.3115696747266e-10,-3.1151027220093e-10,-0.00024343894419216,0.00024343670007098,-0.00026170190500019,0.0002617018300015,-0.00026170244890513,0.00026170127727669,-0.00024343742154423,0.00024343821215294,-0.00024343907172751,0.00024343662530793,-0.00026170201375692,0.00026170170892901,-0.00026170258233289,0.00026170117182953,-0.00035907669718443,0.0003590753596867,-0.0003590766495093,0.00035907540239564,-0.00035907614707968,0.00035907591123322,-0.0003590761058316,0.00035907595815465,-0.000330021264417,0.00033002217361533,-0.00033002286900929,0.0003300205508517,-0.00033002291936998,0.00033002052229913,-0.00033002129020888,0.00033002212709943,-0.00024343734405093,0.00024343831400203,0.74318761514318,129794,2964,0.0013040256833177,0.001722616118298,0.001270835032593,16.790018130174,-0.00010567985495861,-0.00010567985495861,-0.00010567985495861,2678380.7655827,0.0043068557578763
19191759,0.28028253804843,0.0048095503759571,0.0015300354095145,0.0017686322460434,0.0015108827203992,-0.00032196843834783,0.00032196730890447,3.0111085507889e-10,-1.4289769225888e-09,-3.3380652565301e-10,-8.20587154611e-10,-0.00018683956545342,0.00018683622138681,-0.00021998526377658,0.0002199842140127,-0.00021998584303126,0.00021998362847139,-0.00018683735647791,0.00018683840074096,-0.00018683906833978,0.00018683670781645,-0.0002199847710256,0.00021998467465304,-0.00021998534306731,0.00021998408716214,-0.0003868058732824,0.00038680549399902,-0.00038680644690838,0.00038680491471373,-0.00038680604341175,0.00038680533891912,-0.00038680662105106,0.00038680476303474,-0.00035616770655469,0.00035616811253832,-0.00035616941265702,0.00035616642294238,-0.00035616754213419,0.00035616827840547,-0.000356169242946,0.00035616658742125,-0.0001868378655885,0.00018683793852708,-6.7237978358268e-10,-1.5019165462397e-10,-2.2364349481258e-10,-5.6443394364002e-10,-0.00042672004616712,0.00042671925548405,-0.00040583092692547,0.00040582964648757,-0.00044927406370823,0.00044927284635985,-0.0004492735752393,0.00044927338498129,-0.0004111595180372,0.00041115868142299,-0.00041115963629303,0.00041115856469543,-0.00041115935259105,0.00041115886303277,-0.0004111594722162,0.00041115874825662,-0.00040583044186931,0.00040583015323202,-0.00040583076971516,0.000405829828336,-0.00044927417079421,0.00044927272868335,-0.00044927369409025,0.00044927328418808,-0.00040583060528164,0.00040582997889606,-1.2282168365559e-09,4.9570906122257e-10,-0.00031340556234794,0.00031340482857041,-5.4174116391139e-10,-1.9540408666842e-10,-0.00025005419945397,0.00025005210025902,-0.00026906000575972,0.00026906017930208,-0.00026906057178458,0.00026905960365871,-0.00025005284377299,0.0002500534705341,-0.00025005454105404,0.00025005178928375,-0.00026906033529795,0.00026905983637775,-0.00026906091895163,0.00026905927591751,-0.00036909564677862,0.00036909422157269,-0.00036909552278145,0.00036909433867793,-0.00036909507278901,0.00036909479495136,-0.00036909495512448,0.00036909491769318,-0.00033963579310477,0.00033963686057901,-0.00033963746813659,0.00033963515411203,-0.00033963759223765,0.00033963504606975,-0.00033963590056632,0.00033963673297444,-0.00025005251967668,0.00025005380714566,0.78534702977273,129794,2964,0.0013407812578596,0.0017764310548404,0.0013050682477826,16.952909114864,-0.00010437672708109,-0.00010437672708109,-0.00010437672708109,2710833.3150102,0.0044322114010653
19391759,0.2877473845612,0.0049386068406272,0.0015696669675622,0.0018198038472509,0.0015491360258142,-0.00033160188127552,0.00033160079143156,3.5908528619099e-10,-1.4482580373581e-09,-4.2881523522421e-10,-6.8312296121686e-10,-0.00019127602709182,0.00019127287855558,-0.00022590409531386,0.00022590334246168,-0.00022590469962734,0.00022590273186235,-0.00019127398325677,0.00019127489320042,-0.00019127575123572,0.00019127314638395,-0.00022590383241102,0.00022590356906971,-0.00022590442326625,0.00022590296396401,-0.00039881430048954,0.00039881390812953,-0.00039881489941601,0.0003988133051983,-0.00039881439374952,0.00039881383274313,-0.00039881499899961,0.00039881322959798,-0.00036762217785074,0.00036762278067515,-0.00036762396750726,0.00036762101031533,-0.00036762209449832,0.00036762286411743,-0.0003676238711534,0.00036762110219585,-0.00019127425066768,0.0001912746720526,-6.1410970897287e-10,-2.6029203664298e-10,-1.0297476236265e-10,-7.3334040177213e-10,-0.00044091200899856,0.0004409111681979,-0.0004193324073495,0.00041933085660108,-0.00046451866778658,0.00046451765609567,-0.00046451833769195,0.00046451803077272,-0.00042450570142829,0.00042450496360986,-0.00042450591247062,0.00042450475177013,-0.00042450558900619,0.0004245050906966,-0.0004245058047998,0.00042450487840095,-0.00041933170412128,0.00041933160008912,-0.00041933231495476,0.00041933098191545,-0.00046451887019234,0.00046451745078039,-0.000464518555267,0.00046451782548061,-0.00041933181301141,0.00041933147827731,-1.2416229315934e-09,5.5451033683984e-10,-0.00032239429255691,0.00032239360501988,-6.739202973216e-10,-1.3111200663336e-11,-0.00025696082405391,0.00025695902308902,-0.00027678532919963,0.00027678588228166,-0.0002767859153951,0.00027678528897856,-0.00025695970085809,0.00025696015755367,-0.00025696149344083,0.00025695839258106,-0.00027678596598719,0.00027678523756167,-0.00027678657998177,0.0002767846503605,-0.00038015590535499,0.00038015439547356,-0.00038015567546271,0.00038015461907123,-0.00038015530688563,0.00038015499524486,-0.00038015508649658,0.00038015522114052,-0.00035008097638472,0.00035008225985495,-0.00035008271591837,0.00035008048398673,-0.00035008294749575,0.00035008026545345,-0.00035008118272184,0.0003500820307891,-0.00025695907883752,0.00025696078770515,0.76951387643077,129794,2964,0.0013808788978392,0.0018354584467929,0.0013424777767006,17.466348496497,-0.00010026921202802,-0.00010026921202802,-0.00010026921202802,2754785.6447683,0.0045693688839861
19591759,0.29554043040993,0.0050700119350436,0.0016099804210093,0.0018721575029176,0.0015878740111167,-0.00034146998171574,0.00034146890042045,4.0048451285539e-10,-1.4785627480112e-09,-4.6274264578716e-10,-6.4046556842975e-10,-0.0001956615195395,0.00019565839344085,-0.00023176103351865,0.00023176038640756,-0.00023176166178094,0.00023175975736707,-0.00019565948507618,0.00019566040705728,-0.00019566131532724,0.00019565858080397,-0.0002317608489551,0.00023176053897985,-0.00023176146348589,0.000231759909248,-0.00041121567020136,0.00041121528556318,-0.00041121629478549,0.00041121465768267,-0.00041121574104129,0.00041121523456236,-0.00041121637017395,0.00041121460749449,-0.00037925330208098,0.00037925400684065,-0.00037925515329747,0.00037925216953081,-0.00037925323939128,0.00037925407112127,-0.000379255079467,0.00037925223296661,-0.00019565967747245,0.00019566024398584,-5.8712148572398e-10,-3.3785956351288e-10,3.149368252197e-12,-8.8976273268189e-10,-0.00045552899496481,0.00045552810386888,-0.00043318267286154,0.00043318084691004,-0.00048017163272153,0.00048017076631763,-0.00048017141330431,0.00048017103939695,-0.00043829563659373,0.00043829496721367,-0.00043829593307478,0.0004382946682522,-0.00043829555660144,0.00043829505983792,-0.00043829585619507,0.00043829476037284,-0.00043318174488649,0.00043318181127758,-0.00043318260978091,0.00043318093244029,-0.00048017192701905,0.00048017047100379,-0.00048017171152005,0.00048017073966093,-0.00043318181578406,0.00043318172458863,-1.2574967238714e-09,6.1464383253812e-10,-0.00033157225862532,0.00033157161393679,-7.760286128071e-10,1.3336723093013e-10,-0.00026373619387453,0.00026373460764818,-0.000284443610672,0.00028444448088618,-0.0002844442245588,0.00028444385630298,-0.00026373523843203,0.00026373556413177,-0.00026373710658569,0.00026373374916268,-0.0002844444926914,0.00028444358534953,-0.00028444513485718,0.0002844429750497,-0.00039156734164699,0.00039156576455474,-0.00039156702987466,0.00039156606979918,-0.00039156671720673,0.00039156638957244,-0.00039156641385161,0.00039156669914174,-0.00036071880463164,0.00036072028914989,-0.00036072062196088,0.00036071844462613,-0.00036072093839414,0.0003607181507945,-0.00036071909243451,0.00036071997729287,-0.00026373438069159,0.00026373644555765,0.75193871634502,129794,2964,0.0014219522468479,0.001896250010985,0.0013806738407396,17.988882191663,-9.6088942466696e-05,-9.6088942466696e-05,-9.6088942466696e-05,2806598.0062385,0.004710089475033
19791759,0.30366885056971,0.0052033151894184,0.0016508646998495,0.001925465083894,0.0016269854056749,-0.0003515383587936,0.00035153725081097,4.2434522605933e-10,-1.5289070183224e-09,-4.4766055840223e-10,-6.8372449470807e-10,-0.00020000259055223,0.00019999930807662,-0.00023757197430052,0.00023757126560711,-0.00023757262695633,0.00023757061268577,-0.0002000004246643,0.00020000145149327,-0.00020000232923853,0.00019999955233346,-0.00023757173150113,0.00023757147604068,-0.00023757237133287,0.00023757082155153,-0.0004239565786812,0.00042395621203933,-0.0004239572284067,0.00042395555944699,-0.00042395666937886,0.00042395614205649,-0.00042395732319036,0.00042395549034043,-0.00039099893959717,0.0003909996707505,-0.00039100086291285,0.00039099776130366,-0.0003909988562886,0.00039099975452383,-0.00039100076968406,0.00039099784355297,-0.00020000067739708,0.00020000122971461,-6.3455097584444e-10,-3.2873036790537e-10,7.0494460131971e-11,-9.9458933188809e-10,-0.00047049514886366,0.00047049422036241,-0.00044728683182874,0.00044728478028787,-0.0004961133596918,0.00049611245730098,-0.00049611308721847,0.0004961127874076,-0.00045247685124954,0.0004524761821616,-0.00045247720350893,0.00045247582577404,-0.00045247675257623,0.00045247629434183,-0.00045247710759392,0.00045247593743201,-0.00044728571722742,0.00044728593324971,-0.00044728674953615,0.00044728488496585,-0.00049611371107229,0.00049611210406935,-0.00049611344113467,0.00049611243006134,-0.00044728580594213,0.00044728582778259,-1.2794182843693e-09,6.6756101207226e-10,-0.00034090647236764,0.00034090585885781,-8.4453096706446e-10,2.3419007426658e-10,-0.00027036913153877,0.00027036766892805,-0.00029202054932091,0.0002920216433244,-0.00029202118858061,0.00029202099293484,-0.00027036826989948,0.00027036853180587,-0.00027037021042912,0.0002703666453071,-0.00029202159788517,0.00029202058021394,-0.00029202226488646,0.00029201994545643,-0.00040327741096268,0.00040327578347497,-0.00040327704273777,0.00040327614488898,-0.00040327676161396,0.00040327643318028,-0.00040327640170137,0.00040327679936091,-0.00037148419167348,0.00037148583739111,-0.00037148608307631,0.00037148391934708,-0.0003714864559915,0.00037148357028888,-0.00037148453674255,0.00037148546887601,-0.00027036724313522,0.00027036958158961,0.73294776517936,129794,2964,0.0014638581026556,0.0019584900172097,0.001419519064387,18.511783258806,-9.1905733929553e-05,-9.1905733929553e-05,-9.1905733929553e-05,2864393.3746717,0.0048537755834278
19991759,0.31190696820832,0.005341089848797,0.0016930069402738,0.0019807764046544,0.0016673065038687,-0.00036123966215878,0.00036123845528695,4.1449033783999e-10,-1.6159391474477e-09,-3.5201211003638e-10,-8.8569801597476e-10,-0.0002041576642885,0.00020415390602249,-0.00024317203337159,0.00024317095090821,-0.00024317271387326,0.00024317027205886,-0.000204155114533,0.00020415642919801,-0.0002041571120512,0.0002041544367133,-0.00024317149644636,0.00024317145837435,-0.00024317216883399,0.00024317077263757,-0.00043626506321202,0.00043626472423222,-0.00043626573887498,0.00043626404426943,-0.00043626525204707,0.00043626455437511,-0.00043626593015585,0.00043626387779479,-0.00040246954515231,0.00040247015381764,-0.00040247153591156,0.00040246817120518,-0.00040246935864223,0.00040247033920644,-0.00040247134567232,0.00040246834819561,-0.00020415567409729,0.00020415590260129,-7.6784987480163e-10,-2.0921833153921e-10,7.8312915553745e-11,-1.0184846155162e-09,-0.00048512166728038,0.00048512072425811,-0.00046107315627857,0.00046107096863622,-0.00051168255566669,0.0005116814052163,-0.00051168204644671,0.00051168198832955,-0.00046632745973639,0.00046632670518975,-0.00046632782377378,0.00046632633730904,-0.00046632728094063,0.0004663269019974,-0.00046632764528363,0.00046632653544559,-0.00046107191750871,0.00046107222834202,-0.00046107298420532,0.00046107115736605,-0.00051168291716136,0.00051168103346551,-0.00051168240915951,0.00051168162681587,-0.00046107208747019,0.00046107204064175,-1.3233146216706e-09,6.950825826307e-10,-0.00034982515548172,0.00034982452459981,-8.6345456967278e-10,2.3200425718104e-10,-0.00027676592635981,0.00027676438415635,-0.00029933932979155,0.00029934044450154,-0.00029933999552085,0.00029933976377486,-0.00027676501468741,0.00027676529300519,-0.00027676700595462,0.00027676334957584,-0.00029934039477859,0.0002993393581864,-0.00029934108017636,0.00029933870053077,-0.00041450491933216,0.0004145032467103,-0.00041450454588916,0.00041450361256506,-0.00041450424580509,0.00041450391820891,-0.00041450387883925,0.00041450429152546,-0.00038188542482956,0.00038188713373935,-0.00038188739329504,0.00038188514843854,-0.0003818877705858,0.00038188479889673,-0.00038188577960834,0.00038188675753522,-0.00027676396102614,0.00027676637168478,0.74869675388237,129794,2964,0.001504235440022,0.0020193138639139,0.0014566341539495,18.674407500662,-9.06047399947e-05,-9.06047399947e-05,-9.06047399947e-05,2912585.055695,0.0049927837132799
20191759,0.32012968788543,0.0054815381129457,0.0017358426017518,0.0020374020275583,0.0017082934836356,-0.00037070223407031,0.00037070091834081,3.971865355181e-10,-1.7057533605528e-09,-2.573230319433e-10,-1.094122192921e-09,-0.00020800322330927,0.00020799899104342,-0.00024855583073826,0.00024855435868863,-0.00024855653363283,0.0002485536595933,-0.00020800031344502,0.00020800188247971,-0.00020800236787189,0.00020799982479505,-0.00024855499783518,0.00024855516612369,-0.00024855568933761,0.00024855445857542,-0.00044831991961779,0.00044831959682306,-0.00044832061967328,0.0004483188926728,-0.00044832020738634,0.00044831932720307,-0.00044832091043374,0.00044831862572326,-0.00041386242566487,0.00041386290043211,-0.0004138644887869,0.00041386084540344,-0.00041386214074919,0.00041386318606309,-0.00041386419658974,0.00041386112341942,-0.00020800116750432,0.00020800105180279,-9.2580348845657e-10,-4.6066506909394e-11,6.5293471937707e-11,-1.0010053676165e-09,-0.00049963796437517,0.00049963702494162,-0.00047481668577965,0.00047481442793424,-0.00052722235089192,0.00052722087773157,-0.00052722153208345,0.0005272217860967,-0.00047997892017847,0.00047997805179568,-0.000479979274949,0.0004799776958441,-0.00047997863753388,0.00047997835754465,-0.00047997899316589,0.00047997800125079,-0.00047481537353176,0.00047481576663893,-0.00047481641134726,0.00047481472380859,-0.00052722270563014,0.00052722052137676,-0.00052722188425279,0.00052722142782801,-0.00047481564713453,0.00047481546929733,-1.3797833129961e-09,7.1503673354508e-10,-0.00035846432334943,0.00035846365526929,-8.7000158974164e-10,2.0039341690497e-10,-0.00028296397573381,0.00028296229938653,-0.00030646900197314,0.00030647007959985,-0.00030646969398923,0.00030646937585044,-0.00028296295586803,0.0002829633075584,-0.00028296503656582,0.00028296129229232,-0.00030647004218956,0.00030646901989601,-0.00030647075796126,0.00030646833795816,-0.0004254395611416,0.00042543783322589,-0.00042543919586213,0.0004254381919722,-0.00042543886173948,0.00042543853074575,-0.0004254385031147,0.00042543889580667,-0.00039212605438,0.0003921277922913,-0.00039212809907496,0.00039212573547353,-0.00039212846831676,0.00039212539302777,-0.0003921263990115,0.000392127425822,-0.00028296193474285,0.0002829643528023,0.76566000331747,129794,2964,0.0015436190017598,0.0020796760046639,0.00149258539361,18.643339629912,-9.0853282960703e-05,-9.0853282960703e-05,-9.0853282960703e-05,2950934.0926145,0.0051291781668716
20391759,0.32833195590131,0.0056225528551696,0.0017787646175967,0.0020944947349325,0.0017492935026404,-0.00038015162509276,0.00038015021556679,3.8783329335617e-10,-1.7897507895919e-09,-1.9166644746424e-10,-1.2582879803424e-09,-0.00021167409119661,0.00021166945784419,-0.00025383253185063,0.00025383076089709,-0.00025383325940618,0.00025383003525812,-0.00021167087924102,0.00021167265191167,-0.00021167300771655,0.00021167052279467,-0.00025383147259911,0.00025383179434073,-0.00025383218790543,0.00025383106153601,-0.00046040104667976,0.00046040073216686,-0.00046040177114394,0.00046040000363175,-0.00046040140957681,0.00046040038651494,-0.00046040213736873,0.0004603996601611,-0.00042534079835641,0.00042534117856658,-0.0004253429369552,0.00042533904957259,-0.00042534043882819,0.00042534153975008,-0.00042534256919455,0.00042533940566088,-0.00021167196079304,0.00021167159681462,-1.0443023883377e-09,7.6291506318358e-11,6.2812278374335e-11,-9.9528846017037e-10,-0.00051428162479325,0.00051428068857149,-0.00048872809790501,0.00048872577268291,-0.00054295991974622,0.00054295820868556,-0.00054295886790013,0.0005429593604154,-0.00049368331191068,0.00049368236530009,-0.00049368366526259,0.00049368201275427,-0.00049368295219633,0.00049368275219667,-0.00049368330663892,0.0004936823990496,-0.00048872671406856,0.00048872718275358,-0.00048872774644087,0.00048872615020777,-0.00054296027196525,0.00054295785636834,-0.00054295921959664,0.00054295900609442,-0.00048872706660396,0.00048872680388786,-1.4347094484108e-09,7.3496094925632e-10,-0.00036705354864936,0.00036705284543331,-8.8666715569081e-10,1.8017626733154e-10,-0.00028904055456282,0.00028903876539286,-0.00031350767536241,0.00031350873533406,-0.00031350839119646,0.00031350800905029,-0.0002890394569284,0.00028903985140834,-0.00028904161436925,0.00028903776057178,-0.00031350870996924,0.0003135076802031,-0.00031350945175407,0.00031350697506294,-0.00043637298377865,0.0004363711976037,-0.00043637261915901,0.00043637155568379,-0.0004363722590966,0.0004363719197494,-0.00043637190190531,0.00043637228392303,-0.00040241048262551,0.00040241225805328,-0.00040241259957568,0.00040241012658972,-0.00040241296842583,0.00040240978388224,-0.00040241082583192,0.00040241189208719,-0.00028903844125231,0.00028904089186969,0.77157339017101,129794,2964,0.0015829473886994,0.002140564252277,0.0015283280975275,18.607194254758,-9.1142445961934e-05,-9.1142445961934e-05,-9.1142445961934e-05,2986358.3309389,0.0052658553549795
20591759,0.3365115542419,0.0057512479759512,0.001818117237561,0.002146669424297,0.0017864613140932,-0.00038890866210963,0.00038890718801415,3.9297535262273e-10,-1.8589827484119e-09,-1.5396995726467e-10,-1.364176417266e-09,-0.00021418259126684,0.00021417767631849,-0.00025791370783036,0.00025791175277282,-0.00025791446019672,0.00025791100207644,-0.00021417916468637,0.00021418108492691,-0.00021418136530756,0.00021417888451195,-0.00025791250735301,0.00025791292700157,-0.0002579132470453,0.0002579121694351,-0.00047200964934822,0.00047200934409189,-0.00047201039854225,0.00047200859066468,-0.00047201005972424,0.00047200895074313,-0.00047201081249965,0.00047200819952063,-0.00043566187206434,0.00043566221434734,-0.00043566408439786,0.00043566001292585,-0.00043566146455417,0.00043566262323191,-0.00043566366850922,0.00043566041712537,-0.00021418038870639,0.00021417988830706,-1.1263240051924e-09,1.4320984050551e-10,6.2403270793869e-11,-1.0095288881429e-09,-0.00052815901568203,0.00052815806475963,-0.00050168047854114,0.00050167807635079,-0.00055784029726356,0.0005578384286514,-0.00055783910287026,0.00055783973117843,-0.00050673550666782,0.00050673450170521,-0.0005067358646408,0.00050673414436105,-0.00050673509975906,0.00050673493882591,-0.00050673545903868,0.00050673458122508,-0.00050167903272609,0.00050167954966273,-0.00050168007956386,0.00050167850472778,-0.000557840653759,0.00055783807209316,-0.00055783945962312,0.00055783937279472,-0.00050167943370001,0.00050167912033366,-1.4750169203476e-09,7.6937100056758e-10,-0.00037495515378203,0.00037495444483722,-8.9730531975735e-10,1.8455814570989e-10,-0.00029364214332756,0.00029364028923081,-0.00031921627544735,0.0003192173689706,-0.0003192170160607,0.0003192166176705,-0.00029364098594768,0.0002936414329887,-0.00029364321975725,0.00029363927005602,-0.00031921732423948,0.0003192162989222,-0.00031921809198374,0.00031921556938728,-0.00044685972467592,0.00044685790332005,-0.00044685935474571,0.00044685826644397,-0.0004468589747709,0.00044685865014791,-0.0004468586128201,0.00044685901968253,-0.00041177370716712,0.00041177555472867,-0.00041177589714848,0.00041177335037754,-0.00041177627164499,0.00041177300247294,-0.00041177405456642,0.00041177518308313,-0.00029363995673102,0.0002936424888462,0.70761957996655,129794,2964,0.0016193948865547,0.0021982636236236,0.0015612094781329,18.570843378047,-9.1433252975622e-05,-9.1433252975622e-05,-9.1433252975622e-05,3029434.0749612,0.0053935754506754
20791759,0.34425978013751,0.0058797977471266,0.0018572891538098,0.0021989068329768,0.0018236017603401,-0.00039643193337808,0.0003964303242608,3.6909157987324e-10,-1.9659622653199e-09,-3.0618251052565e-11,-1.6307912006247e-09,-0.00021653735239956,0.0002165318334758,-0.00026160542588244,0.00026160296821404,-0.00026160620617498,0.00026160219601376,-0.00021653344246989,0.0002165357236411,-0.0002165357381202,0.00021653341498627,-0.00026160384337465,0.00026160453300258,-0.00026160461662659,0.00026160374328702,-0.00048194776593898,0.00048194748429441,-0.00048194854432385,0.00048194670128871,-0.00048194830597682,0.00048194696013913,-0.00048194908462235,0.00048194618222788,-0.00044476130770356,0.00044476146760886,-0.00044476358761084,0.00044475918770457,-0.00044476076456093,0.00044476201167295,-0.00044476304420974,0.00044475971520531,-0.00021653506634017,0.00021653411101588,-1.278318574745e-09,3.1080844827353e-10,-2.8459954832621e-13,-9.3514153746408e-10,-0.00054030563008489,0.00054030469208032,-0.00051301279684627,0.0005130104270297,-0.00057080496576161,0.0005708027597073,-0.00057080347647574,0.00057080438518004,-0.00051819220546249,0.0005181910633801,-0.00051819252119292,0.00051819075125835,-0.00051819169659836,0.00051819160750438,-0.00051819201111641,0.00051819129812394,-0.00051301136591102,0.000513011861758,-0.00051301228195541,0.00051301095901819,-0.00057080528111982,0.00057080244131969,-0.00057080378088283,0.0005708040712775,-0.00051301186699821,0.00051301132654864,-1.5383673187313e-09,7.7071077969707e-10,-0.00038161295356642,0.00038161217993798,-8.5560487107909e-10,7.272695712856e-11,-0.00029779831779897,0.0002977961839999,-0.00032430025475482,0.00032430115114826,-0.00032430102091706,0.00032430036992022,-0.00029779694845544,0.00029779752309436,-0.00029779922200963,0.00029779532841355,-0.0003243011540056,0.00032430022323582,-0.00032430193852304,0.00032429947496055,-0.00045567186479975,0.00045567000887311,-0.00045567154755347,0.00045567031977621,-0.00045567109302456,0.00045567077626128,-0.00045567078059921,0.00045567109691911,-0.00041987512690683,0.00041987692978289,-0.00041987739019978,0.0004198746669641,-0.00041987771349563,0.00041987437961903,-0.00041987542707052,0.00041987660794767,-0.00029779606181728,0.00029779844102815,0.74689073010476,129794,2964,0.0016507071019085,0.0022487635362514,0.0015889146973239,17.866071021618,-9.7071431827054e-05,-9.7071431827054e-05,-9.7071431827054e-05,3053896.4754496,0.0055037012836455
20991759,0.35148384188725,0.0059953786805736,0.001892581010014,0.0022459221698598,0.0018568755006998,-0.00040270055499644,0.00040269884933534,3.5593803089631e-10,-2.0464179546303e-09,4.8551914919385e-11,-1.8095043671484e-09,-0.00021755666609407,0.00021755073887375,-0.00026396263875593,0.00026395984679419,-0.00026396344055766,0.00026395905574896,-0.00021755246405199,0.0002175549411133,-0.0002175547878535,0.00021755258636678,-0.00026396080723731,0.00026396166416955,-0.00026396159388196,0.00026396085886125,-0.00049061238068025,0.00049061210980483,-0.00049061318291593,0.00049061130593457,-0.00049061300596352,0.0004906115026359,-0.00049061380911184,0.00049061069984897,-0.00045237166580635,0.00045237171429562,-0.00045237401390182,0.00045236936575763,-0.0004523710396002,0.00045237234249672,-0.00045237337869338,0.00045236998136802,-0.00021755432475478,0.0002175530796163,-1.4329794520202e-09,4.8548681867418e-10,-6.5025410619444e-11,-8.5145796272523e-10,-0.00055097552838978,0.00055097460815952,-0.00052287529396491,0.00052287298505593,-0.00058236525874679,0.00058236269819378,-0.00058236344854596,0.00058236465668893,-0.00052816014602772,0.00052815885887969,-0.00052816041346827,0.00052815860084892,-0.00052815952874209,0.00052815951660211,-0.00052815979749209,0.00052815925658014,-0.00052287390413373,0.00052287438602416,-0.00052287467686559,0.0005228736233107,-0.00058236552976035,0.00058236243856294,-0.00058236370678653,0.00058236437969892,-0.00052287451312305,0.00052287373593754,-1.60208777365e-09,7.878053367495e-10,-0.00038705084018322,0.0003870500181197,-8.1615476751278e-10,-1.5753003029089e-11,-0.00030053169457717,0.00030052930910744,-0.00032797010746809,0.00032797085445959,-0.00032797090108187,0.0003279700502575,-0.00030053009878232,0.00030053085694318,-0.00030053248782763,0.00030052857998313,-0.00032797087972572,0.00032797005630432,-0.00032797169993214,0.00032796927841195,-0.00046326564317545,0.00046326375097266,-0.00046326536845885,0.00046326402239627,-0.00046326484401113,0.00046326454795542,-0.00046326457487643,0.00046326482523978,-0.0004266326379944,0.00042663442182185,-0.00042663497744204,0.0004266320910017,-0.000426635259045,0.00042663184391095,-0.00042663288771669,0.00042663414807684,-0.00030052936310082,0.0003005316294322,0.72120224309459,129794,2964,0.0016767995351946,0.0022931227370682,0.001611544510539,16.958657238473,-0.00010433074209221,-0.00010433074209221,-0.00010433074209221,3069093.5970993,0.0055973124110667
21191759,0.35821337011724,0.0061033928749299,0.0019255758771174,0.0022898715009777,0.0018879454968348,-0.00040846162414106,0.00040845984380906,3.5507206076286e-10,-2.1229273416593e-09,7.8042358969798e-11,-1.9177949037556e-09,-0.00021861267336816,0.00021860645018465,-0.00026619673642421,0.00026619376014368,-0.00026619756334495,0.0002661929386333,-0.00021860824713982,0.00021861086465075,-0.00021861066589624,0.00021860843352079,-0.00026619476710782,0.00026619571287512,-0.0002661955812752,0.00026619487781584,-0.00049855353068527,0.00049855325949828,-0.00049855435604401,0.00049855242938911,-0.000498554200303,0.00049855260474988,-0.0004985550280616,0.0004985517779218,-0.00045935111759284,0.00045935112031057,-0.00045935354674775,0.00045934869803213,-0.00045935044760228,0.00045935179271544,-0.00045935286958555,0.00045934936070461,-0.00021861025352866,0.00021860887290008,-1.4973194269487e-09,5.4352982597625e-10,-9.887340904037e-11,-8.2254218235775e-10,-0.00056075656451092,0.0005607556399332,-0.00053186307247955,0.00053186078046555,-0.00059294704246319,0.00059294433332106,-0.00059294511391533,0.00059294641307903,-0.00053733578876164,0.00053733444165345,-0.00053733603712017,0.00053733420239645,-0.00053733513533262,0.00053733513848328,-0.00053733538363072,0.00053733489931247,-0.00053186170551096,0.0005318621593849,-0.00053186241782849,0.00053186146610621,-0.00059294728991504,0.00059294409287625,-0.00059294535358131,0.00059294616745189,-0.00053186235484677,0.00053186147016978,-1.6617769133826e-09,8.0315885582768e-10,-0.00039201516882734,0.00039201430445862,-8.0483510692818e-10,-7.1794108683195e-11,-0.00030309857162005,0.00030309599533369,-0.00033139327063982,0.00033139393150172,-0.00033139408731578,0.00033139310424012,-0.00030309684588868,0.00030309769258289,-0.00030309929831523,0.00030309533184806,-0.00033139397514295,0.00033139320112137,-0.00033139481787514,0.00033139240160132,-0.00047016782694279,0.00047016589431905,-0.00047016757286476,0.00047016614196407,-0.00047016700290758,0.00047016671354804,-0.00047016675609,0.00047016696926351,-0.00043284686519675,0.00043284866199472,-0.00043284927543714,0.00043284624479156,-0.00043284953565721,0.0004328460178084,-0.00043284709620964,0.00043284840470517,-0.00030309616500173,0.00030309840565,0.72387546755811,129794,2964,0.0017007789988936,0.0023337845460918,0.0016322034138485,16.04582158878,-0.00011163342728976,-0.00011163342728976,-0.00011163342728976,3081942.2677813,0.0056831056745216
21391759,0.36457362890963,0.0062058707783538,0.0019568807062788,0.0023315928874718,0.0019173971846031,-0.00041417933373188,0.0004141775483556,3.8919396574444e-10,-2.1638418952772e-09,2.8211860330856e-11,-1.8725322131983e-09,-0.00021984231122007,0.00021983610284032,-0.00026855875559865,0.00026855589421566,-0.00026855960569222,0.00026855504618613,-0.00021983790436272,0.00021984049389718,-0.00021984040213773,0.0002198379916521,-0.00026855687755652,0.00026855775197859,-0.0002685577161525,0.00026855689132135,-0.00050635141879665,0.00050635113721482,-0.00050635226878999,0.00050635028231969,-0.00050635205766085,0.00050635051406709,-0.00050635291029794,0.00050634966256385,-0.00046625090935076,0.00046625101149703,-0.00046625341650766,0.00046624851573789,-0.000466250271816,0.00046625165121122,-0.00046625277261011,0.00046624914845144,-0.00021983981765741,0.00021983860235618,-1.4622746052204e-09,4.8202291225977e-10,-8.1013389500972e-11,-8.6441386118234e-10,-0.00057032641681589,0.00057032546760355,-0.00054067486000194,0.00054067251877151,-0.00060332991293662,0.0006033272917683,-0.00060332807748091,0.00060332927450182,-0.00054630018563084,0.00054629886598489,-0.00054630045346077,0.00054629860645319,-0.00054629956354394,0.00054629953054869,-0.00054629983160208,0.0005462992717561,-0.00054067347128564,0.00054067392779532,-0.00054067424054244,0.00054067317654456,-0.00060333017999931,0.0006033270335622,-0.00060332833894807,0.00060332901287488,-0.00054067408805054,0.00054067327061023,-1.7029263305563e-09,8.3672790006642e-10,-0.00039695772250536,0.00039695685169384,-8.3745018419691e-10,-4.4994386496496e-11,-0.00030577530367536,0.00030577270631318,-0.00033490737441688,0.0003349081123611,-0.00033490821540063,0.00033490726312266,-0.00030577356700784,0.00030577442182428,-0.00030577609027433,0.00030577198043197,-0.00033490813789479,0.00033490732624501,-0.0003349090050824,0.00033490650353527,-0.00047694567112663,0.00047694368849726,-0.00047694539705857,0.00047694395608398,-0.00047694482288501,0.00047694453245452,-0.00047694455609858,0.00047694480790505,-0.00043901773175923,0.00043901961543753,-0.00043902021240966,0.00043901711837125,-0.0004390204917882,0.00043901686944545,-0.00043901798307644,0.00043901933591549,-0.00030577282227506,0.0003057751936535,0.72692810402955,129794,2964,0.0017245774715744,0.0023735668497027,0.0016527712730838,15.323611992609,-0.00011741110405913,-0.00011741110405913,-0.00011741110405913,3094922.9882589,0.0057677477289113
21591759,0.37061021560416,0.00630395775915,0.0019868279014929,0.0023715696432219,0.0019455602144351,-0.00041967982807743,0.00041967806840035,4.3905550347928e-10,-2.1878407604077e-09,-4.6035492948761e-11,-1.7713937523133e-09,-0.00022107799651594,0.00022107191393436,-0.0002708910670126,0.00027088842991197,-0.00027089194277195,0.00027088755688298,-0.00022107369108738,0.00022107620439183,-0.00022107625956475,0.00022107362924547,-0.00027088936229523,0.00027089011369822,-0.00027089022606903,0.00027088922872604,-0.00051382951360839,0.00051382922418293,-0.0005138303885535,0.0005138283447754,-0.00051383009581057,0.0005138286594193,-0.00051383097326506,0.00051382778300474,-0.00047292263444569,0.00047292289304885,-0.00047292521251263,0.00047292032556877,-0.00047292205403184,0.00047292347475692,-0.00047292462512713,0.0004729208995199,-0.00022107542991915,0.00022107448746401,-1.3935359756972e-09,3.7882652969871e-10,-3.9078555765181e-11,-9.3969923215748e-10,-0.00057952774980628,0.00057952676747499,-0.00054916699342005,0.00054916456085985,-0.00061332394464101,0.00061332150031841,-0.00061332227889668,0.00061332331130843,-0.00055490254040584,0.00055490128224355,-0.00055490284609399,0.00055490098390784,-0.00055490197290119,0.00055490188941611,-0.00055490227901612,0.000554901591548,-0.00054916554414816,0.00054916602515819,-0.00054916642982076,0.00054916515930687,-0.00061332424974038,0.00061332120237705,-0.00061332257947442,0.00061332301038309,-0.00054916610490667,0.00054916542528783,-1.7344093348723e-09,8.7997293573968e-10,-0.00040169914834583,0.00040169828896189,-8.9064354271032e-10,1.9445828132177e-11,-0.0003083827504659,0.00030838020757937,-0.00033833307405562,0.00033833396300552,-0.00033833394007017,0.00033833308800287,-0.00030838105580806,0.00030838187833634,-0.00030838365237228,0.00030837936537709,-0.00033833395277469,0.00033833306046825,-0.00033833484460731,0.00033833221166108,-0.00048343150407822,0.0004834294684055,-0.0004834311907171,0.00048342977512661,-0.00048343063091893,0.00048343033776612,-0.00048343032484932,0.00048343065222334,-0.00044495817237045,0.00044496017947986,-0.00044496072473653,0.00044495761048204,-0.00044496104535585,0.00044495732414344,-0.00044495846182795,0.00044495986097058,-0.00030838019753127,0.00030838276571268,0.73328392896073,129794,2964,0.0017474717206495,0.0024118156659686,0.0016725020195061,14.658364050895,-0.00012273308759284,-0.00012273308759284,-0.00012273308759284,3105941.5223421,0.0058491024641776
21791759,0.37633908776804,0.0063957151269271,0.0020148681663427,0.0024089920298275,0.0019718549307569,-0.00042475677821532,0.00042475504784994,4.9056510713154e-10,-2.2103956331954e-09,-1.1194716228957e-10,-1.6742996445157e-09,-0.00022201497086803,0.00022200900777263,-0.00027289074342763,0.00027288832259894,-0.00027289164399643,0.0002728874252549,-0.00022201075517069,0.00022201320852831,-0.00022201339438967,0.00022201056189813,-0.00027288919982308,0.00027288984496207,-0.00027289008831395,0.00027288893607774,-0.00052081366391514,0.00052081337471301,-0.00052081456385668,0.00052081247076325,-0.00052081419425585,0.00052081286418613,-0.00052081509657472,0.00052081196294,-0.00047907493119353,0.00047907534539339,-0.00047907758185179,0.00047907270593091,-0.00047907440383219,0.00047907587304408,-0.00047907704707457,0.00047907322539067,-0.00022201233232296,0.0002220116530113,-1.332066525782e-09,2.8041550876707e-10,1.0477881529235e-11,-1.0245785526222e-09,-0.00058813774380925,0.00058813672609138,-0.00055709062565829,0.00055708807922062,-0.00062268232444649,0.00062268004827344,-0.0006226808155368,0.00062268169851956,-0.00056293897413874,0.00056293777690133,-0.00056293932312374,0.00056293743385057,-0.00056293845737595,0.00056293833038226,-0.00056293880682495,0.00056293798752524,-0.00055708909764088,0.00055708962201683,-0.00055709011471227,0.00055708862318019,-0.00062268267386521,0.00062267970570942,-0.00062268116013316,0.00062268135185567,-0.00055708960572043,0.00055708907560043,-1.7610487051599e-09,9.2806729022545e-10,-0.00040604143487011,0.00040604059701717,-9.4664957067362e-10,9.7868813106465e-11,-0.00031058137358744,0.0003105789125017,-0.00034133981149637,0.00034134087962687,-0.0003413407023766,0.00034133997926194,-0.00031057973846577,0.0003105805241236,-0.00031058240954172,0.00031057793892977,-0.0003413408225616,0.00034133984478871,-0.00034134173954875,0.00034133897052848,-0.00048947144848496,0.00048946936416107,-0.00048947109011898,0.00048946971542073,-0.0004894705505132,0.00048947025884143,-0.00048947019970493,0.00048947061792424,-0.00045043394258107,0.00045043608867161,-0.00045043656579723,0.00045043344530282,-0.00045043693359636,0.00045043311609054,-0.00045043427572401,0.0004504357247952,-0.00031057874920173,0.00031058154353864,0.72318902333818,129794,2964,0.0017686035432271,0.0024476051985203,0.0016905720440465,13.994641114648,-0.00012804287108281,-0.00012804287108281,-0.00012804287108281,3115616.4698202,0.0059245466820925
21991759,0.38211875909028,0.0064868559164386,0.0020427508804981,0.0024461746302077,0.0019979304057329,-0.00043123930189374,0.00043123769931866,5.8746276893037e-10,-2.1861347019237e-09,-2.7124242084788e-10,-1.3534384077092e-09,-0.00022424306314566,0.00022423779189225,-0.00027618991547665,0.00027618812251001,-0.00027619079129345,0.00027618726236275,-0.0002242393590945,0.00022424151090872,-0.00022424196747643,0.00022423886235923,-0.00027618884564333,0.00027618918057979,-0.00027618971290922,0.00027618827917594,-0.00052927405504315,0.0005292737530243,-0.00052927498809763,0.00052927282814591,-0.00052927443628813,0.00052927340480802,-0.00052927536712889,0.00052927248028287,-0.00048663454532334,0.00048663530979709,-0.00048663729869139,0.00048663259624791,-0.00048663417708225,0.00048663568543612,-0.00048663692282754,0.00048663296276955,-0.00022424043232668,0.00022424035761584,-1.13858418477e-09,2.2868069727049e-11,1.5685513009337e-10,-1.2170746196778e-09,-0.0005982533086722,0.00059825222814389,-0.00056645876317276,0.00056645600354547,-0.00063354118598281,0.00063353940050152,-0.00063354009625646,0.00063354059432797,-0.00057247650481379,0.00057247548763233,-0.00057247696126938,0.0005724750359685,-0.00057247612731923,0.00057247589024813,-0.00057247658526399,0.00057247543560171,-0.0005664571518199,0.0005664578209149,-0.00056645842595071,0.00056645640909454,-0.0006335417052873,0.00063353900697415,-0.00063354051341605,0.00063354005325366,-0.00056645746993179,0.0005664574108466,-1.7582660992879e-09,1.0094600965252e-09,-0.00041178857667518,0.00041178782912111,-1.0553470190476e-09,3.3212613832064e-10,-0.00031409503306263,0.00031409297586239,-0.00034570199775354,0.00034570358059941,-0.00034570292229309,0.00034570267146753,-0.00031409362522262,0.00031409435534934,-0.00031409647055129,0.00031409172221992,-0.00034570337270678,0.00034570223309711,-0.0003457043552808,0.00034570135457334,-0.00049696506688918,0.00049696291912125,-0.00049696459910817,0.00049696338719764,-0.00049696415000253,0.00049696384990345,-0.00049696368946139,0.00049696432306376,-0.00045732586387463,0.00045732827936763,-0.00045732854724598,0.00045732552142496,-0.00045732902358772,0.00045732507505931,-0.00045732629582086,0.0004573277953734,-0.00031409232730894,0.00031409567128323,0.7124711512252,129794,2964,0.0017955819716275,0.0024896510587758,0.0017144857322088,14.108751658202,-0.00012712998673438,-0.00012712998673438,-0.00012712998673438,3142704.249973,0.0060180518146894
22191759,0.3880528649031,0.0065788251574022,0.0020708983871223,0.0024837487539797,0.0020241780163001,-0.00043822434722301,0.00043822284798815,6.7527110776942e-10,-2.171844321838e-09,-4.2064010460854e-10,-1.1043308497153e-09,-0.00022681711042204,0.00022681219060645,-0.00027985256797599,0.0002798513066183,-0.00027985349120132,0.00027985039216295,-0.00022681367550315,0.00022681562027953,-0.00022681640484648,0.00022681287174465,-0.00027985188962171,0.0002798519644998,-0.00027985280269769,0.00027985102608797,-0.00053832644066924,0.00053832613647868,-0.00053832739441208,0.000538325185676,-0.00053832669030113,0.00053832591943371,-0.00053832764489678,0.00053832496955631,-0.00049465717757,0.00049465824334253,-0.00049465998811569,0.00049465546101411,-0.00049465693879819,0.00049465848397563,-0.0004946597407184,0.00049465569381847,-0.00022681437004712,0.00022681490281038,-9.8200801956438e-10,-2.2014491989477e-10,2.8107677253099e-10,-1.4303509234495e-09,-0.00060897876149047,0.00060897759974758,-0.00057636557545923,0.00057636252497229,-0.00064501180608119,0.00064501044998367,-0.00064501110770839,0.00064501123534029,-0.00058263413977109,0.00058263328964432,-0.00058263470493322,0.00058263272368187,-0.00058263389091398,0.00058263355738461,-0.00058263445383929,0.00058263298543158,-0.00057636372797325,0.00057636450381208,-0.0005763653564498,0.00057636278544721,-0.00064501241072604,0.00064500991559646,-0.00064501164974606,0.00064501061400093,-0.0005763639330427,0.00057636423509118,-1.7536419534421e-09,1.0888857673167e-09,-0.00041802059777437,0.0004180199331556,-1.1856458821171e-09,5.3704922734356e-10,-0.0003179382175546,0.0003179364719471,-0.000350458145307,0.00035046014632325,-0.00035045909143598,0.00035045920104454,-0.00031793708733741,0.00031793759124181,-0.00031793995601362,0.00031793485818095,-0.00035045983977309,0.00035045845924916,-0.00035046082931829,0.00035045754152101,-0.00050501453462147,0.00050501233813118,-0.00050501395176305,0.00050501291548087,-0.00050501359074958,0.00050501328942228,-0.00050501301699302,0.00050501387381442,-0.00046472151653342,0.00046472419828093,-0.00046472427027901,0.00046472138110689,-0.00046472486363294,0.00046472082675258,-0.00046472206296881,0.00046472360230672,-0.00031793544537497,0.00031793926004293,0.70115780346732,129794,2964,0.0018246505300985,0.0025342299748324,0.0017404160681394,14.451454379056,-0.00012438836496755,-0.00012438836496755,-0.00012438836496755,3176911.0451977,0.0061182472122201
22391759,0.39414548273231,0.0066769057083088,0.0021008079418786,0.002523932703636,0.0020521650627942,-0.00044559178881358,0.00044559031978168,7.2914063372473e-10,-2.1941044157191e-09,-4.6645569034885e-10,-1.0330017133376e-09,-0.00022983852201716,0.00022983363246833,-0.0002839919346772,0.00028399084809263,-0.00028399289666567,0.00028398989178303,-0.00022983509410878,0.00022983703946381,-0.00022983793268053,0.00022983419910598,-0.00028399136992138,0.00028399138619416,-0.0002839923233805,0.00028399041526604,-0.00054774299606254,0.00054774270973962,-0.00054774397410602,0.0005477417334427,-0.00054774320839426,0.00054774253152145,-0.00054774418694259,0.00054774155587001,-0.00050325583561152,0.00050325704590924,-0.00050325871233755,0.00050325419010747,-0.00050325563333435,0.00050325724539202,-0.00050325850401779,0.00050325438264007,-0.00022983568381641,0.00022983646024976,-9.4368275275732e-10,-3.1444117978964e-10,3.6272833630089e-10,-1.5698982649214e-09,-0.00062022364400052,0.00062022242906109,-0.00058681591363273,0.00058681262604984,-0.00065702737029653,0.00065702616612256,-0.00065702680686086,0.00065702681765181,-0.00059327646199689,0.00059327568026976,-0.0005932770986272,0.00059327503788167,-0.00059327625614638,0.000593275902638,-0.00059327689196662,0.0005932752574855,-0.00058681386519745,0.00058681475388446,-0.00058681572940758,0.00058681283827067,-0.00065702802870197,0.00065702553851697,-0.00065702743208314,0.0006570261463391,-0.000586814039246,0.00058681453399351,-1.765062220206e-09,1.1496377540322e-09,-0.00042459271879714,0.00042459210216295,-1.2727056719589e-09,6.6613108280249e-10,-0.00032229200154972,0.00032229043954159,-0.00035574397551471,0.00035574624648063,-0.00035574494214183,0.00035574527190838,-0.00032229103108,0.0003222914071088,-0.00032229393875074,0.00032228859764871,-0.00035574587450231,0.00035574433897826,-0.00035574687582687,0.00035574339159108,-0.00051337625511471,0.00051337401296956,-0.00051337559952736,0.00051337466094641,-0.00051337528584226,0.00051337498675195,-0.0005133746392645,0.00051337564297505,-0.00047254584498314,0.000472548720767,-0.00047254867088188,0.00047254583956685,-0.00047254934166405,0.000472545216492,-0.00047254646964709,0.00047254805472063,-0.00032228916503425,0.0003222933011743,0.72867975166105,129794,2964,0.0018553092900651,0.0025809652965944,0.001767760576283,14.800282311801,-0.00012159774150559,-0.00012159774150559,-0.00012159774150559,3208980.1662792,0.0062236448080182
22591759,0.40039808957368,0.006778507045669,0.0021317258228977,0.002565691560409,0.0020810896623623,-0.00045314626625679,0.00045314476471818,7.5072112685254e-10,-2.2470967839269e-09,-4.3450575367689e-10,-1.1000479046299e-09,-0.00023276839645368,0.00023276330155439,-0.00028817947750998,0.00028817828448881,-0.00028818046603715,0.000288177302066,-0.00023276479635507,0.0002327668801194,-0.0002327677083152,0.00023276396672194,-0.0002881788158602,0.00028817892019633,-0.00028817979551224,0.00028817792364588,-0.00055744425733522,0.00055744399726817,-0.00055744526020523,0.00055744299583848,-0.00055744450334517,0.00055744378642773,-0.00055744550662424,0.00055744278549284,-0.00051218553012836,0.00051218674958869,-0.00051218847930155,0.00051218381979914,-0.00051218529400355,0.00051218698094432,-0.00051218823738074,0.00051218404463762,-0.0002327654845425,0.00023276620346988,-1.0067977167267e-09,-2.7685933066966e-10,4.0321766035593e-10,-1.6356176894104e-09,-0.00063189983923844,0.00063189859897172,-0.00059771501234799,0.00059771156145875,-0.00066955574184024,0.00066955444905324,-0.00066955508240701,0.00066955520120035,-0.00060426018790668,0.00060425938263306,-0.00060426085878731,0.00060425870453391,-0.0006042599494364,0.00060425963927778,-0.00060426062044117,0.00060425895926506,-0.00059771282569404,0.00059771382625202,-0.00059771479596152,0.00059771180837964,-0.00066955643322398,0.00066955378433083,-0.00066955574482055,0.00066955449725919,-0.00059771303362597,0.00059771357312693,-1.7943125754365e-09,1.1946739772065e-09,-0.00043130375945528,0.00043130315838607,-1.3178158275787e-09,7.2687517203e-10,-0.00032669222292526,0.00032669070954336,-0.00036113639297402,0.00036113880774479,-0.00036113738405151,0.00036113780848975,-0.00032669128415138,0.00032669164355151,-0.00032669426564737,0.00032668876410351,-0.00036113839556943,0.00036113679582051,-0.00036113942173057,0.00036113582410916,-0.00052199288383636,0.00052199059689326,-0.00052199219280466,0.00052199128001212,-0.0005219918891653,0.00052199159506019,-0.00052199120732698,0.0005219922865952,-0.00048061395932695,0.000480616958842,-0.00048061685980243,0.00048061400669912,-0.00048061756669948,0.00048061334889474,-0.00048061461970604,0.00048061625791664,-0.0003266893132292,0.00032669364121005,0.73620698632013,129794,2964,0.001886746525655,0.0026294910606874,0.0017956828270483,15.149359132532,-0.00011880512693975,-0.00011880512693975,-0.00011880512693975,3237657.4544515,0.0063322208121668
22791759,0.40670924788667,0.0068819159822796,0.0021631364381575,0.002608323796751,0.0021104557473712,-0.00046040830596476,0.0004604067176133,7.4559473640142e-10,-2.3261054937062e-09,-3.5856824609651e-10,-1.2822235307895e-09,-0.00023536249596631,0.00023535689850754,-0.00029206463530359,0.00029206312328626,-0.00029206567334522,0.00029206208151017,-0.00023535851181211,0.00023536084041993,-0.00023536155068578,0.0002353578283134,-0.0002920637166551,0.00029206400546362,-0.0002920647446673,0.00029206296999712,-0.00056686856121381,0.00056686832898282,-0.00056686958412771,0.00056686730270018,-0.00056686888939177,0.00056686803225516,-0.00056686991505445,0.00056686700611349,-0.00052087201661573,0.00052087313866661,-0.00052087502675616,0.00052087013573069,-0.0005208716932234,0.00052087344932164,-0.00052087469953727,0.00052087044877097,-0.00023535947052844,0.00023535995700868,-1.1470443624939e-09,-1.4591915847575e-10,3.9500990084e-10,-1.6436541186976e-09,-0.0006433645826828,0.00064336333409705,-0.00060843052346707,0.00060842696100764,-0.00068186961682919,0.00068186804790097,-0.0006818687036683,0.0006818690744137,-0.00061501099668464,0.00061501010408212,-0.00061501166882363,0.00061500942279876,-0.00061501067513028,0.00061501045206696,-0.00061501134917117,0.00061500977246267,-0.00060842820147209,0.00060842927234332,-0.00060843021052851,0.00060842729669284,-0.00068187027605868,0.0006818673521433,-0.00068186939083641,0.00068186841796544,-0.00060842852009883,0.00060842893529252,-1.8404985953015e-09,1.2234564420249e-09,-0.0004376868500023,0.00043768622935542,-1.3381855232819e-09,7.1103862027845e-10,-0.00033073895045588,0.00033073732055879,-0.0003662029304594,0.0003662053226492,-0.0003662039398632,0.00036620429124584,-0.00033073796034102,0.00033073831504184,-0.00033074097150322,0.00033073533603229,-0.00036620492232536,0.0003662032967489,-0.0003662059521915,0.00036620228814391,-0.00053031867799843,0.0005303163522302,-0.00053031798262763,0.0005303170360091,-0.00053031765496403,0.00053031737059825,-0.00053031697028587,0.00053031806365283,-0.00048841219479717,0.00048841525476325,-0.00048841517142456,0.00048841224254427,-0.00048841588482243,0.00048841158202676,-0.0004884128636564,0.00048841455268185,-0.0003307359687769,0.00033074033598382,0.74292713920018,129794,2964,0.0019169673610034,0.0026771356625396,0.0018222406822893,15.287471565786,-0.00011770022747371,-0.00011770022747371,-0.00011770022747371,3260912.2947199,0.0064373244609482
22991759,0.41306504703741,0.006980583804024,0.0021932025810418,0.0026490391436579,0.0021383420793243,-0.00046736089160498,0.00046735922163139,7.4342454893446e-10,-2.4034093581115e-09,-2.5979688607464e-10,-1.4583695009746e-09,-0.00023738758595862,0.00023738162428426,-0.00029537963412391,0.00029537778686258,-0.00029538067945564,0.00029537674690459,-0.00023738329910776,0.0002373858912024,-0.00023738636596189,0.00023738282013182,-0.00029537844912696,0.00029537894731281,-0.0002953794838992,0.00029537789562922,-0.00057610142357778,0.00057610122541847,-0.0005761024744534,0.00057610017349329,-0.00057610184453188,0.00057610083709039,-0.00057610289630883,0.00057609978619894,-0.00052900859034524,0.00052900961327745,-0.00052901167891599,0.0005290065348643,-0.00052900817263151,0.0005290100223171,-0.00052901125768556,0.00052900693927269,-0.00023738452006433,0.00023738469011058,-1.2767775752038e-09,-1.2968174160225e-11,3.8553127238905e-10,-1.627471137657e-09,-0.00065452857006289,0.00065452732171217,-0.00061875726155185,0.00061875364719136,-0.0006938527229364,0.00069385088807988,-0.00069385155430871,0.00069385218169181,-0.00062549755803917,0.00062549656249042,-0.0006254982218625,0.00062549589309486,-0.00062549714973167,0.00062549700024592,-0.00062549781473859,0.00062549633052861,-0.0006187549099927,0.00061875605037525,-0.00061875686952346,0.00061875407400655,-0.00069385339923581,0.00069385022406414,-0.00069385221713308,0.00069385149959856,-0.00061875529797697,0.00061875561980396,-1.8825200963823e-09,1.2548068844522e-09,-0.00044375505597378,0.00044375442493147,-1.3232241888073e-09,6.952714965879e-10,-0.00033408767620536,0.00033408595708319,-0.00037064453225863,0.00037064692915804,-0.00037064557151026,0.00037064587922296,-0.00033408656414867,0.00033408705059034,-0.00033408968865977,0.00033408403650352,-0.00037064650394392,0.00037064493858161,-0.00037064757726796,0.00037064391851621,-0.00053845365444657,0.00053845129839203,-0.0005384529705774,0.00053845197240656,-0.00053845260690225,0.0005384523433589,-0.00053845193336582,0.00053845302713556,-0.00049584140208692,0.00049584451268054,-0.00049584445372178,0.00049584142255063,-0.00049584515521056,0.00049584077562839,-0.00049584205421157,0.00049584381945577,-0.00033408462059543,0.0003340890270639,0.70494322997242,129794,2964,0.0019459011941216,0.0027235287233929,0.0018474887365612,15.399271661348,-0.00011680582670922,-0.00011680582670922,-0.00011680582670922,3286371.603876,0.0065385678274429
23191759,0.41946358462039,0.007080895101936,0.0022237430599957,0.0026904860618384,0.0021666659801019,-0.00047446654759119,0.00047446480570433,7.4443596322762e-10,-2.476792346194e-09,-2.0171702035996e-10,-1.5918507685076e-09,-0.00023987116161826,0.0002398648629611,-0.00029907933223954,0.00029907724553462,-0.00029908040121067,0.0002990761809229,-0.00023986661238539,0.00023986939012655,-0.00023986975307115,0.00023986624983027,-0.0002990779570486,0.00029907859430072,-0.00029907901552036,0.00029907751839842,-0.00058541052939412,0.00058541034851046,-0.00058541160476437,0.00058540927206583,-0.00058541101301599,0.00058540989691547,-0.00058541208960871,0.00058540882143714,-0.0005372379277913,0.00053723888789858,-0.00053724109038684,0.00053723573631897,-0.00053723744628845,0.00053723935959574,-0.00053724060646711,0.00053723620631379,-0.00023986802273734,0.00023986800239399,-1.3799648791378e-09,8.1403460496336e-11,3.638358004245e-10,-1.6146158848394e-09,-0.00066572287970075,0.00066572162259352,-0.00062908733916316,0.00062908368530954,-0.00070572907213813,0.00070572702003955,-0.00070572771186151,0.00070572851339086,-0.000636113092473,0.00063611201251903,-0.00063611374561535,0.00063611135474563,-0.00063611262113161,0.00063611251721375,-0.0006361132752185,0.00063611185875197,-0.00062908495757257,0.00062908612091625,-0.00062908688325278,0.00062908417957769,-0.00070572973720297,0.00070572636891998,-0.00070572836249317,0.00070572784257086,-0.00062908540961033,0.00062908562312051,-1.9298046732257e-09,1.2827291285939e-09,-0.00044996902300219,0.00044996837305579,-1.316926519581e-09,6.6912162322087e-10,-0.00033778587710052,0.00033778402986604,-0.00037538395841372,0.00037538632835183,-0.00037538502248565,0.0003753852537578,-0.0003377846583673,0.0003377852327702,-0.0003377878572492,0.0003377821400509,-0.00037538589698444,0.00037538437014411,-0.00037538699566341,0.00037538332523942,-0.00054662903674891,0.00054662664823813,-0.0005466283634667,0.00054662731181625,-0.00054662796450225,0.00054662771820038,-0.00054662730175082,0.0005466283914649,-0.00050340942802574,0.00050341258333302,-0.00050341255188743,0.00050340941694595,-0.00050341324272442,0.00050340877935635,-0.00050341007009506,0.0005034118996516,-0.00033778274570967,0.00033778717668362,0.7124265761171,129794,2964,0.0019754702645095,0.0027700448655159,0.0018733422662632,15.510321005533,-0.00011591743195574,-0.00011591743195574,-0.00011591743195574,3314348.039385,0.0066411934203175
23391759,0.42590937006091,0.0071822369942652,0.002254572052035,0.0027324293437766,0.0021952355984535,-0.00048163982538968,0.0004816380292569,7.5480749625205e-10,-2.5408095897611e-09,-1.7070485320156e-10,-1.6800292289882e-09,-0.00024229292343212,0.0002422863772116,-0.00030280359291026,0.00030280135658493,-0.00030280468665707,0.00030280026699369,-0.00024228818276098,0.0002422910960664,-0.00024229139645563,0.00024228788280365,-0.00030280210001193,0.00030280282241718,-0.00030280318289162,0.00030280172144441,-0.00059484147023722,0.00059484130041239,-0.00059484257023564,0.00059484019902442,-0.00059484199288387,0.00059484080924797,-0.00059484309428323,0.00059483970888781,-0.00054560235718088,0.00054560329826874,-0.00054560559261456,0.00054560007364038,-0.00054560183662716,0.00054560380953702,-0.00054560506947102,0.00054560058331289,-0.00024228971147984,0.00024228959037016,-1.4476003875665e-09,1.3553033270663e-10,3.4714685522907e-10,-1.611302672592e-09,-0.00067708475277439,0.00067708348225325,-0.00063960369879754,0.00063960001133152,-0.00071780792508855,0.0007178057320394,-0.00071780644811428,0.00071780734941391,-0.0006468542881814,0.00064685314835016,-0.0006468549353955,0.0006468524975587,-0.0006468537779269,0.00064685369455849,-0.00064685442603797,0.00064685304300083,-0.0006396012962856,0.00063960246687906,-0.00063960320346264,0.00063960054682209,-0.00071780858376799,0.00071780508793655,-0.00071780709247068,0.00071780668556839,-0.00063960178787396,0.0006396019277626,-1.9764253749843e-09,1.3108491536493e-09,-0.0004562336218772,0.00045623295318347,-1.3173178143083e-09,6.4963729924473e-10,-0.0003414779577353,0.0003414759984839,-0.00038014934069271,0.00038015169655342,-0.0003801504296304,0.00038015059741019,-0.00034147664542131,0.00034147729292763,-0.0003414799188679,0.00034147412806995,-0.0003801512596899,0.00038014975702294,-0.0003801523840768,0.00038014868811156,-0.00055490795875687,0.00055490553313154,-0.00055490729182365,0.00055490619031674,-0.00055490686132281,0.00055490662766743,-0.00055490620523769,0.0005549072947813,-0.00051103440005139,0.00051103760344095,-0.00051103760099381,0.00051103436749118,-0.00051103828292762,0.00051103373473783,-0.00051103503684356,0.00051103692859577,-0.00034147475272507,0.00034147921797444,0.71512157137389,129794,2964,0.0020053207146083,0.0028172552558833,0.0018994061724656,15.633815414262,-0.00011492947668591,-0.00011492947668591,-0.00011492947668591,3340425.3777202,0.0067450239814247
23591759,0.4325932166097,0.0072873135907167,0.0022865156626529,0.0027759959271676,0.0022248020008963,-0.00048976606924301,0.00048976428343994,7.9767613289463e-10,-2.573878509043e-09,-2.2464937774072e-10,-1.614593528276e-09,-0.00024541360034092,0.00024540710928182,-0.00030732171333251,0.00030731963064597,-0.0003073228304875,0.00030731851505741,-0.00024540890137746,0.00024541178450384,-0.00024541219462659,0.00024540849457177,-0.00030732033587864,0.00030732097865549,-0.00030732144472574,0.00030731985079623,-0.00060534288470833,0.00060534271208225,-0.00060534401052345,0.00060534158548928,-0.00060534336992132,0.00060534226048645,-0.00060534449634056,0.0006053411352309,-0.00055501757931075,0.0005550186419968,-0.00055502088966833,0.00055501534492177,-0.0005550170968209,0.00055501911470764,-0.00055502040715779,0.00055501581565639,-0.00024541031628126,0.00024541039686669,-1.3979129356606e-09,5.2443450988755e-11,3.868828303701e-10,-1.6829304197885e-09,-0.00068965109621774,0.00068964979366491,-0.00065128718337476,0.00065128339843066,-0.00073113056163302,0.00073112850482427,-0.00073112921425804,0.0007311299876825,-0.00065874882387062,0.00065874773221744,-0.00065874950765325,0.00065874704405711,-0.00065874835619113,0.00065874823413269,-0.00065874904039538,0.00065874754591119,-0.00065128471906523,0.00065128592215201,-0.00065128673246881,0.00065128389262609,-0.00073113125866654,0.00073112782397363,-0.00073112989596881,0.00073112928957128,-0.00065128516528995,0.00065128542759752,-2.0068470095819e-09,1.3537265653033e-09,-0.0004634065462693,0.00046340589045059,-1.3636952104518e-09,7.1015971131739e-10,-0.00034596318476815,0.00034596127091218,-0.0003857747114473,0.00038577721108796,-0.00038577582582704,0.00038577608852624,-0.00034596190817125,0.0003459625312553,-0.00034596524784581,0.00034595929548082,-0.00038577673671537,0.00038577516679243,-0.00038577788438775,0.00038577407534338,-0.00056421250356429,0.00056421003092168,-0.00056421180128269,0.00056421072321777,-0.00056421138209703,0.00056421114973378,-0.00056421069021847,0.00056421185265262,-0.00051963399484713,0.00051963731790019,-0.00051963726697696,0.00051963400770802,-0.00051963798317984,0.00051963333962788,-0.00051963466780502,0.00051963660596516,-0.00034595990579861,0.00034596456382206,0.71571043148935,129794,2964,0.0020391348663411,0.0028694676599329,0.0019292476805222,16.146383457728,-0.00011082893233817,-0.00011082893233817,-0.00011082893233817,3373611.3962481,0.0068616970148364
23791759,0.43952365057585,0.0074017622880859,0.002321140981559,0.0028236287509174,0.0022569925556094,-0.00049846533525487,0.00049846355822293,8.3881385487134e-10,-2.606166208926e-09,-2.769680943516e-10,-1.5532446187078e-09,-0.00024906522333608,0.00024905878031965,-0.0003124929490382,0.0003124910123763,-0.00031249409218443,0.00031248987247211,-0.00024906056616162,0.00024906341441541,-0.00024906392780861,0.0002490600548233,-0.00031249168559073,0.00031249224821821,-0.00031249281851163,0.00031249109706979,-0.00061642945913185,0.00061642928245224,-0.00061643060916453,0.00061642813134409,-0.00061642990786786,0.00061642886878169,-0.00061643105908712,0.00061642771870192,-0.00056530529577812,0.00056530647797961,-0.00056530867712694,0.00056530310740188,-0.00056530485012397,0.00056530691217929,-0.00056530823031985,0.00056530354088486,-0.00024906186560313,0.00024906214044197,-1.3592621174753e-09,-1.3064978464869e-11,4.2580369446736e-10,-1.7487076280564e-09,-0.00070307190218882,0.00070307057319191,-0.00066389235303991,0.00066388847300035,-0.00074534953552675,0.0007453475910222,-0.00074534829162859,0.00074534897134242,-0.00067141105142293,0.00067141000127784,-0.00067141176898881,0.00067140927858897,-0.00067141061635927,0.00067141046880018,-0.00067141133475935,0.00067140974550335,-0.00066388981733131,0.00066389106220803,-0.00066389193576065,0.00066388893046204,-0.00074535026556021,0.00074534687513638,-0.00074534900746638,0.00074534823662737,-0.00066389023054718,0.00066389060174115,-2.043273629145e-09,1.3928843090758e-09,-0.00047107408059098,0.00047107342715646,-1.4166148516323e-09,7.6482181791676e-10,-0.00035110668958741,0.00035110481080665,-0.00039210514858425,0.00039210778005849,-0.0003921062877204,0.00039210663200809,-0.00035110544394491,0.00035110603967202,-0.00035110886015166,0.00035110272817611,-0.00039210727869383,0.0003921056298884,-0.00039210845195799,0.00039210451151218,-0.00057404101704253,0.00057403848555879,-0.00057404027851238,0.00057403921348556,-0.00057403987020938,0.00057403962981686,-0.00057403914269628,0.00057404036816946,-0.00052890377351392,0.00052890720955633,-0.0005289071192453,0.00052890382657251,-0.00052890787436362,0.00052890312351968,-0.00052890448210598,0.00052890646231844,-0.00035110333815895,0.00035110817532824,0.7520141522178,129794,2964,0.002075332406607,0.0029252265890145,0.0019611458919071,16.668883093682,-0.00010664893525054,-0.00010664893525054,-0.00010664893525054,3403444.3153251,0.0069864251164165
23991759,0.44670440292145,0.0075232107484662,0.0023577561754842,0.0028743988989848,0.0022910556739971,-0.00050753654731703,0.00050753476432907,8.7309014666592e-10,-2.646492878768e-09,-3.085422548415e-10,-1.5278571188961e-09,-0.00025265099557524,0.00025264452916216,-0.00031782193939193,0.00031782007753902,-0.00031782310743346,0.00031781891291421,-0.0002526463213117,0.00025264918076621,-0.00025264975612436,0.00025264574792061,-0.00031782073249274,0.00031782125761694,-0.00031782189027154,0.0003178200815095,-0.00062801801621475,0.00062801784049632,-0.00062801919112621,0.00062801666445583,-0.00062801844764886,0.000628017445654,-0.00062801962375078,0.00062801627070837,-0.00057624211903325,0.00057624338782664,-0.00057624557353284,0.00057623994419699,-0.00057624169239795,0.00057624380291377,-0.00057624514512375,0.0005762403578124,-0.00025264756533619,0.00025264796269339,-1.3410462862212e-09,-5.1700000877116e-11,4.6766794314256e-10,-1.8109087655722e-09,-0.00071729656107556,0.0007172952119164,-0.00067737471145461,0.0006773707277542,-0.00076050975062551,0.00076050787795315,-0.00076050856366009,0.00076050920175655,-0.0006847064891693,0.00068470547168494,-0.00068470724094643,0.00068470471441181,-0.00068470607202585,0.00068470592023163,-0.00068470682454101,0.00068470516235852,-0.00067737209178481,0.0006773733994035,-0.00067737431301912,0.00067737116650782,-0.00076051051522278,0.0007605071273345,-0.00076050931405265,0.00076050843255902,-0.00067737248613978,0.00067737295759885,-2.0823726626412e-09,1.4283445330844e-09,-0.00047901717179093,0.00047901651460028,-1.4708327914906e-09,8.1482641442486e-10,-0.00035633618138259,0.00035633432768566,-0.00039866321320641,0.00039866596726924,-0.00039866437711362,0.00039866479425683,-0.00035633496528332,0.0003563355275854,-0.00035633845447836,0.00035633214338637,-0.0003986654452502,0.00039866371451985,-0.0003986666433662,0.00039866257152696,-0.00058431282936821,0.00058431023466691,-0.00058431205571738,0.00058431099697617,-0.00058431165753024,0.00058431140362875,-0.00058431089538254,0.00058431217688762,-0.00053866784444861,0.00053867138495111,-0.0005386712628675,0.00053866792848338,-0.00053867205371796,0.0005386671915557,-0.00053866858788848,0.00053867060284194,-0.00035633275722007,0.00035633776556294,0.7706867299077,129794,2964,0.0021130784072644,0.0029843219370444,0.001994190264997,17.191782714982,-0.00010246573828015,-0.00010246573828015,-0.00010246573828015,3428324.4736355,0.0071172435948811
24191759,0.45411150577618,0.0076420096824958,0.0023936801107296,0.0029241505858286,0.0023241789859377,-0.00051639508469969,0.00051639328689148,9.0356223486749e-10,-2.6915843983119e-09,-3.1782297650564e-10,-1.5343994430841e-09,-0.00025550940851786,0.00025550285308751,-0.00032247778148041,0.00032247593233992,-0.00032247897575244,0.00032247474178124,-0.00025550466390875,0.0002555075753906,-0.0002555081690465,0.00025550407153126,-0.00032247657809465,0.0003224771086554,-0.00032247776041521,0.0003224759086804,-0.00063961403912969,0.00063961387394964,-0.00063961523913712,0.00063961267313931,-0.00063961447132799,0.00063961348040288,-0.00063961567295861,0.00063961227990617,-0.00058683496662343,0.00058683629950221,-0.00058683849755427,0.00058683278161913,-0.00058683454620256,0.00058683671247644,-0.00058683806868639,0.0005868331905143,-0.00025550590255094,0.00025550636332728,-1.3583060922107e-09,-5.7097781448294e-11,4.9561578880911e-10,-1.8612233425975e-09,-0.00073150102360925,0.0007314996522547,-0.00069073087426711,0.00069072678783838,-0.00077565220759087,0.00077565032819287,-0.0007756510105424,0.00077565166404785,-0.00069797627531647,0.00069797525773625,-0.00069797705255362,0.00069797447436036,-0.00069797585424843,0.00069797571057554,-0.00069797663313776,0.00069797492645446,-0.00069072817228283,0.00069072953937542,-0.00069073047325519,0.0006907272298127,-0.00077565299663074,0.00077564955136027,-0.00077565178846124,0.00077565086852298,-0.00069072857159684,0.00069072909299866,-2.1170851161702e-09,1.4672300830252e-09,-0.0004866901547994,0.00048668950167993,-1.5115410081813e-09,8.5919714338681e-10,-0.00036066614134507,0.00036066430443827,-0.00040449495411354,0.00040449781864439,-0.00040449614152578,0.00040449662117459,-0.00036066493601425,0.00036066549281648,-0.00036066850187699,0.0003606620344347,-0.00040449726807648,0.00040449548261804,-0.00040449849158404,0.00040449431384411,-0.00059455644032164,0.00059455379676727,-0.00059455563795167,0.00059455458743506,-0.00059455524367307,0.00059455499056248,-0.00059455445375269,0.00059455579189542,-0.00054812942183418,0.00054813306593152,-0.0005481329122168,0.00054812953886667,-0.00054813373073563,0.00054812877359154,-0.00054813019276013,0.00054813225877039,-0.00036066264739774,0.0003606678130793,0.73179327255451,129794,2964,0.0021499411516883,0.0030433306194642,0.0020261116072488,17.664758368703,-9.8681933050375e-05,-9.8681933050375e-05,-9.8681933050375e-05,3454714.2633685,0.0072459747090356
24391759,0.4615933310208,0.007762680521823,0.0024301540050172,0.002974769990942,0.0023577565258638,-0.00052494952753694,0.00052494766572475,9.102810541857e-10,-2.7586999295373e-09,-2.5972919398817e-10,-1.6605114584854e-09,-0.00025848689771516,0.00025848002720516,-0.00032708839176407,0.00032708631498606,-0.00032708961122781,0.00032708510624459,-0.00025848189467434,0.00025848501539792,-0.00025848547347609,0.00025848141943154,-0.00032708701031084,0.00032708767826171,-0.00032708821938658,0.00032708645005664,-0.00065080737629817,0.00065080723440064,-0.00065080860174116,0.00065080600663929,-0.00065080787144569,0.00065080677792627,-0.00065080909680159,0.00065080555299549,-0.00059707233879232,0.00059707361874056,-0.00059707593008222,0.00059707003119146,-0.00059707185299614,0.00059707409961961,-0.00059707543825293,0.00059707049458455,-0.00025848332207878,0.00025848359740564,-1.429762804816e-09,1.0312674336312e-11,4.9321427537222e-10,-1.8653433434471e-09,-0.00074520926859896,0.00074520789143346,-0.00070355184601787,0.00070354770117511,-0.00079010857511257,0.00079010656276039,-0.00079010725510916,0.00079010804032476,-0.00071089823277939,0.00071089716197296,-0.00071089901189639,0.00071089637936088,-0.00071089776612916,0.00071089766185785,-0.00071089854315061,0.00071089687697404,-0.00070354908661221,0.00070355049186995,-0.00070355138978773,0.00070354818308514,-0.00079010937106381,0.00079010578214914,-0.00079010802604745,0.00079010723677018,-0.00070354952864808,0.00070354999990496,-2.163678925787e-09,1.4943211312505e-09,-0.00049402510355344,0.00049402442873626,-1.5159382497328e-09,8.3902530394366e-10,-0.00036487996927614,0.0003648780228998,-0.00041012351622628,0.00041012636700749,-0.0004101247317157,0.00041012513931746,-0.00036487867400486,0.00036487928263177,-0.00036488230290651,0.00036487578341722,-0.00041012581704567,0.00041012404003511,-0.00041012706385373,0.00041012284967898,-0.00060435783548044,0.00060435515006268,-0.00060435703864254,0.00060435593395615,-0.00060435661285554,0.00060435636694211,-0.00060435582691469,0.00060435716439404,-0.00055718438842665,0.00055718808192789,-0.00055718796017853,0.00055718449123167,-0.00055718877341023,0.00055718373970099,-0.00055718515407288,0.00055718727961368,-0.00036487640215687,0.00036488159549745,0.73638899657982,129794,2964,0.0021855375589356,0.0031002733330368,0.0020566262891389,17.858789853757,-9.7129681169947e-05,-9.7129681169947e-05,-9.7129681169947e-05,3479671.6058224,0.0073699475082882
24591759,0.46914346840093,0.007887746198785,0.0024678715941411,0.003027351842228,0.0023925227624159,-0.00053374620410361,0.00053374428996426,9.2046374853784e-10,-2.8230082699469e-09,-2.3605511772966e-10,-1.7387221893924e-09,-0.000261689201856,0.00026168210192063,-0.0003320335033921,0.0003320312982774,-0.00033203474663386,0.00033203006101521,-0.00026168402847872,0.00026168725669187,-0.00026168767921391,0.00026168360077431,-0.00033203201991864,0.00033203276011692,-0.00033203325184153,0.0003320315090074,-0.00066223452958647,0.00066223439530447,-0.00066223577921594,0.00066223314415397,-0.00066223505861881,0.0006622339065787,-0.00066223630924293,0.00066223265669173,-0.00060774229926642,0.00060774356911088,-0.00060774597285645,0.0006077399068017,-0.00060774178429274,0.00060774407753536,-0.00060774544949517,0.00060774040624184,-0.0002616855531559,0.00026168575344854,-1.4959589233935e-09,7.4465941104666e-11,4.9715396586113e-10,-1.8708176738222e-09,-0.00075928468922612,0.00075928331038963,-0.00071680293975228,0.00071679874307519,-0.00080496487173677,0.00080496272820229,-0.00080496342088168,0.00080496433591974,-0.00072412841762969,0.00072412730646509,-0.00072412919984917,0.000724126520517,-0.0007241279095159,0.00072412785071428,-0.00072412869182859,0.00072412706305325,-0.00071680013387589,0.00071680159172639,-0.0007168024477406,0.00071679927491888,-0.000804965667231,0.00080496194760107,-0.00080496420029404,0.00080496353514789,-0.00071680061900928,0.00071680105453545,-2.2130831753869e-09,1.5209699122367e-09,-0.00050154531486634,0.00050154461858164,-1.5369744664354e-09,8.3852108483296e-10,-0.00036937308032065,0.00036937105537023,-0.00041605505844422,0.00041605793155305,-0.00041605629762903,0.00041605668331408,-0.00036937173100178,0.0003693723816619,-0.00036937544077838,0.00036936878619237,-0.00041605737722358,0.00041605558916788,-0.0004160586502648,0.00041605437259177,-0.00061436105515995,0.00061435831733773,-0.00061436025092171,0.00061435910912695,-0.0006143598080204,0.00061435955997149,-0.00061435901561352,0.00061436036362519,-0.00056651024641319,0.00056651399883254,-0.00056651388790424,0.0005665103264912,-0.00056651470793989,0.00056650956257783,-0.00056651102097744,0.00056651318974139,-0.00036936943517152,0.00036937470807804,0.75660586662551,129794,2964,0.0022221413296891,0.0031587374937895,0.0020879109809579,18.045685493387,-9.5634516052902e-05,-9.5634516052902e-05,-9.5634516052902e-05,3501119.3453907,0.0074972586901149
24791759,0.47675914380414,0.0080021234735327,0.002502641601592,0.0030753817897007,0.0024241000822399,-0.00054194548960407,0.00054194353948869,9.4001905326906e-10,-2.8779861463664e-09,-2.1843306745355e-10,-1.794609921612e-09,-0.00026371503412415,0.00026370774924562,-0.00033581223116289,0.0003358099408781,-0.000335813499257,0.00033580867794506,-0.00026370971298961,0.00026371305140509,-0.00026371343836726,0.00026370932207112,-0.00033581067521245,0.0003358114744249,-0.0003358119322827,0.00033581019827707,-0.00067334076816261,0.00067334064924045,-0.00067334204260515,0.00067333937318913,-0.000673341323464,0.00067334013592299,-0.00067334259897003,0.00067333886118062,-0.00061734117054924,0.00061734245429744,-0.00061734491775555,0.00061733871953588,-0.00061734063196655,0.00061734298737053,-0.00061734436979467,0.0006173392427999,-0.00026371131189482,0.00026371147489475,-1.5413248497897e-09,1.0551450074046e-10,5.0324479313245e-10,-1.8911832342188e-09,-0.00077276243065105,0.00077276103754674,-0.00072925725526488,0.00072925299325851,-0.00081921439612659,0.0008192121722928,-0.00081921287277349,0.00081921385750664,-0.00073682284938604,0.00073682170826237,-0.00073682364047316,0.00073682091326977,-0.00073682231768929,0.00073682227816195,-0.00073682310893644,0.00073682148189388,-0.00072925439897151,0.00072925589380918,-0.00072925673913735,0.00072925355149607,-0.00081921520007094,0.0008192113828558,-0.00081921366146164,0.00081921304877809,-0.00072925490901702,0.00072925533047314,-2.2498161749175e-09,1.5588826251323e-09,-0.00050847010063516,0.00050846940555001,-1.5499546876008e-09,8.5269468802087e-10,-0.00037243056756882,0.00037242849776495,-0.00042073400504814,0.00042073693051929,-0.00042073526897632,0.00042073565795524,-0.00037242917101166,0.00037242986837014,-0.00037243295572301,0.0003724262018298,-0.00042073634996928,0.0004207345610763,-0.0004207376487187,0.00042073332080161,-0.00062403242928256,0.0006240296590916,-0.00062403161565961,0.00062403045943553,-0.00062403115669866,0.00062403092612595,-0.00062403035571988,0.00062403173900729,-0.0005750978894314,0.00057510172460602,-0.00057510160447323,0.00057509798031294,-0.00057510243307936,0.00057509720693409,-0.00057509867254866,0.00057510090684352,-0.00037242685001073,0.00037243222242139,0.68706803971504,129794,2964,0.0022562620520108,0.0032147173771937,0.0021167200992867,18.232293623864,-9.4141651009089e-05,-9.4141651009089e-05,-9.4141651009089e-05,3526007.8231689,0.0076170918533896
24991759,0.4845050024115,0.0081203943232109,0.0025385715037904,0.0031250694642856,0.0024567533551349,-0.00055072530127531,0.00055072334664413,9.7480918798374e-10,-2.9173907496711e-09,-2.4561998900735e-10,-1.7718886440182e-09,-0.00026688381576153,0.00026687650257693,-0.00034056161867411,0.0003405593977371,-0.00034056291133274,0.00034055810974539,-0.0002668784713442,0.00026688182802476,-0.00026688226931899,0.00026687802680412,-0.00034056011190103,0.00034056088202702,-0.00034056139374047,0.00034055958150301,-0.00068489959736411,0.000684899483269,-0.00068490089666748,0.00068489818261972,-0.0006849001376959,0.00068489898653923,-0.00068490143807187,0.00068489768709334,-0.0006274768262289,0.00062747819432388,-0.00062748064670118,0.00062747438736118,-0.00062747630458509,0.0006274787106676,-0.00062748011508993,0.00062747489375875,-0.00026688002081877,0.00026688030136699,-1.5203189555936e-09,7.8197689706168e-11,5.3717729459135e-10,-1.9318104057199e-09,-0.00078660849510231,0.00078660709537975,-0.00074200838551604,0.00074200405959517,-0.00083361727751191,0.00083361511904969,-0.00083361580101133,0.00083361675712639,-0.0007500757538479,0.00075007464623442,-0.00075007656880024,0.00075007382622109,-0.00075007523763867,0.00075007520015962,-0.00075007605285467,0.00075007437894702,-0.00074200547339739,0.0007420070189601,-0.00074200788570037,0.0007420046023069,-0.00083361810558595,0.00083361430500519,-0.00083361661429526,0.00083361592375277,-0.00074200596769549,0.0007420064711901,-2.281436373501e-09,1.6022052068043e-09,-0.00051596131499982,0.00051596063184234,-1.5808649988745e-09,8.964494707899e-10,-0.00037650684410182,0.00037650478760657,-0.00042627075288943,0.00042627378942564,-0.00042627204179205,0.00042627249238179,-0.00037650544794284,0.00037650615733781,-0.00037650930679989,0.00037650241765025,-0.00042627317108944,0.00042627134658519,-0.00042627449510395,0.00042627008161171,-0.0006341150024208,0.00063411219414099,-0.00063411416394601,0.00063411301907312,-0.0006341137048126,0.00063411348624297,-0.00063411287922315,0.00063411432382896,-0.00058418508680792,0.00058418903145041,-0.00058418887466544,0.00058418521353601,-0.00058418972829055,0.0005841844152022,-0.00058418589470259,0.00058418818901479,-0.00037650305372354,0.0003765085851009,0.69911854918489,129794,2964,0.0022927937199438,0.0032722218029616,0.0021478831401342,18.541842935723,-9.1665256514213e-05,-9.1665256514213e-05,-9.1665256514213e-05,3558273.6045644,0.0077432754369461
25191759,0.49256394960394,0.0082469047611193,0.0025769058258521,0.0031783189910727,0.0024916799441944,-0.00056058114623108,0.00056057923553617,1.0336444912674e-09,-2.9328262087754e-09,-3.3332371045415e-10,-1.6374460256185e-09,-0.00027078134202985,0.00027077422083101,-0.0003462611102186,0.00034625917899546,-0.00034626242789465,0.00034625786604848,-0.00027077614511533,0.00027077939829794,-0.0002707800153372,0.00027077552556011,-0.00034625982176863,0.00034626044415446,-0.00034626112866584,0.00034625911975039,-0.00069767758916799,0.00069767747087032,-0.00069767891342066,0.00069767614573652,-0.00069767805895685,0.00069767704811447,-0.00069767938426891,0.00069767572385262,-0.00063898778421851,0.00063898934302755,-0.00063899167797574,0.00063898546359436,-0.00063898733703713,0.00063898978500177,-0.00063899121971279,0.0006389858952578,-0.0002707774736001,0.00027077809312704,-1.4215556967434e-09,-4.345667912865e-11,6.0886387761361e-10,-2.0259016878496e-09,-0.00080196528811185,0.00080196386604734,-0.00075631862501822,0.00075631418702669,-0.0008496890993597,0.00084968719037454,-0.00084968783605323,0.00084968860843484,-0.00076468120168365,0.00076468019816427,-0.00076468206982386,0.00076467932262388,-0.00076468075557412,0.00076468067824185,-0.00076468162415539,0.00076467980136676,-0.00075631562376753,0.00075631723709191,-0.00075631819739423,0.00075631465537147,-0.00084968998109641,0.00084968632089131,-0.00084968870353992,0.00084968771914116,-0.00075631604637941,0.000756316762765,-2.3041016995706e-09,1.654441530241e-09,-0.00052443667502727,0.00052443602161673,-1.6481202582403e-09,9.9517652735271e-10,-0.00038149613500861,0.00038149420074434,-0.00043283227331741,0.00043283552892994,-0.00043283358698995,0.00043283420703847,-0.00038149483027662,0.00038149548000857,-0.00038149876179315,0.00038149166560306,-0.00043283485496851,0.00043283292309815,-0.00043283620352092,0.00043283163221137,-0.00064533803430352,0.00064533517518108,-0.00064533714060405,0.00064533605514024,-0.00064533671193576,0.00064533649273245,-0.00064533583127402,0.00064533738517201,-0.00059442855058703,0.00059443265250977,-0.00059443241247126,0.00059442876262464,-0.00059443332075205,0.00059442790864657,-0.0005944294140629,0.00059443175671651,-0.00038149227248628,0.00038149807042494,0.71926998121073,129794,2964,0.0023338008514935,0.0033359966670704,0.0021831383972349,19.180661171387,-8.6554710628901e-05,-8.6554710628901e-05,-8.6554710628901e-05,3591782.2362794,0.0078844306526318
25391759,0.50094397746582,0.0083855722392952,0.0026187088525758,0.0032369082985639,0.0025299550881555,-0.00057115192318463,0.00057115003967212,1.0843554872724e-09,-2.9571210597756e-09,-4.0042113482096e-10,-1.5412826309471e-09,-0.00027523663645337,0.00027522963126512,-0.00035275817601417,0.00035275645904895,-0.0003527595183535,0.00035275512109439,-0.00027523152671678,0.0002752347203847,-0.00027523547247709,0.00027523077408239,-0.00035275704759858,0.00035275756361572,-0.00035275838031708,0.00035275621438431,-0.00071121220177197,0.00071121208315974,-0.000711213551182,0.00071121073305107,-0.00071121262147899,0.00071121171462881,-0.00071121397168335,0.00071121036547513,-0.00065164261792574,0.00065164433073695,-0.00065164658532585,0.00065164037827888,-0.0006516422250317,0.00065164471822108,-0.00065164618162154,0.00065164075466848,-0.00027523269544202,0.00027523357683214,-1.3470250461624e-09,-1.3631353366732e-10,6.7195992124742e-10,-2.1070941135521e-09,-0.00081847896372334,0.00081847752367294,-0.0007718786485299,0.0007718741056167,-0.00086700322620513,0.00086700151238255,-0.0008670021253502,0.00086700276284357,-0.00078029943169713,0.00078029851238425,-0.0007803003467451,0.00078029758851066,-0.0007802990385575,0.00078029893618992,-0.00078029995385507,0.00078029801119048,-0.00077187556088547,0.00077187724221717,-0.00077187827561764,0.00077187451856125,-0.0008670041552779,0.00086700059424433,-0.0008670030399534,0.00086700182601974,-0.00077187592852963,0.00077187682410912,-2.3358319777912e-09,1.697010890541e-09,-0.00053347750975902,0.00053347686733276,-1.7139513188286e-09,1.0725522249112e-09,-0.00038716345355123,0.00038716159733768,-0.00044021509118043,0.00044021852345462,-0.00044021642965692,0.00044021717683043,-0.00038716221878107,0.00038716281049159,-0.00038716621975857,0.00038715892194486,-0.00044021781384842,0.00044021577688929,-0.00044021918624912,0.00044021446125673,-0.00065720487074311,0.00065720195008465,-0.00065720392922593,0.00065720287737185,-0.00065720352384243,0.00065720329246294,-0.0006572025953358,0.00065720423252754,-0.00060550997457745,0.00060551420855021,-0.00060551390798419,0.00060551024370246,-0.0006055148647363,0.00060550934257532,-0.00060551088624059,0.00060551326409028,-0.00038715951834469,0.0003871655417415,0.75830137948026,129794,2964,0.0023777820407219,0.003404570014789,0.0022207449041432,19.827926761329,-8.1376585909368e-05,-8.1376585909368e-05,-8.1376585909368e-05,3618515.7795673,0.0080358102086266
25591759,0.50964770807848,0.0085341451230092,0.0026633315476781,0.0032999605418214,0.0025708530335097,-0.0005822606946839,0.00058225882446048,1.1281425224027e-09,-2.9879028930882e-09,-4.5174948536332e-10,-1.4757387651349e-09,-0.00027974834803209,0.00027974139878852,-0.00035961362619692,0.00035961206296482,-0.00035961499353467,0.00035961070028995,-0.00027974328071025,0.00027974644511323,-0.00027974729945686,0.00027974242623945,-0.00035961261281169,0.00035961305286212,-0.00035961397043488,0.00035961167903926,-0.00072542834261927,0.00072542822573856,-0.00072542971695292,0.00072542685083185,-0.00072542872862164,0.00072542789615815,-0.00072543010371619,0.00072542652210178,-0.00066519640386593,0.00066519823935781,-0.00066520044347793,0.00066519421290465,-0.00066519604783706,0.00066519858848219,-0.00066520007744211,0.00066519455219745,-0.00027974433405378,0.0002797454177783,-1.2975756206614e-09,-2.0317613902202e-10,7.2904906871683e-10,-2.1815219929611e-09,-0.00083608727270778,0.00083608581540995,-0.00078863112908917,0.00078862647806133,-0.0008855523763827,0.00088555080454029,-0.00088555138913677,0.0008855519390428,-0.00079680863882192,0.00079680778335825,-0.00079680959678558,0.00079680681573655,-0.0007968082823709,0.00079680816832937,-0.00079680924065098,0.00079680719954042,-0.00078862795023771,0.00078862970474001,-0.00078863079448691,0.00078862685216596,-0.00088555334861988,0.00088554984243496,-0.0008855523471316,0.00088555095830485,-0.00078862827975038,0.00078862932550918,-2.3727901466269e-09,1.734751568001e-09,-0.00054288461720032,0.00054288397554966,-1.7796893988787e-09,1.1390192884917e-09,-0.00039291501337144,0.00039291321467342,-0.00044794678012473,0.00044795036736392,-0.00044794814327602,0.00044794899591316,-0.00039291383655629,0.0003929143719698,-0.00039291790963685,0.00039291040928915,-0.00044794963246973,0.00044794749106553,-0.00044795102953606,0.00044794615039619,-0.0006696445148299,0.00066964152600591,-0.0006696435289724,0.00066964249703631,-0.00066964314299657,0.00066964289331297,-0.00066964217039152,0.00066964387730253,-0.00061728421418326,0.00061728856667822,-0.00061728821951399,0.00061728452735559,-0.00061728922201794,0.00061728358301109,-0.00061728516982887,0.00061728757722219,-0.00039291100556659,0.00039291723235783,0.78252854635297,129794,2964,0.0024240031446205,0.0034776828604549,0.0022598747884339,20.475524228625,-7.6195806171003e-05,-7.6195806171003e-05,-7.6195806171003e-05,3639092.4758174,0.0081955846704346
25791759,0.51849087395139,0.008680494602021,0.0027073859084015,0.0033621801124067,0.0026109285812129,-0.00059269255092462,0.00059269064824007,1.1538634476755e-09,-3.0429970835279e-09,-4.2645971425729e-10,-1.5345794664301e-09,-0.00028315714536092,0.00028315000359051,-0.0003654603242689,0.00036545866939743,-0.00036546172087906,0.00036545728483198,-0.0002831519304085,0.00028315520898102,-0.00028315599645588,0.00028315112555784,-0.00036545923573987,0.00036545974146802,-0.00036546061285117,0.00036545834841033,-0.00073915478680682,0.00073915469320484,-0.00073915618848758,0.00073915329205504,-0.00073915520482147,0.00073915433717428,-0.00073915660894867,0.00073915293380766,-0.00067788759824953,0.00067788945763508,-0.00067789171300684,0.0006778853474073,-0.000677887214542,0.00067788983430659,-0.0006778913105553,0.00067788571642372,-0.00028315305383604,0.00028315409689112,-1.3618582009903e-09,-1.3324332016244e-10,7.3309988748548e-10,-2.1823515602319e-09,-0.00085318969168758,0.00085318823774435,-0.00080484438363191,0.00080483968948841,-0.00090359351156265,0.0009035918149124,-0.00090359239283679,0.00090359308866877,-0.00081278039992615,0.00081277950037711,-0.00081278135813609,0.00081277853437456,-0.00081277999681237,0.00081277993245808,-0.00081278095815772,0.00081277896096338,-0.00080484114705557,0.00080484295854721,-0.00080484400472257,0.00080484009792334,-0.0009035944836613,0.00090359085403169,-0.00090359335311995,0.00090359209119861,-0.00080484152739631,0.00080484253185935,-2.4121127739506e-09,1.7621146066672e-09,-0.00055151620962143,0.00055151555383174,-1.8030801139729e-09,1.1467692162328e-09,-0.00039722371180512,0.00039722187066416,-0.00045448697002451,0.00045449059244676,-0.0004544883547956,0.00045448919620111,-0.00039722248302358,0.00039722305820249,-0.00039722664973253,0.00039721903412151,-0.00045448984922825,0.00045448768573887,-0.00045449127690486,0.00045448631593654,-0.00068154250304304,0.00068153946415965,-0.00068154150563678,0.00068154044699748,-0.00068154110705791,0.00068154085547628,-0.00068154012559676,0.00068154184900752,-0.00062834380981887,0.00062834821870619,-0.00062834788141635,0.00062834413116305,-0.00062834889967255,0.00062834317709635,-0.00062834476861065,0.00062834722687948,-0.00039721964541687,0.00039722593562285,0.75921599450762,129794,2964,0.0024674122573236,0.0035486896788744,0.0022957808728572,20.820610309149,-7.3435117526811e-05,-7.3435117526811e-05,-7.3435117526811e-05,3653315.1351905,0.0083471784119012
25991759,0.52718405147001,0.008821227507531,0.0027498883692541,0.0034219911671505,0.0026493479711265,-0.00060201196931449,0.00060200996396737,1.1380322771304e-09,-3.1309725025863e-09,-3.2590045646476e-10,-1.7441663386362e-09,-0.00028587294358711,0.00028586530863598,-0.0003704306991262,0.00037042865776827,-0.00037043212006604,0.0003704272448439,-0.0002858673378054,0.00028587089759176,-0.0002858714915294,0.00028586673769492,-0.00037042930356334,0.000370430035501,-0.00037043070728055,0.00037042861463777,-0.00075167642324099,0.00075167635980852,-0.00075167784817723,0.00075167493404892,-0.00075167694745286,0.00075167589950053,-0.00075167837492385,0.00075167447277139,-0.00068912088782673,0.00068912261113634,-0.0006891250779197,0.00068911843044258,-0.00068912040140461,0.00068912309053659,-0.00068912457608528,0.00068911890424125,-0.00028586877599533,0.00028586948088255,-1.5009386401195e-09,2.5231968075916e-11,6.9265722706739e-10,-2.1233507478569e-09,-0.00086877032263088,0.0008687688876471,-0.00081947246517596,0.0008194677884163,-0.00091990392086551,0.00091990191564526,-0.00091990251673967,0.00091990348977819,-0.00082743270849158,0.00082743170087417,-0.00082743363685033,0.00082743076688167,-0.00082743221268329,0.00082743223273214,-0.00082743314276527,0.00082743129494239,-0.00081946923131117,0.00081947106087874,-0.00081947199093135,0.00081946830350265,-0.00091990486103326,0.00091990098726802,-0.00091990344498087,0.00091990253413833,-0.00081946970629507,0.00081947053318714,-2.4769326976232e-09,1.7759671190118e-09,-0.00055903183323156,0.0005590311273291,-1.7765512680332e-09,1.0677716165058e-09,-0.00040045798460561,0.00040045590898389,-0.00045985527265864,0.00045985876389843,-0.00045985668067704,0.00045985734403686,-0.00040045658605992,0.00040045728316608,-0.00040046081876501,0.00040045317941634,-0.00045985804591291,0.00045985596106358,-0.00045985949783091,0.00045985457084633,-0.00069223629425351,0.00069223321737061,-0.0006922353310854,0.00069223416404823,-0.0006922348719039,0.00069223463262549,-0.00069223392584693,0.00069223559202164,-0.00063814102885825,0.00063814543295247,-0.00063814517618447,0.00063814125805305,-0.00063814615901981,0.00063814033750777,-0.00063814195637896,0.00063814447166522,-0.00040045384526385,0.00040046006284386,0.74286074054702,129794,2964,0.0025061946949215,0.0036133715736233,0.0023270464979154,20.694868372947,-7.4441053016425e-05,-7.4441053016425e-05,-7.4441053016425e-05,3661792.8607523,0.0084830706432457
26191759,0.53572069198674,0.0089624592062068,0.0027925380297885,0.003482015326838,0.0026879058495802,-0.00061136883336397,0.00061136675499303,1.138762676376e-09,-3.2032836475893e-09,-2.7185515845269e-10,-1.8760324321734e-09,-0.00028907729464252,0.00028906933185049,-0.00037586649682254,0.0003758642174041,-0.00037586794115441,0.00037586278124067,-0.0002890714337759,0.00028907517767131,-0.00028907566105681,0.00028907094132911,-0.00037586491651822,0.00037586577966879,-0.00037586634546637,0.00037586433294978,-0.00076405841884974,0.00076405836477454,-0.00076405986828636,0.0007640569138955,-0.00076405899499541,0.00076405784244002,-0.00076406044647302,0.00076405639168359,-0.0007004013770102,0.0007004030382686,-0.00070040563667666,0.00070039878656037,-0.00070040082772556,0.00070040358117567,-0.00070040507511391,0.0007003993217294,-0.00028907305903653,0.00028907357316361,-1.5797403852509e-09,1.2062500237501e-10,6.7843296895063e-10,-2.0938924411524e-09,-0.00088416177678175,0.00088416035708506,-0.00083395883755242,0.00083395416001558,-0.00093595222259105,0.00093595004614461,-0.00093595065261258,0.00093595179841692,-0.00084197698064621,0.00084197591636465,-0.00084197789583311,0.00084197499724075,-0.00084197642927029,0.00084197650810256,-0.00084197734572461,0.00084197558621823,-0.00083395558761444,0.00083395744603218,-0.00083395830523117,0.00083395473607709,-0.00093595315025108,0.00093594913176418,-0.00093595156566127,0.00093595085990161,-0.00083395611812871,0.00083395685996359,-2.534626558143e-09,1.7944278260793e-09,-0.00056656727303862,0.00056656652746194,-1.7731075953536e-09,1.0222821248904e-09,-0.00040409665990726,0.0004040944156471,-0.00046548840443051,0.00046549183192443,-0.00046548983927131,0.00046549038606612,-0.00040409513481044,0.00040409590988155,-0.00040409943923581,0.00040409173831413,-0.00046549112969328,0.00046548907550557,-0.00046549260688729,0.00046548766246247,-0.00070280587400082,0.00070280274981233,-0.00070280492768647,0.00070280368023405,-0.00070280442634211,0.00070280418958675,-0.00070280349607883,0.00070280513343825,-0.00064796135749893,0.00064796578255336,-0.00064796558393004,0.00064796153461637,-0.00064796654843497,0.00064796063089651,-0.00064796226961768,0.00064796483488912,-0.0004040924393318,0.00040409864427511,0.7589531572757,129794,2964,0.0025451308897247,0.0036772615233006,0.0023583935479367,20.556989349616,-7.5544085203072e-05,-7.5544085203072e-05,-7.5544085203072e-05,3669057.7388078,0.00861841775131
26391759,0.54410149426648,0.0091057902435521,0.0028357601585447,0.0035429843772455,0.0027270457077619,-0.00062078180697983,0.00062077968422168,1.1541141632516e-09,-3.2623326817995e-09,-2.5731648534918e-10,-1.9376336431517e-09,-0.00029243641240332,0.00029242825645456,-0.00038158626402665,0.00038158388643289,-0.00038158773306109,0.00038158242571996,-0.00029243040447534,0.00029243425059023,-0.0002924347038099,0.00029242993984717,-0.00038158460792867,0.00038158552438767,-0.0003815860614514,0.00038158405244389,-0.00077636136657456,0.00077636131653689,-0.00077636284061643,0.00077635984056356,-0.00077636196403884,0.00077636076912945,-0.00077636344039078,0.00077635929372278,-0.00071192283695437,0.00071192450299808,-0.00071192716918059,0.00071192017818204,-0.00071192226331991,0.00071192507160926,-0.00071192658368195,0.00071192073898067,-0.00029243210412627,0.00029243257075016,-1.6100924757801e-09,1.6370762131697e-10,6.8669328299157e-10,-2.0901898463491e-09,-0.00089966860881595,0.00089966720098341,-0.00084870082291941,0.00084869612845829,-0.00095226336662362,0.00095226112845409,-0.00095226172550846,0.00095226295896099,-0.00085654551540672,0.00085654443933499,-0.00085654643260788,0.00085654351942191,-0.00085654493980666,0.00085654505710315,-0.00085654585831883,0.00085654413443376,-0.00084869754311339,0.00084869944218448,-0.00084870026644428,0.00084869673031253,-0.00095226429622548,0.00095226021308572,-0.00095226264006725,0.00095226202000478,-0.00084869809710909,0.00084869883099709,-2.5876736462177e-09,1.8162267066973e-09,-0.00057411044480532,0.00057410966764807,-1.7919894407348e-09,1.0078018343218e-09,-0.00040785699308632,0.00040785464592554,-0.00047126961145369,0.00047127303466257,-0.00047127107174161,0.00047127156449805,-0.00040785539732631,0.00040785620845794,-0.00040785977377228,0.00040785196437253,-0.00047127234077708,0.00047127027411459,-0.0004712738432034,0.00047126883705311,-0.00071335493677121,0.00071335175536848,-0.00071335398937916,0.00071335268783737,-0.00071335346432444,0.00071335322010697,-0.00071335253231642,0.00071335416563136,-0.00065794399491414,0.000657948463895,-0.00065794829746161,0.00065794414453873,-0.00065794926097415,0.00065794323772268,-0.00065794490876929,0.00065794751424765,-0.00040785269619507,0.00040785894582926,0.7842238853983,129794,2964,0.0025843007344436,0.0037416246547599,0.0023897725977345,20.418620329093,-7.6651037367254e-05,-7.6651037367254e-05,-7.6651037367254e-05,3670823.3484441,0.0087545274797521
26591759,0.55249248127729,0.0092489946108502,0.0028790162717429,0.0036038838394263,0.002766094499681,-0.00063066336674339,0.00063066127244073,1.2032405856202e-09,-3.2843390326676e-09,-3.3076946785216e-10,-1.8325918480329e-09,-0.00029596405029282,0.00029595604028858,-0.00038761089766295,0.00038760874763746,-0.0003876123863214,0.00038760726489115,-0.00029595815083121,0.0002959619237828,-0.00029596252626011,0.0002959575394558,-0.00038760941152654,0.00038761021128616,-0.00038761088987009,0.0003876087139412,-0.00078924816162596,0.00078924810455451,-0.00078924966026938,0.00078924660476901,-0.00078924870088093,0.00078924761614291,-0.00078925020037375,0.00078924611801714,-0.00072395121730266,0.00072395303655903,-0.00072395562062877,0.00072394864483773,-0.00072395070163287,0.00072395354823525,-0.00072395509758255,0.00072394914686914,-0.00029595967775633,0.00029596041729847,-1.518120665044e-09,5.2953432202377e-11,7.6049403184847e-10,-2.18022175028e-09,-0.00091587297457213,0.00091587154952237,-0.00086417036385216,0.00086416555908644,-0.00096948348738291,0.00096948148270815,-0.00096948204130885,0.00096948311089068,-0.00087170286287476,0.00087170189004922,-0.00087170383381604,0.00087170091514983,-0.00087170235213498,0.00087170243949366,-0.00087170332282523,0.00087170146276177,-0.00086416699918218,0.00086416897355845,-0.00086416987413925,0.00086416609670972,-0.00096948447553897,0.00096948051502353,-0.00096948300711794,0.00096948211860122,-0.000864167481486,0.00086416843141353,-2.6222025440306e-09,1.8601159265882e-09,-0.00058207531630135,0.00058207454949065,-1.8612603160939e-09,1.0903507988098e-09,-0.0004117574479473,0.0004117551842849,-0.00047729202642866,0.0004772956403338,-0.00047729351429256,0.00047729414561383,-0.00041175593032335,0.00041175667551749,-0.00041176037367796,0.00041175235673323,-0.00047729490801685,0.00047729273118586,-0.00047729643495737,0.00047729127189901,-0.00072446141838229,0.00072445817102963,-0.00072446042196092,0.00072445915390272,-0.00072445992128818,0.00072445966227425,-0.00072445893806133,0.0007244606584808,-0.00066852229929069,0.00066852690615813,-0.0006685266791967,0.00066852250418806,-0.00066852768880138,0.00066852154627742,-0.00066852326510358,0.0006685259024505,-0.00041175307069319,0.00041175956522504,0.782306226339,129794,2964,0.0026254200602878,0.0038088780453566,0.0024229054654498,20.571106412215,-7.5431148702282e-05,-7.5431148702282e-05,-7.5431148702282e-05,3674350.5967038,0.008897310081571
26791759,0.56104987283446,0.0093917813710646,0.002922294414694,0.0036645452086737,0.0028049417476969,-0.00064107351705211,0.00064107150459974,1.2837060601316e-09,-3.287101847942e-09,-4.6719605124604e-10,-1.6079422687762e-09,-0.00029984406394809,0.00029983641381841,-0.00039392938606237,0.00039392770833885,-0.00039393090142922,0.00039392619360085,-0.00029983844871194,0.00029984200420567,-0.0002998428968989,0.00029983756443963,-0.00039392825173562,0.00039392881042631,-0.00039392975350401,0.00039392729266544,-0.00080281832129034,0.00080281825220804,-0.00080281984694653,0.00080281672760094,-0.00080281874096273,0.00080281788642414,-0.00080282026978021,0.00080281636015219,-0.0007363687144424,0.00073637081862807,-0.00073637321375774,0.00073636634195658,-0.00073636832453389,0.00073637120238672,-0.00073637281048661,0.00073636673099445,-0.00029983960563359,0.0002998408778694,-1.3820768294427e-09,-1.2394211370865e-10,8.6500756349322e-10,-2.320997252634e-09,-0.00093271760342786,0.00093271614066121,-0.00088017563917938,0.00088017066616259,-0.00098744666478701,0.00098744499964507,-0.00098744550993047,0.00098744631627006,-0.00088753127272794,0.0008875304461675,-0.0008875323209544,0.00088752938874786,-0.0008875308615782,0.00088753089090846,-0.00088753191420302,0.00088752983245904,-0.00088017215285768,0.00088017423126522,-0.00088017526461095,0.00088017110528698,-0.00098744772727875,0.00098744395582286,-0.00098744656196818,0.00098744524520359,-0.00088017253351378,0.00088017379240737,-2.6339266853496e-09,1.9162121373581e-09,-0.00059054916396646,0.00059054844428315,-1.9692762020098e-09,1.2513831968735e-09,-0.00041597614705808,0.00041597413590509,-0.00048360218174925,0.00048360613392179,-0.00048360368774281,0.0004836046239773,-0.00041597483268038,0.00041597544871324,-0.00041597935454202,0.00041597102799155,-0.00048360532500428,0.00048360296816607,-0.000483606878466,0.0004836014833164,-0.00073619910768516,0.00073619579484809,-0.00073619802158176,0.00073619686911855,-0.00073619758954478,0.00073619731147183,-0.00073619651847754,0.00073619839517691,-0.00067969907766104,0.00067970388203973,-0.00067970351371743,0.00067969940365943,-0.00067970461418333,0.00067969834794572,-0.00067970013126047,0.00067970278963729,-0.0004159717073611,0.00041597858994987,0.76472632510148,129794,2964,0.0026687366556742,0.0038787824630138,0.0024581548838934,21.003325654855,-7.1973394761157e-05,-7.1973394761157e-05,-7.1973394761157e-05,3684546.8342004,0.009047143368482
26991759,0.56977290702071,0.0095336610951824,0.0029654341360967,0.0037247820377401,0.0028434449213456,-0.00065153655897029,0.00065153460536448,1.3486622699993e-09,-3.2917971855026e-09,-5.488013484514e-10,-1.4653766807777e-09,-0.00030383146495925,0.00030382402523428,-0.00040021283054502,0.00040021145650355,-0.00040021437170336,0.00040020992013538,-0.0003038259962929,0.00030382947080511,-0.00030383052061966,0.000303824946743,-0.00040021191584531,0.00040021233863585,-0.00040021344596167,0.00040021079523884,-0.00081652795301903,0.00081652789180902,-0.00081652950276599,0.00081652634219367,-0.00081652830127284,0.00081652759927172,-0.00081652985284655,0.0008165260497179,-0.00074858389680328,0.00074858619804676,-0.00074858845364518,0.0007485816561181,-0.00074858357607263,0.00074858651501558,-0.00074858812276966,0.00074858196882087,-0.00030382693849536,0.00030382855815907,-1.2787118021734e-09,-2.7047100836253e-10,9.5828992694465e-10,-2.4565551054057e-09,-0.00094953084264851,0.00094952933841526,-0.00089598666621831,0.0008959815075329,-0.0010053944015043,0.0010053930177101,-0.0010053934921585,0.0010053940865427,-0.00090347195411847,0.00090347124346343,-0.00090347307669555,0.0009034701093556,-0.000903471622489,0.00090347160363334,-0.00090347274683907,0.00090347046827369,-0.00089598302647041,0.00089598520304343,-0.00089598636433895,0.00089598185496456,-0.0010053955394879,0.0010053918908819,-0.0010053946141434,0.0010053929360663,-0.0008959833274957,0.00089598484997722,-2.6501655709338e-09,1.9779106346878e-09,-0.00059909727579561,0.00059909660023526,-2.0549804573495e-09,1.3805919507905e-09,-0.00042031094108774,0.00042030910767071,-0.00048986678014884,0.00048987101251183,-0.00048986831348815,0.00048986946982961,-0.00042030976472385,0.00042031027217891,-0.00042031435129682,0.00042030579592375,-0.00048987013644119,0.00048986762987852,-0.00048987171202332,0.0004898661183469,-0.00074804229648606,0.00074803892974564,-0.00074804113961079,0.00074804007409826,-0.00074804075196345,0.0007480404716735,-0.00074803960884015,0.00074804162721309,-0.00069098036186135,0.00069098535916844,-0.00069098487647705,0.00069098081104438,-0.00069098604995613,0.00069097969004273,-0.00069098148324433,0.00069098419186851,-0.00042030643054254,0.00042031363515388,0.74557636102751,129794,2964,0.0027122712732298,0.0039485490805906,0.0024937134649417,21.442795437834,-6.8457636497326e-05,-6.8457636497326e-05,-6.8457636497326e-05,3697740.9570116,0.0091973934886104
27191759,0.57865618796832,0.0096741100950877,0.0030082678104655,0.0037843756328516,0.0028814666517705,-0.00066197408558292,0.00066197214224829,1.3909536326448e-09,-3.3242569615552e-09,-5.5874981566491e-10,-1.4441060245669e-09,-0.00030781567297878,0.00030780820349804,-0.00040627147120949,0.00040627016297919,-0.00040627303776334,0.00040626860212908,-0.000307810163731,0.00030781368804672,-0.00030781475948929,0.00030780909082095,-0.0004062705850789,0.00040627101423289,-0.00040627214061914,0.00040626944711259,-0.00083030600669789,0.00083030596815725,-0.00083030758145008,0.00083030439376815,-0.00083030634302173,0.00083030568689885,-0.00083030791957528,0.0008303041123331,-0.00076047027732249,0.00076047267032557,-0.00076047490738086,0.00076046805505099,-0.00076046996592394,0.0007604729782126,-0.00076047458606625,0.0007604683596784,-0.00030781107234356,0.00030781280946154,-1.2777185765745e-09,-3.0128151722925e-10,1.0103331537289e-09,-2.5364780109335e-09,-0.00096626248012893,0.00096626094778303,-0.00091154724685617,0.0009115419420121,-0.0010230547819229,0.0010230534393483,-0.0010230538997371,0.0010230544793329,-0.00091946416849304,0.00091946348280282,-0.00091946533274075,0.00091946230487942,-0.0009194638458372,0.00091946383263732,-0.00091946501193411,0.00091946265291078,-0.00091154348908747,0.00091154575658337,-0.00091154695511496,0.00091154227760901,-0.0010230559616298,0.0010230522681535,-0.0010230550631691,0.0010230532839716,-0.00091154377970257,0.00091154541497151,-2.6723040792002e-09,2.0301616541903e-09,-0.00060769307796932,0.0006076924328213,-2.1042663495256e-09,1.4619619846187e-09,-0.00042481848462604,0.00042481673872919,-0.00049603228839716,0.0004960367055714,-0.0004960338458151,0.000496035137444,-0.00042481736663311,0.0004248178495261,-0.00042482202400425,0.00042481329889165,-0.00049603577347947,0.00049603319431782,-0.00049603737316366,0.00049603165711125,-0.00075995035281896,0.000759946947603,-0.00075994915326605,0.00075994813581723,-0.00075994878409827,0.00075994851504017,-0.00075994759730888,0.00075994971337427,-0.00070238090820875,0.00070238605078433,-0.00070238549403813,0.00070238142824993,-0.00070238671111787,0.00070238026445083,-0.00070238207094194,0.00070238483777451,-0.00042481390276212,0.00042482134049934,0.72509827680451,129794,2964,0.0027556973311228,0.0040179698947273,0.0025294710576029,21.882558326566,-6.4939533387474e-05,-6.4939533387474e-05,-6.4939533387474e-05,3713914.254784,0.0093474098673687
27391759,0.58762910988261,0.0098190451756922,0.0030523931714557,0.003845908400174,0.0029207436040625,-0.00067247437235871,0.00067247239126491,1.4094614598317e-09,-3.3801923205331e-09,-5.1647291904802e-10,-1.526455591653e-09,-0.00031212370970196,0.00031211600747601,-0.00041254142568716,0.0004125399782792,-0.00041254301648605,0.00041253839352096,-0.00031211800417184,0.00031212168762806,-0.00031212267532436,0.00031211701549617,-0.00041254041464924,0.00041254095303171,-0.00041254199610576,0.00041253936083224,-0.00084407130604344,0.00084407129620765,-0.00084407290581838,0.00084406969663928,-0.00084407168308859,0.00084407097373882,-0.00084407328420508,0.0008440693745116,-0.00077241633123819,0.00077241871661897,-0.00077242103354254,0.00077241402901751,-0.00077241597709234,0.00077241906836133,-0.00077242067108624,0.00077241437663653,-0.00031211903856736,0.00031212068460037,-1.3386676218583e-09,-2.454789213426e-10,1.0280118702371e-09,-2.5595925766716e-09,-0.00098307840140996,0.00098307686354445,-0.00092719793646794,0.00092719254722271,-0.0010408755613332,0.0010408741078024,-0.0010408745646271,0.0010408752675762,-0.00093559118800618,0.00093559047209076,-0.00093559236563743,0.00093558928045168,-0.00093559082802717,0.00093559086142396,-0.00093559200698092,0.0009355896683614,-0.00092719410013018,0.00092719644034843,-0.00092719760582561,0.00092719292289711,-0.0010408767544095,0.0010408729220732,-0.0010408757399313,0.0010408740593598,-0.00092719442816124,0.00092719606016013,-2.7094536974207e-09,2.0677837758309e-09,-0.00061639204181578,0.00061639139712437,-2.1227144221896e-09,1.4808327632316e-09,-0.00042995771733998,0.00042995593292365,-0.00050248205289949,0.00050248653235042,-0.00050248363566079,0.0005024849383567,-0.00042995656358993,0.00042995708072952,-0.00042996129177052,0.00042995245961976,-0.0005024855750823,0.00050248298348581,-0.00050248719903963,0.00050248142224457,-0.0007718599959112,0.000771856553804,-0.000771858784301,0.00077185775465092,-0.00077185840234777,0.00077185814579664,-0.00077185720294513,0.00077185935715184,-0.00071413037937301,0.00071413560801052,-0.00071413503764722,0.00071413091005071,-0.00071413626710773,0.00071412973513409,-0.00071413155223651,0.00071413437811234,-0.00042995306091394,0.00042996061062439,0.74093824971408,129794,2964,0.0027993815954178,0.0040877318430396,0.0025656581010591,22.214340516836,-6.2285275865315e-05,-6.2285275865315e-05,-6.2285275865315e-05,3726831.0255253,0.0094984857684507
27591759,0.59664679342901,0.0099666104100606,0.0030972555487715,0.0039085983231738,0.0029607565381153,-0.00068294502896907,0.00068294299444723,1.4208098278527e-09,-3.4437176027911e-09,-4.6706913802021e-10,-1.6334036602129e-09,-0.00031630098794367,0.00031629299678452,-0.00041880861149578,0.00041880697905256,-0.00041881022953462,0.00041880536773885,-0.00031629505478464,0.00031629890724854,-0.00031629979423999,0.00031629416357008,-0.0004188074471708,0.00041880810575673,-0.00041880905274978,0.00041880648930355,-0.00085784082220292,0.00085784083611789,-0.00085784244643543,0.00085783921152961,-0.00085784124978063,0.00085784046228078,-0.00085784287635566,0.00085783883746981,-0.00078438165799093,0.00078438401376549,-0.00078438643321322,0.00078437925145383,-0.00078438125314834,0.00078438441779383,-0.00078438601729069,0.00078437965298164,-0.00031629624072246,0.00031629775392103,-1.4300953271576e-09,-1.6259359106123e-10,1.0228184074894e-09,-2.5634724701012e-09,-0.0010000334942143,0.0010000319474447,-0.00094302294947071,0.00094301749625494,-0.0010589212568189,0.0010589196193764,-0.0010589200913104,0.0010589209567337,-0.00095180235345365,0.00095180157103296,-0.00095180353066182,0.00095180038046838,-0.00095180193742424,0.00095180202002735,-0.00095180311687601,0.00095180082725598,-0.00094301905265543,0.00094302144159534,-0.00094302256226689,0.00094301792840352,-0.0010589224468754,0.0010589184335533,-0.0010589212688377,0.0010589197497172,-0.00094301944022192,0.00094302100236799,-2.7531836705092e-09,2.0981377953306e-09,-0.00062506796893982,0.00062506731021094,-2.1335758384672e-09,1.4756362219251e-09,-0.00043523094182122,0.0004352290759126,-0.00050893579137643,0.00050894028352461,-0.00050893739801556,0.00050893866450599,-0.00043522971704205,0.00043523028817447,-0.00043523452505931,0.00043522559529849,-0.00050893931691104,0.00050893672915395,-0.00050894096724091,0.00050893514172825,-0.00078376553244186,0.00078376204991726,-0.00078376431892048,0.00078376325342372,-0.00078376391363559,0.00078376366686395,-0.0007837627126663,0.00078376487969911,-0.00072614582499909,0.00072615111300141,-0.00072615055580667,0.00072614634660248,-0.00072615178786064,0.00072614516819268,-0.00072614699673132,0.00072614988085008,-0.00043522621632316,0.0004352338228411,0.7507131492894,129794,2964,0.0028429430166862,0.0041580639278023,0.0026017505190891,22.482041258142,-6.0143669934864e-05,-6.0143669934864e-05,-6.0143669934864e-05,3734132.2761485,0.0096499410726375
27791759,0.60570160015844,0.01011690494868,0.0031428849505118,0.0039724869175386,0.0030015330806301,-0.00069352765318256,0.00069352556584268,1.4318906518117e-09,-3.5069942924081e-09,-4.2509903544274e-10,-1.7310684581498e-09,-0.00032051856475146,0.00032051030826846,-0.0004252469723442,0.00042524517295828,-0.00042524861395728,0.00042524353739999,-0.00032051241817304,0.00032051643242847,-0.00032051723252515,0.00032051161524979,-0.00042524567394325,0.00042524643806304,-0.00042524730370473,0.00042524479582285,-0.00087174021477555,0.00087174024992059,-0.00087174186373195,0.0008717386002147,-0.00087174069188661,0.00087173982912012,-0.00087174234312233,0.00087173817976307,-0.00079660628914955,0.00079660861926893,-0.00079661113719531,0.00079660378362334,-0.00079660583745768,0.00079660906996124,-0.00079661067490087,0.00079660423044287,-0.00032051374628432,0.0003205151354804,-1.5011467897607e-09,-9.881489789586e-11,1.0230499050534e-09,-2.5722362483637e-09,-0.0010172345845818,0.0010172330297433,-0.00095912103147881,0.00095911551493567,-0.0010772395900219,0.0010772378221424,-0.0010772383001708,0.0010772392916128,-0.00096822649854066,0.00096822566638303,-0.00096822767971803,0.00096822447303967,-0.00096822603993123,0.00096822616116687,-0.0009682272228155,0.00096822496584689,-0.00095911708220896,0.00095911951562359,-0.00095912059992821,0.00095911599442578,-0.0010772407856521,0.0010772366347905,-0.001077239480814,0.0010772380820424,-0.00095911751306593,0.00095911903014312,-2.799987562903e-09,2.1264631617748e-09,-0.00063384344893557,0.00063384277144247,-2.146892426161e-09,1.4695969671486e-09,-0.0004407616203428,0.00044075966957124,-0.00051553724615991,0.00051554175101214,-0.00051553887789167,0.00051554010790853,-0.00044076032874904,0.0004407609461161,-0.00044076521068786,0.00044075618439699,-0.00051554077824088,0.0005155381890961,-0.00051554245399503,0.00051553657898979,-0.00079577588696323,0.00079577235884513,-0.00079577467061521,0.0007957735639694,-0.00079577424274309,0.00079577400018845,-0.00079577303935301,0.00079577521557519,-0.00073837912281333,0.00073838446910979,-0.00073838392942785,0.00073837962931661,-0.00073838516224743,0.00073837844803604,-0.00073838029863664,0.00073838323574069,-0.00044075682193688,0.00044076449136202,0.76134594242117,129794,2964,0.0028869699810747,0.0042294097868952,0.0026382572983515,22.748062556841,-5.8015499545268e-05,-5.8015499545268e-05,-5.8015499545268e-05,3738467.5122805,0.0098033317968033
27991759,0.61478659075761,0.010270025369106,0.0031893068577445,0.0040376243931332,0.0030430941182284,-0.00070424358655461,0.00070424145382558,1.4467485552659e-09,-3.5666584389741e-09,-3.9697619348802e-10,-1.8073547336859e-09,-0.00032475077511009,0.0003247422937528,-0.00043185972893374,0.00043185780497741,-0.00043186139508496,0.00043185614449764,-0.00032474445053198,0.0003247485961917,-0.00032474933709567,0.00032474370603848,-0.00043185833026303,0.00043185917260193,-0.00043185998408636,0.00043185750466285,-0.00088577391043844,0.00088577396181486,-0.00088577558402742,0.00088577228698804,-0.00088577442498318,0.0008857735061211,-0.00088577610105576,0.00088577183195214,-0.00080926677905541,0.00080926910316838,-0.00080927169883951,0.0008092641931025,-0.00080926629182693,0.00080926958776025,-0.00080927120120219,0.00080926467329712,-0.00032474588376862,0.00032474719325197,-1.5639082833225e-09,-5.536693133193e-11,1.0250700215571e-09,-2.5931806615961e-09,-0.0010346951323409,0.0010346935588067,-0.00097551319062817,0.00097550759699848,-0.0010958191880246,0.0010958173117474,-0.0010958178021498,0.0010958188834638,-0.00098487253677705,0.00098487165861147,-0.00098487372595902,0.00098487045807221,-0.00098487204455285,0.00098487218934366,-0.0009848732353998,0.00098487098688368,-0.00097550918294251,0.00097551165483546,-0.00097551272433672,0.00097550811264277,-0.0010958203924152,0.001095816117645,-0.0010958189915375,0.0010958176673842,-0.0009755096482565,0.0009755111333911,-2.8465419235026e-09,2.1546947710832e-09,-0.00064270588417991,0.00064270518792571,-2.1685046071121e-09,1.4711851648375e-09,-0.00044647240188916,0.00044647038051279,-0.00052227435412288,0.00052227888661636,-0.0005222760108709,0.00052227721885501,-0.00044647105882715,0.00044647170677879,-0.0004464760152236,0.00044646687458919,-0.00052227790853058,0.0005222753015413,-0.00052227960975803,0.00052227366751865,-0.00080790817028173,0.0008079045914077,-0.00080790694573895,0.00080790580356538,-0.00080790650084728,0.0008079062573587,-0.00080790528961979,0.00080790748027976,-0.00075062513586954,0.00075063054575404,-0.00075063001953327,0.00075062563598463,-0.00075063125794535,0.00075062444583105,-0.00075062632271074,0.00075062930917903,-0.00044646753090379,0.00044647527614062,0.77288939376409,129794,2964,0.0029315513060291,0.0043018260259428,0.0026751259054462,23.01401573975,-5.5887874082003e-05,-5.5887874082003e-05,-5.5887874082003e-05,3740541.8144243,0.0099587527796358
28191759,0.62386171490349,0.010425508070767,0.003236383184663,0.0041038133820164,0.0030853115040875,-0.00071496617246022,0.0007149639906794,1.4611414227796e-09,-3.628080083438e-09,-3.7546708198838e-10,-1.8890558695222e-09,-0.00032894858473446,0.00032893983371308,-0.00043851474601571,0.00043851269705871,-0.00043851645006145,0.00043851099431008,-0.00032894206178074,0.00032894633590776,-0.00032894703740129,0.00032894135630957,-0.00043851324869018,0.00043851415932956,-0.00043851493518604,0.00043851246104627,-0.00089980007417235,0.00089980013968488,-0.00089980177078581,0.00089979843856948,-0.00089980062224673,0.00089979964968121,-0.00089980232349047,0.00089979794896215,-0.00082214294175836,0.00082214526225804,-0.00082214793252383,0.00082214027457929,-0.0008221424238056,0.00082214577823123,-0.00082214740070654,0.00082214078929349,-0.00032894360230935,0.00032894485201544,-1.6340498858388e-09,-2.576529064541e-12,1.0230976108092e-09,-2.610619899855e-09,-0.0010522679985035,0.0010522664095577,-0.00099207593061677,0.00099207026111521,-0.0011145231221783,0.0011145211187155,-0.0011145216269392,0.0011145228096086,-0.0010015794515991,0.0010015785281874,-0.0010015806463637,0.0010015773210287,-0.0010015789219817,0.001001579100518,-0.0010015801212433,0.001001577894283,-0.00099207183973125,0.00099207434997906,-0.00099207542406763,0.00099207082137346,-0.0011145243111619,0.0011145199008165,-0.0011145228361745,0.0011145216171663,-0.00099207235974266,0.00099207379072388,-2.8940647446322e-09,2.1806247198234e-09,-0.00065151330777847,0.00065151258781412,-2.1978998569126e-09,1.4661381235782e-09,-0.00045217897058978,0.00045217686136438,-0.00052898919421371,0.00052899373242863,-0.00052899087316799,0.00052899203882636,-0.00045217758169923,0.00045217823460271,-0.00045218259565633,0.00045217331545725,-0.00052899276634036,0.00052899012173978,-0.00052899448555859,0.0005289884570023,-0.00082002266218739,0.00082001903138456,-0.00082002142762668,0.00082002025125265,-0.00082002096639583,0.00082002071977351,-0.00082001974656561,0.00082002195021722,-0.00076283205057965,0.00076283752108739,-0.00076283700961242,0.00076283254730427,-0.0007628382563463,0.00076283134435991,-0.00076283324906336,0.0007628362794211,-0.00045217402985096,0.00045218183140934,0.78542227517123,129794,2964,0.0029761610366695,0.0043747014452051,0.0027117660083774,23.224080707998,-5.4207354336014e-05,-5.4207354336014e-05,-5.4207354336014e-05,3738986.6077096,0.010114459901271
28391759,0.63290933023424,0.010583272455966,0.0032841043544381,0.0041709991862528,0.0031281689152748,-0.00072573826618971,0.00072573604468736,1.4784729507839e-09,-3.6846265557762e-09,-3.5054243409573e-10,-1.9541047000604e-09,-0.00033311021260317,0.00033310126961383,-0.0004452473209334,0.00044524516522883,-0.00044524904537475,0.00044524344340582,-0.00033310353012697,0.00033310793044448,-0.00033310857632707,0.0003331028811017,-0.00044524573517457,0.00044524671810846,-0.00044524744523726,0.00044524499623582,-0.00091388217808598,0.00091388225900982,-0.00091388390011618,0.00091388053310159,-0.00091388275750442,0.00091388173890058,-0.00091388448309746,0.00091388001384751,-0.00083525698126711,0.00083525930342949,-0.00083526204325944,0.00083525424280226,-0.00083525642876345,0.00083525985129784,-0.00083526147990822,0.00083525478719717,-0.00033310516417225,0.00033310634710879,-1.6739662470096e-09,3.799330843161e-11,1.0422497295855e-09,-2.6296511096585e-09,-0.0010700261431297,0.0010700245533967,-0.0010088969789557,0.0010088912437743,-0.0011334094836534,0.0011334074160661,-0.0011334079135152,0.0011334091887895,-0.0010184032918995,0.0010184023522856,-0.0010184045005789,0.0010184011335729,-0.0010184027368331,0.0010184029524559,-0.0010184039485601,0.0010184017338662,-0.0010088928296491,0.0010088954030149,-0.0010088964442235,0.0010088918309668,-0.0011334106954834,0.0011334061937892,-0.0011334091310243,0.0011334079746354,-0.0010088933715361,0.0010088948142857,-2.9419363128044e-09,2.2078592767088e-09,-0.0006603254520421,0.00066032471129719,-2.2247198931597e-09,1.4735025965673e-09,-0.00045791691283884,0.00045791475141421,-0.00053569357627902,0.00053569815460553,-0.00053569528093271,0.00053569643666349,-0.00045791548308024,0.00045791615737364,-0.0004579205743733,0.00045791117824611,-0.00053569718277738,0.00053569451022954,-0.00053569892777239,0.00053569282357531,-0.00083217972071522,0.00083217603211631,-0.00083217847513035,0.00083217726296528,-0.00083217799994728,0.00083217774601508,-0.00083217676882093,0.00083217898818251,-0.00077512680382967,0.00077513233745407,-0.00077513183905341,0.00077512729175985,-0.00077513309500374,0.0007751260796599,-0.00077512801427947,0.0007751310874965,-0.00045791189913364,0.00045791978873421,0.79903791300959,129794,2964,0.0030209778165637,0.0044483379705787,0.0027484261226569,23.41498711506,-5.2680103079521e-05,-5.2680103079521e-05,-5.2680103079521e-05,3734350.9275416,0.010271190113476
28591759,0.64192299252217,0.010742263529519,0.0033322019201338,0.0042386859140648,0.0031713756953205,-0.00073654629807037,0.00073654404547415,1.4999204816648e-09,-3.7375347801133e-09,-3.4214752614264e-10,-1.9931490238567e-09,-0.00033719769727112,0.00033718861501735,-0.00045198321354999,0.00045198100288953,-0.00045198495843149,0.00045197926124709,-0.0003371909045358,0.00033719538894201,-0.00033719601486987,0.00033719027462877,-0.0004519815827024,0.00045198260475452,-0.00045198331323772,0.00045198085925303,-0.00092802237734638,0.00092802246793791,-0.00092802412447402,0.00092802071726928,-0.00092802297321512,0.00092802193197499,-0.00092802472392943,0.00092802018262196,-0.00084854200198407,0.00084854434934876,-0.00084854713803859,0.00084853921646152,-0.00084854143238642,0.00084854491390401,-0.00084854655750821,0.00084853977644738,-0.00033719258354824,0.00033719375109417,-1.6979306767363e-09,6.0518387063273e-11,1.0711516497105e-09,-2.6599801366257e-09,-0.001087924952002,0.001087923359914,-0.0010258923900578,0.001025886580006,-0.0011524575502021,0.0011524554558498,-0.0011524559355309,0.0011524572750595,-0.0010353142161134,0.0010353132764467,-0.0010353154445775,0.0010353120389627,-0.0010353136452848,0.0010353138925904,-0.0010353148761208,0.0010353126542906,-0.0010258881739192,0.0010258908186753,-0.0010258918402761,0.0010258871829735,-0.00115245878777,0.0011524542203464,-0.0011524571693603,0.0011524560337252,-0.0010258887284051,0.0010258902133261,-2.9881571141767e-09,2.2366416883376e-09,-0.00066913184418289,0.00066913108640132,-2.2619701430725e-09,1.4952485114564e-09,-0.00046362070019714,0.00046361850755195,-0.00054234791780108,0.00054235256555784,-0.00054234964835812,0.00054235082363981,-0.00046361925290297,0.00046361993261008,-0.00046362442331679,0.00046361488212426,-0.00054235158302934,0.00054234886426567,-0.00054235335619212,0.00054234715477646,-0.00084438182004639,0.00084437806944569,-0.00084438055491102,0.00084437931980554,-0.00084438007484974,0.00084437980885588,-0.00084437882405583,0.00084438107070609,-0.00078748734106791,0.00078749295006167,-0.00078749245130499,0.00078748783049744,-0.00078749372493862,0.00078748659878859,-0.000787488572629,0.00078749168352317,-0.0004636156116765,0.00046362362001315,0.8078752175529,129794,2964,0.0030659450151736,0.0045225503424391,0.002785062991223,23.605381936438,-5.1156944508494e-05,-5.1156944508494e-05,-5.1156944508494e-05,3726956.6712359,0.010428656210221
28791759,0.6508965351794,0.010896821824901,0.0033791231459455,0.0043043734978457,0.0032133251811098,-0.00074710185781652,0.00074709959041515,1.5297305233708e-09,-3.7822781385874e-09,-3.5577469373908e-10,-1.9947568643853e-09,-0.00034083776630412,0.00034082860719343,-0.00045823718803659,0.00045823499907263,-0.00045823895712847,0.00045823323283746,-0.00034083091215082,0.00034083544247506,-0.00034083609506943,0.00034083025652602,-0.00045823556949268,0.00045823658879385,-0.00045823732448081,0.00045823481866013,-0.00094200120512871,0.00094200130235488,-0.00094200297718331,0.00094199952687974,-0.00094200179815364,0.0009420007705776,-0.00094200357383637,0.00094199899647212,-0.00086144139352018,0.00086144380301808,-0.00086144660233845,0.00086143859668038,-0.00086144082662789,0.00086144436362133,-0.00086144602524619,0.00086143915335471,-0.00034083258004594,0.00034083381557245,-1.6986484264566e-09,4.8906885292196e-11,1.1137024002407e-09,-2.7145291585417e-09,-0.001105506423821,0.0011055048197078,-0.001042475326675,0.0010424694128822,-0.0011711936933273,0.0011711916315595,-0.0011711920910826,0.0011711934388666,-0.0010519562949748,0.0010519553790974,-0.0010519575557187,0.0010519541093959,-0.0010519557278035,0.0010519559916463,-0.0010519569907339,0.001051954720875,-0.0010424710187936,0.0010424737435346,-0.0010424747797318,0.0010424700120038,-0.0011711949637643,0.0011711903645607,-0.0011711933568129,0.0011711921647494,-0.0010424715699041,0.0010424731415535,-3.0280451577401e-09,2.2715181936784e-09,-0.00067769757697459,0.00067769681420217,-2.3134923660553e-09,1.5416978556189e-09,-0.00046888812878989,0.00046888595354291,-0.00054853612438257,0.00054854088792346,-0.00054853787982156,0.00054853912119589,-0.00046888670517674,0.00046888735705568,-0.0004688919469331,0.00046888223207073,-0.00054853988571518,0.0005485370909063,-0.0005485416835645,0.00054853535646199,-0.00085643643198039,0.00085643261910337,-0.00085643513419448,0.00085643390194588,-0.00085643466216237,0.00085643438369521,-0.00085643337874204,0.00085643567811646,-0.00079953042919485,0.00079953613899998,-0.00079953561407498,0.00079953094756064,-0.00079953691888465,0.00079952968216074,-0.00079953169503351,0.00079953484209057,-0.00046888296769677,0.00046889114008624,0.78846824298901,129794,2964,0.0031098631830564,0.004595440005206,0.0028207005740988,23.795755919206,-4.9633952646351e-05,-4.9633952646351e-05,-4.9633952646351e-05,3719385.91664,0.010582742912438
28991759,0.65988661277676,0.011045128890269,0.0034243751089808,0.0043672706745185,0.0032534831067693,-0.00075761291073739,0.00075761065844862,1.5760580850956e-09,-3.8144432614649e-09,-4.0294283810818e-10,-1.9327483136598e-09,-0.00034445436982716,0.00034444525208594,-0.00046426494665749,0.00046426290844044,-0.00046426674324225,0.00046426111141389,-0.00034444754891685,0.0003444520508447,-0.00034445280543406,0.00034444680035014,-0.00046426343514701,0.00046426438632796,-0.00046426521539726,0.00046426259249197,-0.00095597322527856,0.00095597332828868,-0.00095597502271663,0.00095597152744833,-0.00095597378274657,0.00095597283386195,-0.00095597558530467,0.0009559710329937,-0.0008739992161124,0.00087400175559573,-0.0008740045069444,0.00087399646928935,-0.00087399868673109,0.0008740022759695,-0.00087400396505222,0.00087399699338144,-0.00034444910386301,0.00034445054308187,-1.672054430532e-09,-6.5798325990866e-12,1.1718453633219e-09,-2.7998049571341e-09,-0.0011227189733112,0.0011227173420149,-0.001058426675314,0.0010584206222188,-0.0011894701995684,0.001189468236599,-0.0011894686764572,0.0011894699612698,-0.001068459123159,0.0010684582552432,-0.0010684604297872,0.0010684569374859,-0.0010684585829613,0.0010684588407744,-0.0010684598936378,0.0010684575222243,-0.0010584222572069,0.0010584250694779,-0.0010584261611915,0.0010584211988489,-0.0011894715127703,0.0011894669217413,-0.0011894699947013,0.0011894686458172,-0.0010584227844177,0.0010584244948416,-3.0529918344286e-09,2.318166383373e-09,-0.00068628368056859,0.00068628294020945,-2.3797072703089e-09,1.6316293058112e-09,-0.0004741331598698,0.00047413109014963,-0.00055460113064572,0.00055460609236301,-0.0005546029076803,0.0005546043053592,-0.00047413182166819,0.00047413242137358,-0.00047413713799538,0.00047412720779045,-0.00055460504296104,0.00055460214495744,-0.00055460686525867,0.00055460038495855,-0.00086852622679393,0.0008685223608345,-0.00086852487604178,0.00086852369600959,-0.00086852443287503,0.00086852414946536,-0.00086852309809206,0.0008685254951519,-0.00081132742057863,0.00081133327289199,-0.00081133267458644,0.00081132801068577,-0.00081133402996365,0.00081132668851601,-0.00081132873950407,0.00081133192737402,-0.00047412792986528,0.00047413635318262,0.75490318750389,129794,2964,0.0031535933767173,0.0046667936384575,0.0028564220464306,24.096317169352,-4.7229462645184e-05,-4.7229462645184e-05,-4.7229462645184e-05,3719499.6940798,0.010735197196697
29191759,0.66889502938555,0.011190305853147,0.0034687755734409,0.0044287986795039,0.0032927316002027,-0.00076808207991092,0.00076807983899161,1.6178235881293e-09,-3.8446238398808e-09,-4.2228801777328e-10,-1.9000526759597e-09,-0.00034815855517316,0.0003481494319601,-0.0004702566906377,0.00047025474016759,-0.0004702585094938,0.00047025292264468,-0.00034815171120682,0.0003481562533846,-0.00034815704254635,0.00034815092556119,-0.0004702552312108,0.00047025616815681,-0.00047025703669593,0.00047025434964425,-0.00096983575689037,0.00096983587835957,-0.00096983757929628,0.00096983405299387,-0.00096983629999303,0.00096983540063248,-0.00096983812632301,0.00096983357635017,-0.00088635070145617,0.00088635333601857,-0.00088635605809422,0.00088634798105322,-0.00088635018367271,0.0008863538437282,-0.00088635553159569,0.00088634848751085,-0.0003481532209485,0.00034815478877896,-1.6495992736981e-09,-5.7067644990265e-11,1.2267540137753e-09,-2.8823364304342e-09,-0.0011395824243721,0.0011395807653768,-0.0010738387207702,0.0010738325275813,-0.0012072362240858,0.0012072343557108,-0.0012072347741364,0.0012072360036731,-0.0010848339319363,0.001084833105103,-0.0010848352831316,0.0010848317411209,-0.0010848334152998,0.0010848336654022,-0.0010848347689273,0.0010848323006592,-0.0010738341911271,0.0010738370864376,-0.0010738382243278,0.0010738330759735,-0.0012072375859843,0.0012072329955679,-0.0012072361327881,0.0012072346372171,-0.0010738346941737,0.0010738365357451,-3.0773913236034e-09,2.3703911914997e-09,-0.00069489697195641,0.00069489625939624,-2.4281852157978e-09,1.709893579259e-09,-0.00047958207675865,0.00047958008818004,-0.00056070386732949,0.00056070901078892,-0.00056070567112201,0.00056070719527646,-0.00047958079014495,0.00047958136098835,-0.00047958617551907,0.00047957608634483,-0.00056070790679706,0.0005607049364222,-0.00056070975340457,0.00056070315177926,-0.0008805547917124,0.00088055088513031,-0.00088055339981596,0.00088055226152491,-0.00088055297297517,0.00088055269971311,-0.00088055159550118,0.00088055408709214,-0.00082286312468489,0.00082286912149938,-0.00082286845646157,0.00082286378756189,-0.0008228698526864,0.00082286242599741,-0.00082286448670371,0.00082286773608646,-0.000479576774014,0.00047958542189436,0.73755731255648,129794,2964,0.0031971451494677,0.0047366941805119,0.0028922543286437,24.414652465582,-4.4682780275344e-05,-4.4682780275344e-05,-4.4682780275344e-05,3727402.3295934,0.010886136658487
29391759,0.67791330121389,0.011328581364065,0.003511258377713,0.0044873244961793,0.0033299984901725,-0.00077818083910282,0.00077817858969574,1.6505891205471e-09,-3.8861009706652e-09,-4.0973109556981e-10,-1.9210851196242e-09,-0.00035131880279888,0.00035130956622792,-0.00047561594565733,0.00047561397905562,-0.00047561778909112,0.00047561213704367,-0.00035131185417955,0.00035131649090609,-0.00035131725689739,0.00035131109237197,-0.00047561445325342,0.00047561543918656,-0.00047561628374359,0.00047561359653797,-0.00098340373641985,0.00098340388585863,-0.00098340558371099,0.00098340203574693,-0.00098340429242891,0.00098340339747522,-0.00098340614367278,0.00098340154848034,-0.00089809153710396,0.00089809422543651,-0.00089809696787885,0.00089808879896746,-0.0008980910086068,0.00089809474400719,-0.00089809642885818,0.00089808931437971,-0.0003513133961425,0.00035131499418536,-1.6921736949022e-09,-6.2776136007872e-11,1.242400378161e-09,-2.9441548648702e-09,-0.0011559012543171,0.0011558995491121,-0.001088551078353,0.001088544750476,-0.0012243919997805,0.0012243900775874,-0.0012243905167785,0.0012243917585266,-0.0011008013215444,0.0011008004618022,-0.0011008026970907,0.0011007990717815,-0.0011008007930221,0.0011008010343262,-0.0011008021709222,0.0011007996432614,-0.0010885464619089,0.0010885493994403,-0.0010885505687803,0.0010885453106908,-0.0012243933868147,0.0012243886917909,-0.001224391899794,0.0012243903655455,-0.0010885469775075,0.0010885488367449,-3.1020762523634e-09,2.4207168747905e-09,-0.00070322651998066,0.00070322583341637,-2.4527026558482e-09,1.7621784101592e-09,-0.00048453678408609,0.00048453482483191,-0.00056624334564628,0.00056624861722553,-0.00056624517435302,0.00056624677691553,-0.00048453550131484,0.00048453609725025,-0.00048454095760377,0.00048453074760223,-0.00056624746133392,0.00056624446777685,-0.00056624933233154,0.00056624265768659,-0.00089234982217879,0.00089234589054204,-0.00089234840493726,0.00089234729220973,-0.00089234797892414,0.00089234773054081,-0.0008923465752573,0.00089234914226362,-0.00083384141944862,0.0008338475394251,-0.00083384682726553,0.00083384213433084,-0.00083384824539383,0.00083384074647983,-0.00083384280965374,0.00083384613404528,-0.0004845314082566,0.00048454023274441,0.70228482403852,129794,2964,0.0032391556051205,0.0048043330091871,0.0029269068194892,24.733484952705,-4.2132120378356e-05,-4.2132120378356e-05,-4.2132120378356e-05,3740155.0001062,0.011032063223737
29591759,0.68693243572825,0.011461001652132,0.0035521118731345,0.0045432759159664,0.0033656138630311,-0.00078797428004287,0.00078797200903989,1.6770409381093e-09,-3.9341513873168e-09,-3.7502379729513e-10,-1.9782493115326e-09,-0.0003542093401576,0.00035419991752899,-0.00048051929137841,0.00048051723785967,-0.00048052115935037,0.00048051537116234,-0.00035420222687907,0.00035420700509779,-0.00035420770382626,0.00035420153564502,-0.00048051770979657,0.00048051878793215,-0.00048051956590474,0.00048051692148417,-0.00099666658195069,0.00099666676655787,-0.00099666845420182,0.00099666489162779,-0.00099666717150084,0.00099666624784479,-0.00099666904767918,0.00099666437405777,-0.00090938266902568,0.00090938537588344,-0.00090938817267,0.0009093798760571,-0.00090938210568197,0.00090938592631772,-0.0009093875995395,0.00090938042415432,-0.00035420386101019,0.0003542054181719,-1.7621376367283e-09,-3.8534031532376e-11,1.2378953253718e-09,-2.9843625976967e-09,-0.0011716911708144,0.0011716894212627,-0.0011026114284386,0.0011026049884359,-0.0012409202762839,0.0012409182347139,-0.0012409187058019,0.0012409200046002,-0.0011163839114991,0.0011163829888058,-0.0011163852980835,0.0011163815863668,-0.0011163833538706,0.0011163835924423,-0.0011163847427452,0.0011163821889122,-0.0011026067466063,0.0011026097061395,-0.0011026108868065,0.0011026055797968,-0.0012409216743174,0.0012409168369387,-0.0012409200993974,0.0012409185992686,-0.0011026072940176,0.0011026091122125,-3.1263747280874e-09,2.4711414419429e-09,-0.00071132640904235,0.00071132574898871,-2.4559922025221e-09,1.7937731569751e-09,-0.00048916731615516,0.00048916534670404,-0.00057141081945512,0.00057141617857386,-0.00057141267290525,0.00057141431330206,-0.00048916599604541,0.00048916665792451,-0.00048917152374555,0.00048916123421234,-0.00057141496998902,0.00057141199484848,-0.00057141686515557,0.00057141015942121,-0.00090389758585432,0.00090389364374912,-0.00090389615675608,0.00090389505609443,-0.00090389571783159,0.00090389550882897,-0.00090389430214893,0.00090389693103511,-0.00084424732269382,0.00084425355288799,-0.0008442528039999,0.00084424807484844,-0.00084425423411075,0.00084424667685264,-0.00084424872554227,0.00084425213806719,-0.00048916186733152,0.00048917082746038,0.6733783741881,129794,2964,0.0032798940978355,0.0048697753926507,0.0029606031889607,25.052214435004,-3.9582284519969e-05,-3.9582284519969e-05,-3.9582284519969e-05,3758768.5930105,0.011173537898082
29791759,0.69590628802748,0.011599694272308,0.0035946707153054,0.00460192716438,0.0034030963926225,-0.00079793615884594,0.00079793398689816,1.7630503145525e-09,-3.9224334159693e-09,-1.7746024143203e-10,-2.0688322487861e-09,-0.00035769216218923,0.00035768249024007,-0.00048598774555437,0.00048598554296433,-0.00048598963735765,0.00048598365205136,-0.00035768469261869,0.00035768992664061,-0.00035769024951835,0.00035768438992052,-0.00048598588232347,0.00048598737377614,-0.0004859877703968,0.00048598549003965,-0.0010098695107857,0.0010098699141988,-0.001009871410179,0.0010098680161351,-0.0010098702011536,0.001009869299916,-0.0010098721023064,0.0010098674012056,-0.00092124461746826,0.00092124739489655,-0.00092125019341609,0.00092124182461334,-0.00092124395261383,0.00092124804235161,-0.00092124952055356,0.00092124246949311,-0.00035768660987418,0.00035768806330763,-1.9113224077065e-09,9.4201496550855e-11,1.101428276045e-09,-2.8672651861684e-09,-0.0011877249330704,0.0011877231657816,-0.0011169961391756,0.0011169898274461,-0.0012576358469863,0.00125763343335,-0.0012576339918368,0.0012576354633145,-0.0011321508968966,0.0011321497704118,-0.001132152184724,0.0011321484495387,-0.0011321502408657,0.0011321504659028,-0.001132151530284,0.0011321491424066,-0.0011169916208295,0.0011169944129187,-0.0011169954936242,0.0011169905069558,-0.0012576371504029,0.0012576321164418,-0.0012576352886651,0.001257634134987,-0.0011169922705027,0.001116993726868,-3.0160074048602e-09,2.655816973438e-09,-0.00071959745965005,0.00071959709771144,-2.1634892044221e-09,1.8183340901688e-09,-0.00049458985627193,0.00049458787443791,-0.00057719979567336,0.00057720523795793,-0.0005772016751976,0.00057720334722378,-0.00049458821429061,0.00049458950418364,-0.00049459380429561,0.00049458400666178,-0.00057720369265514,0.00057720131222182,-0.00057720560738682,0.00057719944593792,-0.00091540732395249,0.00091540373822338,-0.00091540598503481,0.00091540505904552,-0.00091540543163985,0.00091540562893525,-0.0009154041054671,0.00091540695908884,-0.0008548199037894,0.00085482640666853,-0.00085482545967165,0.00085482085994915,-0.00085482679904247,0.00085481955431509,-0.00085482121839436,0.000854825088167,-0.00049458433623046,0.00049459341945247,0.70917941643471,129794,2964,0.0033213303272185,0.0049362221662689,0.0029950095937055,25.304816773705,-3.7561465810357e-05,-3.7561465810357e-05,-3.7561465810357e-05,3774464.2896309,0.01131746775515
29991759,0.70482625188635,0.01174482801817,0.0036389522329235,0.0046634200187791,0.0034424557664677,-0.00080819119289708,0.00080818892618614,1.7527222270685e-09,-4.0074850913166e-09,-5.7656692465858e-11,-2.2887973313862e-09,-0.00036162659333373,0.00036161641510947,-0.00049203745199381,0.00049203484228523,-0.00049203936888243,0.00049203292636769,-0.00036161871363441,0.00036162425703734,-0.00036162434911879,0.00036161865550014,-0.000492035255408,0.00049203700843809,-0.00049203717001218,0.00049203510171963,-0.0010232554182261,0.0010232558669558,-0.0010232573420326,0.0010232539438802,-0.0010232562227359,0.0010232551397291,-0.0010232581490128,0.0010232532165506,-0.00093383906323029,0.00093384170609197,-0.00093384471399272,0.00093383606144899,-0.00093383828350681,0.00093384246545466,-0.00093384392593703,0.00093383681941407,-0.00036162096822122,0.00036162205942289,-2.0951558506034e-09,2.5376609730926e-10,8.8140107234638e-10,-2.6728849092734e-09,-0.0012042291052504,0.0012042273129474,-0.0011318004246284,0.0011317943782098,-0.0012749034726168,0.0012749005661768,-0.0012749012900314,0.0012749029352875,-0.0011483166307942,0.0011483152318683,-0.0011483177853906,0.0011483140482228,-0.0011483158665464,0.0011483160422527,-0.0011483170229791,0.0011483148568649,-0.0011317961947466,0.0011317986684163,-0.0011317996675476,0.0011317951782665,-0.0012749046399008,0.0012748993880217,-0.0012749024516587,0.001274901748241,-0.0011317969569483,0.0011317978652928,-3.1033951907656e-09,2.643519845401e-09,-0.00072807106325076,0.00072807060235125,-2.0096775477957e-09,1.5604839490714e-09,-0.00050060003913601,0.00050059747148598,-0.00058369400627582,0.00058369896479516,-0.00058369591041501,0.00058369705047795,-0.00050059791869865,0.00050059959211725,-0.00050060357679261,0.00050059400875158,-0.00058369749663686,0.00058369544812828,-0.00058369943377512,0.00058369355541228,-0.00092706540168516,0.00092706182793078,-0.00092706419657906,0.00092706301192511,-0.0009270634838642,0.00092706374277693,-0.00092706229322184,0.00092706493780023,-0.00086581009839391,0.00086581643951602,-0.00086581572850691,0.00086581081804472,-0.00086581693064105,0.00086580964833349,-0.0008658112806221,0.00086581526129346,-0.00050059444288364,0.00050060309515349,0.74657307848236,129794,2964,0.0033639860463783,0.0050046095239933,0.0030302578116234,25.55572327119,-3.5554213830484e-05,-3.5554213830484e-05,-3.5554213830484e-05,3779984.2593072,0.011465464829309
30191759,0.71368475615767,0.011879865066856,0.0036803611003663,0.0047206111826919,0.0034788927837979,-0.00081785419395205,0.00081785184343118,1.7487378683467e-09,-4.0860195564661e-09,6.0561962814784e-11,-2.4962498584421e-09,-0.0003644635573403,0.00036445289666,-0.00049700616271473,0.00049700317044608,-0.00049700810465375,0.00049700123004531,-0.00036445528251227,0.00036446113552279,-0.00036446099045203,0.00036445546084424,-0.00049700365014893,0.00049700565797888,-0.00049700558869122,0.0004970037256711,-0.0010362699481317,0.0010362704497549,-0.001036271895913,0.0010362685008468,-0.0010362708646381,0.0010362696137058,-0.0010362728156045,0.0010362676654767,-0.0009455155058314,0.00094551802912814,-0.00094552122835768,0.00094551231019951,-0.0009455146138171,0.00094551889824877,-0.00094552032700312,0.00094551317675815,-0.00036445785989841,0.00036445861435982,-2.2791906132913e-09,3.9886953116256e-10,6.5485536351154e-10,-2.4859801585393e-09,-0.0012200691055486,0.001220067274593,-0.0011457182965218,0.0011457125050499,-0.0012916122161114,0.0012916088223323,-0.0012916097233284,0.0012916115146756,-0.0011639101963687,0.001163908515619,-0.0011639112191923,0.0011639074704208,-0.0011639093283031,0.0011639094368667,-0.0011639103529519,0.0011639083900869,-0.0011457143559519,0.0011457164937957,-0.001145717429668,0.0011457134166835,-0.0012916132486612,0.0012916077828515,-0.0012916107500012,0.0012916104662367,-0.0011457152279225,0.0011457155790537,-3.1807629873833e-09,2.6407886022503e-09,-0.00073596408148357,0.00073596353941562,-1.8477139060111e-09,1.3118131461646e-09,-0.00050536801063497,0.00050536487996328,-0.00058918311652938,0.00058918760960972,-0.00058918504603992,0.00058918567125458,-0.00050536540791506,0.00050536747640023,-0.00050537113945275,0.00050536182126548,-0.00058918620221781,0.0005891844972208,-0.00058918816411126,0.0005891825799049,-0.00093839815119288,0.00093839460845691,-0.00093839707943393,0.00093839565442532,-0.00093839620678754,0.00093839654647598,-0.00093839515230259,0.00093839760642918,-0.00087612257258881,0.0008761287706633,-0.00087612827684568,0.0008761230770321,-0.00087612934428196,0.00087612204708818,-0.00087612361903306,0.00087612773140724,-0.00050536233888866,0.00050537057319611,0.70019171561191,129794,2964,0.003404184801432,0.0050702389975467,0.0030630960146959,25.806561093805,-3.3547511249558e-05,-3.3547511249558e-05,-3.3547511249558e-05,3784151.6435172,0.011605776638771
30391759,0.72248368026096,0.012009161509349,0.0037201559690249,0.00477528688241,0.0035137186579143,-0.00082726740866119,0.00082726498251771,1.7487954284118e-09,-4.1605851632145e-09,1.717372324719e-10,-2.6875401818893e-09,-0.00036733794782207,0.00036732683826459,-0.00050166994437979,0.00050166660025278,-0.00050167191112428,0.00050166463526389,-0.00036732930157395,0.000367335448111,-0.0003673350822604,0.00036732970021797,-0.00050166713392362,0.00050166938385458,-0.00050166909730505,0.00050166742677243,-0.001048957532967,0.0010489580847819,-0.0010489595050624,0.0010489561103295,-0.0010489585486314,0.0010489571482818,-0.0010489605243294,0.0010489551750517,-0.00095669628874888,0.00095669870873969,-0.00095670208379576,0.00095669291619223,-0.00095669529263431,0.00095669967962967,-0.00095670107788356,0.00095669388373672,-0.00036733217783208,0.00036733262889042,-2.4714248701373e-09,5.1397878259144e-10,4.3894561697962e-10,-2.3426094719576e-09,-0.0012353094741011,0.0012353075705082,-0.0011588587015689,0.0011588530884119,-0.0013075983696261,0.0013075944880991,-0.0013075955857591,0.0013075974815458,-0.0011791373434662,0.0011791353727955,-0.0011791382508816,0.0011791344477455,-0.0011791363788165,0.0011791363969901,-0.0011791372880003,0.0011791354704855,-0.001158855009933,0.0011588568242802,-0.0011588577331431,0.0011588541024155,-0.0013075992838234,0.0013075935688719,-0.0013075964937834,0.0013075965533803,-0.0011588559833353,0.001158855807204,-3.2379132350762e-09,2.6582319451035e-09,-0.00074369642651743,0.0007436958440604,-1.6899974135332e-09,1.1111158165371e-09,-0.00050998236709333,0.00050997876929481,-0.00059447128546719,0.00059447540898769,-0.00059447323976432,0.00059447344575392,-0.00050997933658793,0.00050998178912917,-0.00050998514239822,0.00050997606323314,-0.00059447401884727,0.00059447264881531,-0.00059447600584871,0.00059447070728971,-0.00094949728765819,0.00094949379944385,-0.00094949633306959,0.00094949472480905,-0.00094949531722415,0.00094949576111899,-0.00094949438200914,0.00094949670276131,-0.00088596821295575,0.00088597432481615,-0.00088597399153196,0.00088596855924613,-0.00088597494038893,0.00088596765117295,-0.00088596914034265,0.00088597340701814,-0.0005099766214272,0.000509984534417,0.67548311461275,129794,2964,0.0034433406378365,0.0051333787618237,0.0030952644336246,26.074919723444,-3.1400642212447e-05,-3.1400642212447e-05,-3.1400642212447e-05,3798159.081448,0.011741855511138
30591759,0.73128201558457,0.012142878341246,0.0037611684027805,0.0048318473774895,0.003549862560976,-0.0008370972906654,0.00083709478535245,1.7470675756672e-09,-4.2374098254503e-09,2.7067033880989e-10,-2.8709454535283e-09,-0.00037083758297496,0.00037082604452517,-0.0005069437378468,0.00050694005467834,-0.00050694572904333,0.00050693806243161,-0.00037082858615544,0.00037083499728897,-0.00037083444129654,0.00037082917928189,-0.00050694063375313,0.0005069431062159,-0.0005069426220198,0.00050694112320428,-0.0010619518494018,0.0010619524454513,-0.0010619538459462,0.0010619504457067,-0.0010619529659451,0.0010619514175303,-0.0010619549665312,0.0010619494193275,-0.00096858079011662,0.00096858311333805,-0.00096858666133639,0.00096857724775469,-0.00096857970118563,0.00096858417617266,-0.00096858556324234,0.00096857830897533,-0.00037083173974059,0.00037083190680995,-2.7137826153333e-09,5.6912745039632e-10,2.3363950086333e-10,-2.3011429667189e-09,-0.0012510749866584,0.0012510729142348,-0.0011725198477008,0.0011725142227245,-0.0013241064891798,0.0013241020501982,-0.0013241034224821,0.0013241053377268,-0.001194843138751,0.0011948408282031,-0.0011948439676523,0.0011948399853228,-0.0011948420831847,0.0011948419499246,-0.0011948429142611,0.0011948411069432,-0.0011725163105526,0.0011725178126379,-0.0011725187904617,0.0011725153345848,-0.0013241073220467,0.0013241012138898,-0.0013241042515245,0.0013241044976837,-0.0011725173738787,0.0011725167019035,-3.2958911718753e-09,2.6747844695823e-09,-0.0007518590216492,0.00075185839796653,-1.5883665825702e-09,9.6708232621467e-10,-0.00051543570061213,0.00051543174393335,-0.00060048741929883,0.00060049128531952,-0.0006004893960923,0.00060048929651098,-0.00051543235965196,0.00051543508887416,-0.00051543824423791,0.00051542928868053,-0.00060048991138573,0.00060048876865273,-0.00060049192587926,0.00060048680614278,-0.00096091889854846,0.00096091542678344,-0.00096091802508682,0.00096091627095811,-0.00096091690265263,0.0009609174123045,-0.00096091604992264,0.00096091827433446,-0.00089624542918559,0.000896251489817,-0.0008962512830946,0.00089624565214331,-0.0008962521458151,0.00089624482238675,-0.00089624627603338,0.00089625065508174,-0.00051542988420947,0.00051543759440299,0.6987069459495,129794,2964,0.0034842253045871,0.005198688667979,0.0031292194682566,26.468430437287,-2.8252556501707e-05,-2.8252556501707e-05,-2.8252556501707e-05,3813392.5757084,0.011883703271472
30791759,0.74007051071132,0.012280973682995,0.0038033550066074,0.0048903363366327,0.0035872823397549,-0.00084714658669204,0.00084714400026101,1.7443795083152e-09,-4.3141861686033e-09,3.6163374238152e-10,-3.047623007915e-09,-0.00037461138857508,0.00037459942510525,-0.00051263272018215,0.00051262871243772,-0.0005126347364399,0.00051262669729831,-0.00037460205060156,0.00037460871904217,-0.00037460797598168,0.00037460282489409,-0.00051262935367418,0.00051263202796267,-0.00051263136617938,0.00051263002065043,-0.0010751128684591,0.0010751134961307,-0.0010751148894449,0.0010751114710156,-0.0010751140707377,0.0010751123796287,-0.001075116096102,0.0010751103565651,-0.00098093098480733,0.0009809332137599,-0.00098093692520236,0.00098092727407565,-0.00098092980743491,0.00098093436705509,-0.00098093573891737,0.00098092842467513,-0.00037460547265104,0.00037460536179985,-2.8504268198879e-09,7.0516386934732e-10,1.4620884705979e-10,-2.2153741856169e-09,-0.0012671709459111,0.0012671688717553,-0.0011864356265232,0.001186430079792,-0.0013409906093889,0.0013409858378095,-0.001340987276707,0.0013409894024461,-0.001210856238305,0.0012108537804955,-0.0012108570116913,0.0012108529960842,-0.0012108550963875,0.0012108549941022,-0.0012108558716664,0.0012108542087942,-0.0011864321612397,0.0011864335832611,-0.0011864344761286,0.0011864312774845,-0.0013409913858236,0.0013409850596567,-0.0013409880471578,0.001340988616176,-0.0011864333169345,0.0011864323829291,-3.34729489013e-09,2.698144647886e-09,-0.00076017460506354,0.00076017395233617,-1.5182978067326e-09,8.6500058078328e-10,-0.00052132014417474,0.00052131591585288,-0.00060699172499117,0.00060699541412982,-0.00060699372607823,0.00060699339906215,-0.00052131655850147,0.00052131949679518,-0.00052132251952206,0.00052131363461123,-0.00060699404791095,0.00060699306514635,-0.00060699608771351,0.0006069910778705,-0.00097248904906876,0.00097248558062231,-0.00097248823358042,0.00097248636863641,-0.00097248702829768,0.00097248759143548,-0.00097248623311985,0.0009724883969851,-0.00090681704318072,0.00090682309202016,-0.00090682297568975,0.00090681718768103,-0.00090682377719038,0.00090681641309302,-0.00090681783278222,0.00090682231785708,-0.00052131425765878,0.00052132183198467,0.72242073311141,129794,2964,0.0035260229793278,0.0052653599767054,0.0031638109911404,26.865160618813,-2.5078715049497e-05,-2.5078715049497e-05,-2.5078715049497e-05,3820904.2568406,0.012028516657121
30991759,0.74883804163298,0.012423458654241,0.0038467036931011,0.0049508046444724,0.0036259503166672,-0.00085740616409453,0.00085740350448466,1.7455411814445e-09,-4.3875099588472e-09,4.3313839133123e-10,-3.1967044522115e-09,-0.00037858782863491,0.00037857549879438,-0.00051868784414075,0.0005186835665774,-0.00051868988511389,0.00051868152692078,-0.00037857819977285,0.00037858508453801,-0.00037858419699776,0.00037857911703352,-0.00051868426035396,0.00051868709888096,-0.00051868629728314,0.00051868506669569,-0.0010884618823537,0.0010884625358666,-0.0010884639278845,0.0010884604855189,-0.0010884631571802,0.0010884613463986,-0.0010884652074954,0.001088459298573,-0.00099368416054198,0.00099368631872513,-0.00099369017369793,0.00099368030573033,-0.0009936829107591,0.00099368754516144,-0.00099368891532779,0.00099368152963135,-0.00037858184030476,0.00037858150804074,-2.971201433071e-09,8.07985473001e-10,7.9940098098112e-11,-2.1662058254578e-09,-0.0012836308740078,0.0012836287821994,-0.0012006543321615,0.0012006488075957,-0.0013582818881855,0.0013582768369467,-0.001358278339045,0.0013582806281891,-0.0012271842910672,0.0012271817049647,-0.001227185027926,0.0012271809593337,-0.0012271830782783,0.0012271829943115,-0.0012271838168974,0.0012271822476409,-0.001200650904791,0.0012006522708042,-0.001200653107876,0.0012006500796867,-0.0013582826270802,0.0013582760977354,-0.0013582790716569,0.0013582798806178,-0.0012006521343163,0.0012006509960372,-3.398240124527e-09,2.7220046084512e-09,-0.00076862079355387,0.00076862011340786,-1.4756247742597e-09,7.9334168361928e-10,-0.00052745494779196,0.00052745050541708,-0.00061390107072597,0.00061390464355829,-0.00061390309638448,0.00061390260340572,-0.00052745117653648,0.00052745427327749,-0.00052745721358285,0.00052744834072434,-0.00061390328095214,0.00061390240699081,-0.0006139053462562,0.00061390039567722,-0.0009842015984087,0.0009841981159175,-0.00098420082068438,0.0009841988663876,-0.00098419955240195,0.00098420015128238,-0.0009841987956597,0.000984200920063,-0.0009177168971947,0.00091772295345258,-0.00091772290738274,0.00091771698042927,-0.00091772366652005,0.00091771624108793,-0.00091771765064346,0.0009177222211988,-0.00052744898833387,0.00052745649505272,0.74698825157119,129794,2964,0.0035686965535461,0.0053335311338542,0.0031989458746342,27.26202137581,-2.1903828993518e-05,-2.1903828993518e-05,-2.1903828993518e-05,3822076.8435438,0.01217630531171
31191759,0.75764127621377,0.01257308105982,0.003891999015987,0.0050144728941774,0.0036666091496557,-0.0008682471792216,0.00086824448778911,1.767201181864e-09,-4.4405598608267e-09,4.507274119399e-10,-3.2479352172204e-09,-0.00038303296974925,0.00038302046475453,-0.00052539494032909,0.00052539058680856,-0.00052539700637051,0.00052538852149518,-0.00038302319972483,0.00038303019109528,-0.00038302926819345,0.00038302415211105,-0.00052539128799867,0.00052539418474588,-0.00052539334921356,0.00052539212811096,-0.0011024204253029,0.001102421095015,-0.0011024224955384,0.0011024190197573,-0.0011024217226979,0.0011024198834209,-0.0011024237983109,0.0011024178106806,-0.0010073099393193,0.0010073121178503,-0.0010073160262063,0.0010073060313285,-0.0010073086675179,0.0010073133665314,-0.0010073147455338,0.0010073072789888,-0.0003830269074337,0.00038302654867347,-3.0285839838382e-09,8.2890751141142e-10,6.3534542666275e-11,-2.1838822002582e-09,-0.0013010291458007,0.0013010270191545,-0.0012158405253897,0.0012158349403605,-0.0013765768189548,0.0013765716532075,-0.0013765731943671,0.0013765755234997,-0.0012442907278413,0.0012442880818745,-0.0012442914649582,0.0012442873359678,-0.0012442894899038,0.0012442893979293,-0.0012442902290809,0.0012442886506804,-0.0012158370711897,0.0012158384313036,-0.0012158392751894,0.0012158362371851,-0.0013765775575711,0.0013765709144604,-0.0013765739279481,0.0013765747759233,-0.0012158383275935,0.0012158371309516,-3.4358642347355e-09,2.7589201662651e-09,-0.00077752960071365,0.00077752891990624,-1.477791063229e-09,7.9522895192225e-10,-0.00053405516713179,0.00053405065735925,-0.00062148020678323,0.00062148380810042,-0.00062148225647087,0.00062148174341393,-0.00053405132719061,0.0005340544945843,-0.00053405744052101,0.00053404848941894,-0.00062148242098907,0.00062148156814639,-0.00062148451176328,0.00062147953185686,-0.0009964364322243,0.00099643292246935,-0.00099643565280114,0.00099643367488882,-0.00099643436117056,0.00099643498276673,-0.00099643360369284,0.00099643575394041,-0.00092936631158654,0.00092937244012293,-0.00092937239800949,0.0009293663983632,-0.00092937315496232,0.00092936565435703,-0.00092936706755198,0.0009293717102669,-0.00053404913619003,0.00053405671881107,0.78082574674858,129794,2964,0.0036137894671725,0.0054055828510946,0.0032360034626049,27.788253620718,-1.7693971034254e-05,-1.7693971034254e-05,-1.7693971034254e-05,3818862.391912,0.012332439846422
31391759,0.76648729876352,0.012717769593219,0.0039359185263766,0.005076086327861,0.0037057647389816,-0.00087884845338525,0.00087884573942911,1.7928067482198e-09,-4.4884062302706e-09,4.6288522646819e-10,-3.2834496366616e-09,-0.0003866109407089,0.00038659829739226,-0.00053135435924344,0.00053134995922978,-0.00053135644835284,0.00053134787030256,-0.00038660105221693,0.000386608141897,-0.00038660719390871,0.00038660202903433,-0.00053135065881161,0.00053135360367363,-0.00053135274506903,0.00053135152183732,-0.0011163706445553,0.0011163713323522,-0.0011163727395303,0.001116369232043,-0.0011163719577133,0.0011163701050925,-0.0011163740576955,0.0011163680081621,-0.0010205235206299,0.0010205257322406,-0.0010205296784393,0.0010205195746066,-0.0010205222321947,0.0010205269978704,-0.0010205283828899,0.0010205208371054,-0.00038660480972859,0.00038660444930869,-3.0682203660328e-09,8.2600242254041e-10,6.508856105605e-11,-2.2257173918881e-09,-0.0013184107330155,0.0013184085654811,-0.0012309515528259,0.0012309458719673,-0.0013949828683318,0.0013949776396217,-0.0013949792095088,0.0013949815450372,-0.0012613069986418,0.0012613043136177,-0.0012613077496024,0.0012613035534078,-0.0012613057485916,0.0012613056419867,-0.0012613065005892,0.0012613048802301,-0.0012309480446909,0.0012309494191742,-0.0012309502878452,0.0012309471801101,-0.0013949836224321,0.0013949768863793,-0.0013949799556468,0.0013949807830045,-0.0012309493136144,0.0012309481078866,-3.4678429591493e-09,2.8026141670022e-09,-0.00078613957361359,0.00078613890460656,-1.4898690691127e-09,8.2044201324809e-10,-0.0005395576760225,0.00053955314031367,-0.00062825796112815,0.00062826163852228,-0.00062826003681444,0.00062825954804208,-0.00053955380018997,0.00053955701490744,-0.00053955998661758,0.00053955094066834,-0.00062826021390636,0.00062825936131251,-0.00062826232922723,0.00062825730097518,-0.00100867720713,0.0010086736709119,-0.0010086764150432,0.0010086744355687,-0.001008675110782,0.0010086757558523,-0.0010086743406882,0.0010086765405929,-0.0009407409599586,0.00094074718676277,-0.00094074712422706,0.00094074107290392,-0.00094074788989737,0.00094074031557849,-0.00094074173002384,0.00094074644584866,-0.0005395515700188,0.00053955927865737,0.75165982023438,129794,2964,0.0036578922136024,0.0054775606558897,0.0032718221579962,28.355699833246,-1.3154401334034e-05,-1.3154401334034e-05,-1.3154401334034e-05,3813117.5681476,0.012486273286986
31591759,0.77536060435226,0.012856745272787,0.0039783004807299,0.0051351854622474,0.0037432593298101,-0.00088921142308681,0.00088920868355869,1.8176473753851e-09,-4.5388911133451e-09,4.8106885525022e-10,-3.3284078081762e-09,-0.00038999456152937,0.00038998175481793,-0.00053690598451592,0.00053690152100323,-0.00053690809905757,0.00053689940679186,-0.00038998453650685,0.00038999173423862,-0.00038999075206263,0.00038998554924228,-0.00053690222084956,0.00053690522557978,-0.00053690433276353,0.00053690312021593,-0.0011300887359518,0.0011300894443978,-0.0011300908560403,0.0011300873192825,-0.0011300900706525,0.0011300881971214,-0.0011300921959534,0.0011300860751419,-0.0010332030272222,0.0010332052677826,-0.0010332092599258,0.001033199036239,-0.0010332017184662,0.0010332065529002,-0.0010332079432401,0.0010332003191436,-0.00038998835547046,0.00038998798251286,-3.1296823667049e-09,8.3673614277417e-10,5.9514517497343e-11,-2.2681594798731e-09,-0.0013352710676465,0.0013352688517499,-0.001245386417569,0.0012453806277278,-0.0014127200366584,0.0014127147000264,-0.0014127163097411,0.0014127186764371,-0.0012780339125166,0.0012780311685463,-0.0012780346745885,0.0012780303956325,-0.0012780326399864,0.0012780325209706,-0.0012780334035686,0.0012780317466248,-0.0012453828480579,0.0012453842357136,-0.0012453851288969,0.0012453819599128,-0.0014127208012311,0.0014127139344216,-0.0014127170673744,0.0014127179020594,-0.0012453841415887,0.001245382901033,-3.4963880570353e-09,2.8481249637962e-09,-0.00079456974696466,0.00079456909513396,-1.5002530273201e-09,8.4894860165976e-10,-0.00054473662450273,0.00054473207414771,-0.0006346311629659,0.00063463492057214,-0.00063463326254303,0.00063463280573662,-0.00054473271612987,0.00054473598280528,-0.00054473897538266,0.00054472983461063,-0.00063463345408883,0.00063463260548495,-0.00063463559338823,0.00063463051952539,-0.0010207572979935,0.0010207537405515,-0.0010207564924735,0.0010207545183545,-0.0010207551769854,0.0010207558504137,-0.0010207543943304,0.0010207566487584,-0.00095165286468406,0.00095165919370164,-0.00095165910124729,0.00095165300746337,-0.00095165988009885,0.00095165223646583,-0.00095165364827012,0.0009516584408057,-0.0005447304472591,0.00054473828349567,0.71981430599488,129794,2964,0.0037010010502816,0.0055473734911164,0.0033068924109438,28.924255362032,-8.6059571037444e-06,-8.6059571037444e-06,-8.6059571037444e-06,3816697.7852221,0.012636174328209
31791759,0.78412477078004,0.012986706686802,0.0040181573102488,0.0051903419049728,0.0037782074715804,-0.00089869804735984,0.00089869523047381,1.8174585256543e-09,-4.6134322383413e-09,5.7189650732191e-10,-3.5004948440059e-09,-0.00039262252393968,0.00039260929658819,-0.0005415026123028,0.00054149783428001,-0.0005415047539344,0.00054149570008785,-0.00039261215192011,0.00039261961964469,-0.00039261844455601,0.00039261334654321,-0.00054149859330802,0.00054150179854394,-0.00054150073243134,0.00054149966848478,-0.0011428615240128,0.0011428622675852,-0.0011428636684331,0.0011428601154477,-0.0011428629466306,0.0011428609320334,-0.0011428650962489,0.0011428587843382,-0.0010446101792516,0.0010446123266011,-0.0010446164723593,0.0010446060155229,-0.0010446087783897,0.0010446137074938,-0.0010446150615316,0.0010446073861668,-0.00039261624272921,0.0003926156026434,-3.2791705575904e-09,9.392966572146e-10,6.1757882787603e-12,-2.2634082122361e-09,-0.0013507790790881,0.0013507768181855,-0.0012583228851314,0.0012583170158197,-0.0014289774306695,0.0014289717905896,-0.0014289734632692,0.0014289760132436,-0.0012936691517884,0.0012936662617647,-0.0012936698946895,0.0012936655096291,-0.0012936677969547,0.0012936676982637,-0.0012936685387437,0.0012936669401929,-0.0012583192535574,0.0012583206214835,-0.0012583215020751,0.0012583184236393,-0.0014289781744613,0.0014289710399331,-0.0014289741963939,0.001428975247751,-0.0012583206431268,0.001258319209182,-3.5338244490778e-09,2.8845244536697e-09,-0.00080227970714627,0.00080227905108768,-1.4746625426157e-09,8.1137640901777e-10,-0.00054920541781411,0.00054920073086474,-0.00064009342139909,0.00064009711725684,-0.00064009554423798,0.00064009497924642,-0.00054920136590856,0.00054920474135168,-0.00054920768703833,0.00054919854943733,-0.00064009564967154,0.00064009485890141,-0.0006400978079137,0.00064009274851646,-0.0010320167025294,0.001032013135727,-0.0010320159157384,0.0010320138916859,-0.0010320145545428,0.0010320152684267,-0.0010320137922972,0.0010320160476918,-0.00096145483829273,0.00096146122473543,-0.00096146114984877,0.0009614549683183,-0.00096146191439661,0.00096145422716673,-0.00096145559385867,0.00096146048558661,-0.0005491991748103,0.0005492069866894,0.68196835027692,129794,2964,0.0037404627617554,0.0056115806260907,0.0033389687073001,29.261937866461,-5.9044970683154e-06,-5.9044970683154e-06,-5.9044970683154e-06,3826098.2235945,0.01277369380679
31991759,0.79260920004084,0.01312513620197,0.0040602485872207,0.0052491716056564,0.0038157160090934,-0.00090804629483635,0.00090804335882086,1.7946764112793e-09,-4.7100900106892e-09,6.9585045604034e-10,-3.7507494901483e-09,-0.00039623474692958,0.00039622096329274,-0.00054691063400942,0.00054690538592083,-0.00054691279828396,0.00054690322443263,-0.00039622394367839,0.00039623171949508,-0.00039623030313228,0.00039622538638143,-0.00054690624304752,0.00054690971632547,-0.00054690840439273,0.00054690756211177,-0.0011550310174153,0.0011550317947831,-0.001155033186662,0.0011550296194175,-0.0011550325662376,0.0011550303357677,-0.0011550347408528,0.0011550281638701,-0.0010561998477561,0.0010562018269792,-0.0010562062229998,0.0010561954473165,-0.0010561983241126,0.0010562033262839,-0.0010562046911743,0.0010561969440275,-0.00039622839630404,0.0003962273362491,-3.4950984666704e-09,1.1191683816778e-09,-8.1034126694671e-11,-2.2056636836686e-09,-0.0013658754769723,0.0013658731827595,-0.0012709866556225,0.0012709807713313,-0.0014446220473425,0.0014446159296518,-0.0014446176999254,0.0014446205513364,-0.0013089210016743,0.0013089179025729,-0.001308921698479,0.001308917198155,-0.0013089195233489,0.0013089194724368,-0.0013089202205593,0.0013089187641711,-0.0012709830626469,0.0012709843871449,-0.0012709851543361,0.0012709823195878,-0.0014446227454343,0.0014446152313525,-0.0014446183902719,0.0014446198425538,-0.0012709845696021,0.0012709828383073,-3.5896415805755e-09,2.9049056127452e-09,-0.00080991233899349,0.00080991164935184,-1.4198018464997e-09,7.2694396514211e-10,-0.00055482554339061,0.00055482061006422,-0.00064638591759033,0.00064638948069747,-0.00064638806595314,0.00064638731627107,-0.00055482128606202,0.00055482485853201,-0.00055482769714729,0.00055481857567876,-0.0006463880083208,0.00064638736336976,-0.0006463901977591,0.00064638522925116,-0.0010426899023422,0.001042686323415,-0.0010426891610997,0.0010426870333367,-0.0010426877287521,0.0010426884807309,-0.0010426870144889,0.0010426892154078,-0.00097125132818458,0.00097125770397699,-0.00097125770920518,0.00097125136788915,-0.00097125842849907,0.00097125066875159,-0.00097125203984165,0.00097125700929153,-0.00055481922142557,0.00055482696110144,0.74979062640003,129794,2964,0.0037793409844255,0.0056740757572575,0.0033707189591235,29.279610123699,-5.7631190104102e-06,-5.7631190104102e-06,-5.7631190104102e-06,3831485.3616663,0.012908565409421
32191759,0.80081433066413,0.013261590057896,0.0041016153382587,0.0053072747684716,0.0038526999511653,-0.0009170783868182,0.00091707536918343,1.792102618201e-09,-4.7877967110381e-09,7.7432208738881e-10,-3.9165042778504e-09,-0.00039904551913219,0.00039903133469634,-0.00055190202808951,0.00055189647835801,-0.00055190421742977,0.00055189429143136,-0.00039903439937961,0.0003990424068079,-0.00039904083189442,0.00039903599900388,-0.00055189739622339,0.00055190104697382,-0.00055189958209029,0.00055189886718894,-0.0011669846226299,0.0011669854273063,-0.0011669868166244,0.0011669832266356,-0.0011669862541098,0.001166983887181,-0.0011669884537894,0.0011669816902996,-0.0010676316750635,0.0010676335698371,-0.0010676381253069,0.0010676271183277,-0.001067630073231,0.001067635149232,-0.0010676365131987,0.0010676286923728,-0.00039903909444112,0.00039903778122788,-3.6457316733411e-09,1.2191727884961e-09,-1.415954904579e-10,-2.1916782970514e-09,-0.0013809796528119,0.0013809773112125,-0.0012837651211694,0.0012837591819865,-0.001460562986641,0.0014605565510939,-0.0014605584019579,0.001460561422531,-0.0013238662039552,0.0013238629529736,-0.0013238668776408,0.001323862273193,-0.0013238646476485,0.0013238646071217,-0.0013238653219956,0.0013238639243057,-0.0012837615189241,0.001283762805966,-0.0012837635379228,0.001283760812026,-0.0014605636606766,0.0014605558777683,-0.0014605590684504,0.001460560739019,-0.0012837631078922,0.0012837611747645,-3.6369866524403e-09,2.9316446543858e-09,-0.00081716418960218,0.00081716347928211,-1.3942560395132e-09,6.794924124337e-10,-0.00055970349701806,0.00055969839755351,-0.00065226065716065,0.00065226415142617,-0.00065226282926945,0.00065226196185402,-0.00055969909429525,0.0005597027897913,-0.00055970558179127,0.00055969643904342,-0.00065226267514162,0.00065226210517888,-0.00065226489086391,0.00065225994844541,-0.0010531243638655,0.0010531207642812,-0.0010531236460642,0.0010531214496737,-0.0010531221647302,0.0010531229454899,-0.0010531214755803,0.0010531236574814,-0.00098093422665578,0.00098094063058833,-0.00098094068202185,0.00098093422328561,-0.00098094137710847,0.00098093354807278,-0.000980934913594,0.00098093995955695,-0.00055969710374601,0.00055970482128575,0.76436055090507,129794,2964,0.0038169141069204,0.0057365988069538,0.0034008912147037,29.288951708784,-5.688386329725e-06,-5.688386329725e-06,-5.688386329725e-06,3821359.0666361,0.013040566870321
32391759,0.80874518548694,0.013396461670898,0.004142425408463,0.0053647552276887,0.0038892810347465,-0.00092593608340883,0.00092593299741544,1.7957020962395e-09,-4.8587908761857e-09,8.3836518707784e-10,-4.0533175985767e-09,-0.00040185221021735,0.00040183768351093,-0.00055686553922495,0.00055685974450552,-0.00055686775322859,0.00055685753283852,-0.00040184081837422,0.00040184902759385,-0.0004018473232058,0.0004018425456417,-0.00055686070888792,0.00055686450898054,-0.00055686291928901,0.00055686230400729,-0.0011787096676252,0.0011787104978021,-0.0011787118864003,0.0011787082720392,-0.0011787113670142,0.0011787088910438,-0.0011787135915683,0.0011787066693279,-0.0010789538891292,0.0010789557244955,-0.0010789604127692,0.0010789492005039,-0.001078952221624,0.0010789573705263,-0.0010789587343224,0.0010789508398136,-0.00040184571285833,0.00040184420278392,-3.7722252944007e-09,1.2968410326007e-09,-1.8783571388758e-10,-2.1907592721215e-09,-0.0013958876942336,0.0013958853067414,-0.0012964046067827,0.0012963986022964,-0.0014763046536507,0.0014762979560633,-0.0014762998753327,0.0014763030302106,-0.0013385501745375,0.0013385467963029,-0.0013385508335767,0.0013385461324299,-0.0013385485538398,0.0013385485193602,-0.0013385492135042,0.0013385478526846,-0.0012964009833007,0.0012964022456022,-0.0012964029562482,0.0012964002985306,-0.0014763053126595,0.0014762972986441,-0.0014763005265825,0.0014763023627372,-0.0012964026393719,0.0012964005479583,-3.6821335853318e-09,2.9610702076024e-09,-0.0008242176940015,0.00082421696774856,-1.3791936095838e-09,6.4752586705498e-10,-0.00056432888619627,0.00056432365084897,-0.00065804298421214,0.00065804644016812,-0.00065804518035911,0.00065804422510253,-0.00056432436357887,0.0005643281621548,-0.00056433092741149,0.00056432174279743,-0.00065804495524741,0.00065804443951156,-0.00065804719677047,0.00065804225946858,-0.0010633275718072,0.0010633239473236,-0.0010633268691946,0.0010633246170027,-0.0010633253473598,0.0010633261529047,-0.0010633246744119,0.0010633268504494,-0.00099047888860515,0.00099048533450179,-0.00099048541870685,0.00099047885549876,-0.00099048609749204,0.00099047819542111,-0.00099047955962408,0.00099048467871665,-0.00056432242112854,0.00056433014887866,0.78118420731862,129794,2964,0.0038537643610443,0.0057983039265179,0.0034302394408261,29.297953861222,-5.6163691102271e-06,-5.6163691102271e-06,-5.6163691102271e-06,3807629.7894031,0.013170189168448
32591759,0.81639100164521,0.013518861817478,0.0041796836045696,0.0054168271496412,0.003922351063267,-0.0009339641277906,0.00093396099393625,1.8095533579165e-09,-4.9199002903939e-09,8.7691528597231e-10,-4.142546767628e-09,-0.00040353699194308,0.00040352221519152,-0.00056069715194547,0.00056069120695105,-0.00056069939092715,0.00056068897002637,-0.00040352540011382,0.00040353375907162,-0.0004035319772061,0.00040352720467009,-0.00056069219617015,0.00056069609520299,-0.00056069443114976,0.00056069386553518,-0.0011896742263682,0.0011896750775815,-0.0011896764700274,0.0011896728267877,-0.0011896759689926,0.001189673428621,-0.001189678218718,0.001189671181862,-0.0010890993255326,0.0010891011452256,-0.0010891059231791,0.0010890945477867,-0.0010890976152345,0.0010891028338352,-0.0010891042012953,0.0010890962299226,-0.00040353042055788,0.0004035288079725,-3.8591455215181e-09,1.3445373488731e-09,-2.104670054326e-10,-2.2051771298993e-09,-0.0014097402422823,0.0014097378172644,-0.0013079755947477,0.0013079695172911,-0.0014910282643051,0.0014910213939544,-0.0014910233580101,0.0014910266010793,-0.0013522255399714,0.0013522220778753,-0.0013522261963455,0.0013522214169126,-0.0013522238768349,0.0013522238465996,-0.0013522245340372,0.0013522231827689,-0.0013079719351114,0.0013079731969837,-0.0013079738996054,0.0013079712571016,-0.0014910289203762,0.0014910207398508,-0.0014910240068097,0.0014910259364353,-0.0013079736362371,0.0013079714552097,-3.7200237106527e-09,2.9973147472096e-09,-0.00083051783598247,0.00083051710809638,-1.376656938718e-09,6.433988234495e-10,-0.00056762487124114,0.00056761955616694,-0.00066260564897296,0.00066260912135682,-0.00066260786901467,0.00066260688151237,-0.00056762027021577,0.0005676241466677,-0.00056762690996284,0.00056761765712991,-0.00066260761296662,0.00066260712717023,-0.00066260988024145,0.00066260492323308,-0.0010728904871764,0.0010728868383395,-0.0010728897860075,0.0010728875056521,-0.0010728882375471,0.0010728890683502,-0.0010728875674154,0.0010728897646626,-0.00099904010027825,0.00099904661471264,-0.00099904670325137,0.00099904006370917,-0.00099904738047118,0.00099903940594092,-0.00099904076850867,0.00099904596105878,-0.00056761833591455,0.00056762612728113,0.73524667530429,129794,2964,0.0038871699542007,0.0058556357628374,0.0034564591491441,29.270835432168,-5.8333165426575e-06,-5.8333165426575e-06,-5.8333165426575e-06,3793464.7347423,0.013288740244749
32791759,0.82374574237592,0.01362819842245,0.0042132388003532,0.0054631769453012,0.0039517826767959,-0.00094127796135731,0.00094127478381423,1.8249481608805e-09,-4.9786144630986e-09,9.074899315114e-10,-4.2190119326697e-09,-0.0004049572482675,0.00040494224921452,-0.00056387362661492,0.00056386755584759,-0.00056387588978753,0.00056386529455764,-0.00040494547774196,0.00040495397127604,-0.00040495212813793,0.00040494734334634,-0.00056386856490589,0.00056387254747643,-0.00056387082505291,0.0005638702931451,-0.0011997635673514,0.0011997644368381,-0.0011997658358079,0.0011997621611157,-0.0011997653476013,0.0011997627525171,-0.0011997676219938,0.0011997604811715,-0.0010980027280233,0.0010980045414861,-0.001098009398582,0.0010979978723783,-0.0010980009814659,0.0010980062659336,-0.0010980076405789,0.0010979995890381,-0.00040495060530986,0.00040494891339134,-3.9404548924549e-09,1.3695411750381e-09,-2.3238607026139e-10,-2.2358939111578e-09,-0.001422140991515,0.0014221385132074,-0.0013180639794985,0.001318057806316,-0.0015040263956831,0.0015040193714396,-0.0015040213899373,0.0015040246817121,-0.0013647857011329,0.0013647821547547,-0.0013647863601461,0.0013647814905785,-0.0013647840049862,0.0013647839591188,-0.0013647846645972,0.0013647832923494,-0.0013180602789142,0.0013180615310574,-0.001318062249831,0.0013180595811115,-0.0015040270548117,0.0015040187142089,-0.0015040220410116,0.0015040240144255,-0.0013180620136517,0.0013180597547054,-3.7533552767933e-09,3.038973066253e-09,-0.00083631323066957,0.00083631251129104,-1.3752371875555e-09,6.5134823162627e-10,-0.0005704159113263,0.00057041053823604,-0.00066646697850778,0.00066647049212313,-0.00066646922330174,0.0006664682266627,-0.00057041124446757,0.00057041519570319,-0.00057041795927659,0.00057040863677062,-0.00066646894909147,0.00066646849089664,-0.0006664712420153,0.00066646626345096,-0.0010817486552052,0.0010817449873874,-0.0010817479509638,0.0010817456562164,-0.0010817463801075,0.0010817472417128,-0.0010817457082304,0.0010817479413712,-0.0010065752956283,0.0010065818940523,-0.0010065819726428,0.0010065752694687,-0.0010065826520593,0.0010065746103977,-0.0010065759662249,0.0010065812381351,-0.0005704093037967,0.00057041718516628,0.68273835778327,129794,2964,0.0039175985456576,0.0059069552447268,0.0034805773075617,29.212650514289,-6.2987958856892e-06,-6.2987958856892e-06,-6.2987958856892e-06,3792769.7865848,0.013396063140493
32991759,0.83081790074638,0.013738177875688,0.0042468613300248,0.0055097897459253,0.0039815267997379,-0.00094864198969664,0.00094863876479781,1.8386821537282e-09,-5.039363426083e-09,9.4196296169282e-10,-4.3032278646367e-09,-0.00040738892373824,0.00040737368610103,-0.00056779581609759,0.00056778960468199,-0.00056779810399309,0.00056778731844649,-0.00040737696236451,0.00040738559693913,-0.00040738368539337,0.00040737889643304,-0.00056779063575149,0.00056779470959136,-0.00056779292073148,0.0005677924307234,-0.0012095436757876,0.0012095445653073,-0.0012095459691759,0.0012095422648718,-0.0012095455004612,0.001209542842097,-0.0012095477996772,0.0012095405458119,-0.0011069696139914,0.00110697141413,-0.0011069763580274,0.0011069646723602,-0.0011069678271469,0.0011069731780762,-0.0011069745593578,0.0011069664284266,-0.00040738220768147,0.00040738042321473,-4.0498983508559e-09,1.3870475401038e-09,-2.6885330366097e-10,-2.2838282101802e-09,-0.0014341451356913,0.0014341425718818,-0.0013279226994261,0.001327916390665,-0.0015162973365242,0.0015162901066097,-0.0015162922129742,0.0015162955388606,-0.0013770910681201,0.0013770874000075,-0.0013770917301572,0.0013770867318247,-0.0013770893325408,0.0013770892465223,-0.0013770899952813,0.0013770885757737,-0.0013279189486744,0.0013279201685259,-0.0013279209299777,0.0013279182058891,-0.0015162979991083,0.0015162894457815,-0.0015162928676582,0.0015162948679009,-0.0013279207231533,0.0013279183516913,-3.7857829109859e-09,3.0811711744239e-09,-0.0008423055917429,0.00084230488231321,-1.375511698208e-09,6.6242454425712e-10,-0.0005742973560636,0.00057429193250552,-0.00067102583403997,0.00067102939444919,-0.00067102810273658,0.00067102710360792,-0.00057429262857517,0.00057429665192385,-0.00057429941976665,0.00057429002323594,-0.00067102781577123,0.00067102738178375,-0.00067103013457225,0.0006710251305698,-0.0010903702137284,0.0010903665266346,-0.0010903695046712,0.0010903671987103,-0.0010903679131575,0.0010903688053106,-0.0010903672380689,0.0010903695097969,-0.001014164378373,0.0010141710628663,-0.001014171129018,0.0010141643657696,-0.0010141718118372,0.0010141637031157,-0.0010141650526905,0.0010141704041099,-0.00057429067846944,0.00057429865440065,0.71399333645205,129794,2964,0.00394822385772,0.0059566302252631,0.0035055068888604,29.153651566021,-6.7707874718349e-06,-6.7707874718349e-06,-6.7707874718349e-06,3801299.9152824,0.013502743195943
33191759,0.83761632552082,0.013850499568951,0.0042809809689927,0.0055574934430841,0.0040120251568741,-0.00095599107019008,0.00095598778126026,1.8442753035966e-09,-5.1082620158078e-09,9.8156342877867e-10,-4.4107336189832e-09,-0.00040986950165874,0.00040985397899622,-0.00057198458960949,0.00057197819113575,-0.00057198690205851,0.00057197587996032,-0.00040985731967797,0.00040986610813034,-0.00040986411592231,0.00040985933514969,-0.00057197926301475,0.00057198343786268,-0.00057198157303143,0.00057198113454678,-0.0012192294180927,0.0012192303202181,-0.0012192317364907,0.0012192279950507,-0.0012192312949879,0.0012192285486706,-0.0012192336190682,0.0012192262275058,-0.0011161867683956,0.0011161885299335,-0.0011161935859182,0.0011161817156015,-0.0011161849323138,0.0011161903428111,-0.0011161917379706,0.0011161835205052,-0.00040986271287659,0.00040986078889886,-4.1655560504161e-09,1.4265266909712e-09,-3.0529515275147e-10,-2.3166074976282e-09,-0.0014463229020199,0.0014463202679614,-0.0013381082157735,0.0013381017923562,-0.0015288723100293,0.001528864856389,-0.0015288670425492,0.0015288704409533,-0.0013893281059056,0.00138932431701,-0.0013893287654959,0.0013893236498146,-0.0013893263224059,0.0013893262150675,-0.0013893269827035,0.0013893255453201,-0.0013381044223326,0.001338105619419,-0.0013381063979875,0.0013381036577593,-0.0015288729708005,0.0015288641968429,-0.0015288676953779,0.0015288697712866,-0.0013381062448523,0.0013381037523286,-3.8138819022758e-09,3.1276770352017e-09,-0.0008482640635794,0.00084826337286606,-1.3630250654454e-09,6.701950620349e-10,-0.00057840496517726,0.00057839948492082,-0.00067586472793359,0.00067586832918796,-0.00067586702062425,0.00067586601288434,-0.00057840016174338,0.00057840428172331,-0.00057840703064825,0.00057839758493404,-0.00067586670503549,0.00067586632041095,-0.00067586905034635,0.00067586404616767,-0.0010988773957915,0.0010988737032654,-0.0010988766873503,0.0010988743733483,-0.0010988750696364,0.0010988760061186,-0.0010988743967204,0.0010988767102119,-0.001021965597955,0.0010219723716848,-0.0010219724230009,0.0010219656028371,-0.0010219731033663,0.0010219649413178,-0.0010219662707455,0.0010219717152173,-0.00057839821723022,0.00057840628202341,0.75848139732877,129794,2964,0.0039787897130928,0.0060070213475187,0.0035302964274776,29.09461941062,-7.243044715037e-06,-7.243044715037e-06,-7.243044715037e-06,3799252.5394846,0.013609957139836
33391759,0.84423985006229,0.01396180666106,0.0043147197404927,0.0056048298277417,0.0040422570928261,-0.00096358778224058,0.00096358446207928,1.8650255457792e-09,-5.1598403276551e-09,1.0002890236952e-09,-4.4618193807601e-09,-0.00041228203650633,0.0004122663488488,-0.0005763204805117,0.00057631400404581,-0.0005763228139349,0.00057631166903343,-0.00041226971304202,0.00041227861922241,-0.00041227658666531,0.00041227176648563,-0.00057631508065922,0.00057631931843037,-0.00057631741628359,0.0005763169868221,-0.0012292566836856,0.0012292576043432,-0.0012292590272328,0.001229255254754,-0.0012292585877794,0.0012292558095224,-0.0012292609352593,0.0012292534652278,-0.0011257945321924,0.0011257963083559,-0.0011258014197216,0.0011257894277188,-0.0011257926715449,0.0011257981470473,-0.001125799551768,0.0011257912537414,-0.00041227518100887,0.0004122732226002,-4.2217779256411e-09,1.4004173753833e-09,-3.0808542054747e-10,-2.3877284694552e-09,-0.0014590009112439,0.001458998200996,-0.001348762145034,0.0013487555735199,-0.0015421719502661,0.0015421644131741,-0.0015421666593021,0.0015421700232104,-0.0014018807455395,0.00140187689419,-0.0014018814274759,0.001401876203665,-0.0014018789535478,0.0014018788012174,-0.0014018796341901,0.001401878108859,-0.0013487582894417,0.0013487594856576,-0.0013487603150214,0.0013487574444733,-0.0015421726385415,0.0015421637318726,-0.0015421673326031,0.0015421693328576,-0.0013487601132669,0.0013487576105374,-3.8449402957169e-09,3.1730776685671e-09,-0.00085439535769764,0.00085439468219737,-1.3795183243772e-09,7.0621421946849e-10,-0.00058239054304533,0.00058238505609807,-0.00068091162411934,0.00068091532747364,-0.00068091394384723,0.0006809129830497,-0.00058238572278959,0.00058238987795703,-0.00058239266219603,0.0005823831180239,-0.00068091365664032,0.00068091326687505,-0.00068091602702931,0.00068091097120519,-0.0011076946467181,0.0011076909251263,-0.0011076939207837,0.001107691612128,-0.001107692295045,0.0011076932524331,-0.001107691604088,0.0011076939760004,-0.0010301367575157,0.0010301436381929,-0.0010301436617046,0.0010301367945212,-0.0010301443545956,0.001030136115271,-0.0010301374503024,0.0010301429627647,-0.00058238371861938,0.00058239193651997,0.77139461498198,129794,2964,0.0040103900068615,0.0060594796466618,0.003555806790736,29.271020789034,-5.8318336877254e-06,-5.8318336877254e-06,-5.8318336877254e-06,3790533.4687081,0.013721061213191
33591759,0.85073407295474,0.014072970101235,0.00434836336892,0.0056521453179114,0.0040724614144035,-0.00097134102566093,0.00097133768052239,1.8901824173129e-09,-5.2098045742229e-09,1.0125391568297e-09,-4.5003641743901e-09,-0.00041483748365269,0.00041482164611852,-0.00058083045467773,0.00058082392723172,-0.00058083281367491,0.00058082156681412,-0.00041482503760005,0.00041483403607523,-0.00041483198085797,0.00041482711540503,-0.00058082500318255,0.0005808292881035,-0.00058082736306724,0.00058082693379701,-0.0012394508574177,0.0012394517963344,-0.0012394532259665,0.0012394494222548,-0.001239452780858,0.0012394499861446,-0.0012394551537213,0.0012394476162684,-0.0011356453499729,0.0011356471612193,-0.001135652312111,0.0011356402054625,-0.0011356434756155,0.0011356490140081,-0.0011356504281514,0.0011356420479524,-0.00041483055365161,0.00041482859537307,-4.2973813239504e-09,1.4040568451062e-09,-3.0818120051484e-10,-2.4537729250483e-09,-0.0014719316630622,0.0014719288858848,-0.0013597006343238,0.001359693908212,-0.0015557493406424,0.0015557416783395,-0.0015557439744209,0.0015557473649496,-0.0014146192661855,0.0014146153441361,-0.0014146199681882,0.0014146146318761,-0.0014146174484529,0.0014146172777529,-0.0014146181503013,0.0014146165631415,-0.0013596966870283,0.001359697908146,-0.0013596987823717,0.0013596958042379,-0.0015557500477884,0.0015557409749661,-0.0015557446700976,0.0015557466520292,-0.0013596985370211,0.0013596960091682,-3.8729708981329e-09,3.2190887859002e-09,-0.000860639229629,0.00086063857222726,-1.4065098794434e-09,7.5169279069829e-10,-0.00058636623137034,0.00058636076210897,-0.00068610001901667,0.0006861038347066,-0.00068610236237965,0.00068610146641522,-0.00058636140934854,0.00058636558693369,-0.0005863684286486,0.00058635875276064,-0.00068610212193405,0.0006861017038829,-0.00068610451857924,0.00068609938260356,-0.0011166589620511,0.0011166552084661,-0.0011166582111867,0.0011166559204377,-0.0011166565852298,0.0011166575606462,-0.0011166558707185,0.0011166583091072,-0.001038506707581,0.0010385137020534,-0.0010385136855201,0.0010385067890464,-0.0010385144004869,0.0010385060820541,-0.0010385074244557,0.0010385130051735,-0.00058635933743015,0.00058636771441951,0.7853831075734,129794,2964,0.0040426425759694,0.0061129799805072,0.0035817851131021,29.571337185411,-3.4293025167111e-06,-3.4293025167111e-06,-3.4293025167111e-06,3780991.9971484,0.013834370385908
33791759,0.85709541519333,0.014181666675748,0.0043812768095833,0.005698415561875,0.0041019743042893,-0.00097891229280599,0.00097890890069625,1.9045011748846e-09,-5.2707350598972e-09,1.0555746148024e-09,-4.593486854512e-09,-0.00041714687494171,0.00041713077672899,-0.00058508710920193,0.00058508042412811,-0.00058508949429859,0.0005850780387798,-0.00041713421692175,0.00041714337531287,-0.00041714123372835,0.00041713638301933,-0.00058508152456154,0.00058508591725362,-0.00058508390954964,0.00058508353943317,-0.001249478873563,0.0012494798372031,-0.001249481266823,0.0012494774380115,-0.0012494808427162,0.0012494779822284,-0.0012494832408842,0.0012494755870873,-0.0011452841455424,0.0011452859400805,-0.001145291181561,0.0011452789090527,-0.0011452822260446,0.0011452878372425,-0.0011452892515092,0.0011452807972883,-0.00041713986925596,0.00041713780176527,-4.3927710465069e-09,1.4590017693688e-09,-3.1192146976689e-10,-2.4888255417664e-09,-0.0014847015307102,0.0014846987149318,-0.0013705516120754,0.0013705447664981,-0.0015692018518533,0.0015691940126201,-0.0015691963422424,0.0015691998492778,-0.0014271444905492,0.0014271404927645,-0.0014271452022372,0.0014271397697059,-0.0014271426260539,0.0014271424762683,-0.0014271433380149,0.0014271417508763,-0.0013705475792366,0.0013705488424936,-0.0013705497122159,0.0013705467130608,-0.0015692025674323,0.0015691932983493,-0.0015691970480321,0.0015691991253664,-0.0013705494802786,0.0013705468941728,-3.9068043893297e-09,3.2592872415709e-09,-0.00086668750378022,0.00086668685258165,-1.421308836033e-09,7.7171167568656e-10,-0.00058993543532239,0.00058992993524976,-0.00069098875317789,0.0006909926301937,-0.00069099111951955,0.00069099023772607,-0.00058993057690139,0.00058993479811272,-0.00058993767192164,0.00058992789266785,-0.0006909908888462,0.0006909904646456,-0.00069099331024673,0.00069098811887621,-0.0011254663447267,0.0011254625607669,-0.0011254655812323,0.0011254632842336,-0.0011254639423938,0.0011254649371366,-0.0011254632171096,0.0011254656982206,-0.0010466878455471,0.0010466949306926,-0.0010466948964973,0.0010466879464358,-0.0010466956231735,0.0010466872266206,-0.001046688574372,0.0010466942238215,-0.00058992847311625,0.00058993695908703,0.78367691346052,129794,2964,0.0040741410346333,0.0061658113270752,0.0036069514436177,29.874935387528,-1.0005168997771e-06,-1.0005168997771e-06,-1.0005168997771e-06,3769689.8341674,0.013945427285726
33991759,0.86331936016917,0.014284406630186,0.0044125045480737,0.0057420892767194,0.0041298128053932,-0.0009861459538678,0.00098614250497928,1.9137719871677e-09,-5.3360411902809e-09,1.1127742722598e-09,-4.7110926552062e-09,-0.00041914182920713,0.00041912542611829,-0.00058891464155096,0.00058890774967716,-0.00058891705138993,0.00058890533953793,-0.00041912892421255,0.00041913827142181,-0.00041913601349408,0.00041913120557502,-0.00058890888494319,0.00058891341353915,-0.00058891129458037,0.00058891101083144,-0.0012591641279874,0.0012591651197345,-0.0012591665460546,0.0012591626955102,-0.0012591661563415,0.0012591632067739,-0.0012591685793933,0.0012591607867553,-0.0011543780737359,0.0011543798271803,-0.0011543851826828,0.0011543727229299,-0.0011543760952607,0.001154381782835,-0.001154383194166,0.0011543746700378,-0.00041913475074101,0.00041913252396099,-4.5030536305085e-09,1.5286320144791e-09,-3.2603091657121e-10,-2.512954616557e-09,-0.0014969497095595,0.0014969468550382,-0.001380939665971,0.001380932713571,-0.0015820869082597,0.0015820788564753,-0.001582081227415,0.001582084872285,-0.0014392062142247,0.0014392021233748,-0.0014392069293848,0.0014392013966359,-0.001439204293335,0.0014392041669816,-0.0014392050087247,0.0014392034380922,-0.0013809355656624,0.0013809368595969,-0.0013809377082979,0.0013809347207436,-0.0015820876272155,0.0015820781389118,-0.0015820819365994,0.0015820841453213,-0.001380937524519,0.0013809348507379,-3.9430497600107e-09,3.2975534525938e-09,-0.00087244813727722,0.00087244748802487,-1.4255683584158e-09,7.7798341802342e-10,-0.00059300300358655,0.00059299744330068,-0.00069537822073846,0.00069538213467279,-0.00069538061168978,0.0006953797173994,-0.00059299808295197,0.00059300236892901,-0.00059300525397046,0.00059299539402583,-0.00069538036623218,0.0006953799584523,-0.00069538281375953,0.00069537758943725,-0.0011339843385023,0.0011339805278272,-0.0011339835705536,0.0011339812544678,-0.0011339819104898,0.0011339829282226,-0.0011339811822619,0.0011339836941073,-0.0010544233746658,0.0010544305381279,-0.0010544305000284,0.001054423482349,-0.0010544312296222,0.0010544227584723,-0.0010544241075057,0.0010544298285749,-0.00059299596944703,0.00059300454060164,0.75679008220763,129794,2964,0.0041042357293251,0.0062164816794679,0.0036309219557964,30.178667766947,1.4293421355788e-06,1.4293421355788e-06,1.4293421355788e-06,3761449.572543,0.014051669699274
34191759,0.86949305311821,0.014384292195899,0.0044429391948317,0.0057844990361159,0.0041568539649513,-0.00099375147798497,0.00099374800961116,1.9424215256793e-09,-5.3840732209942e-09,1.1093230601332e-09,-4.7307863597682e-09,-0.00042178253770581,0.00042176602107029,-0.00059320750690067,0.00059320060378611,-0.00059320994365771,0.00059319816108773,-0.00042176954754765,0.00042177895248952,-0.00042177670325583,0.00042177182187106,-0.00059320173226993,0.00059320627756507,-0.0005932041658164,0.00059320385045351,-0.0012691602592855,0.0012691612648572,-0.001269162701955,0.0012691588155012,-0.0012691622932676,0.0012691593475908,-0.0012691647432813,0.0012691569013787,-0.0011636899287879,0.0011636917360137,-0.0011636971202796,0.001163684558649,-0.0011636879483952,0.0011636936914157,-0.0011636951270745,0.0011636865124464,-0.00042177538415055,0.0004217731998426,-4.5654285892316e-09,1.5332906735537e-09,-3.1999172126668e-10,-2.5705537242618e-09,-0.0015093379136178,0.0015093350054587,-0.0013914820627086,0.0013914749818272,-0.0015949307147844,0.0015949225569929,-0.0015949249684492,0.0015949286400163,-0.0014515441191068,0.0014515399750884,-0.0014515448540526,0.0014515392267036,-0.0014515421785029,0.0014515420419899,-0.0014515429154281,0.0014515412915599,-0.0013914779023343,0.0013914792297684,-0.0013914800944355,0.0013914770159709,-0.0015949314498179,0.0015949218177708,-0.0015949257070373,0.0015949279029906,-0.0013914798797473,0.001391477197241,-3.9693027475294e-09,3.3440944101818e-09,-0.00087865487381427,0.00087865424663282,-1.4510377294901e-09,8.3055812887314e-10,-0.00059662467372588,0.0005966191402511,-0.00070021262930795,0.00070021667778946,-0.00070021504450524,0.00070021423614836,-0.00059661975766075,0.00059662407691447,-0.00059662701734199,0.00059661701433616,-0.00070021484980927,0.00070021442926498,-0.00070021732936919,0.00070021203559604,-0.001142846339301,0.001142842499716,-0.0011428455433136,0.0011428432527966,-0.0011428438857047,0.0011428449234905,-0.0011428431325168,0.0011428457159818,-0.0010624398249749,0.0010624470997503,-0.0010624470212296,0.0010624399771333,-0.0010624477756812,0.0010624392205795,-0.0010624405830581,0.001062446365793,-0.00059661756653318,0.00059662632044847,0.74153685266144,129794,2964,0.0041358680343685,0.0062677301427839,0.0036567416705384,30.743993991427,5.951951931415e-06,5.951951931415e-06,5.951951931415e-06,3765360.2148924,0.014161942449744
34391759,0.87563142461449,0.014482794205683,0.0044729719870333,0.0058263151233208,0.0041835070953291,-0.0010014377613389,0.0010014342636051,1.9643721429265e-09,-5.4348241676464e-09,1.1308571279292e-09,-4.7820405536348e-09,-0.00042464656859609,0.00042462987901907,-0.00059765154464349,0.0005976445637844,-0.00059765400426132,0.00059764210060686,-0.00042463342990914,0.00042464295617002,-0.00042464066322767,0.0004246357493501,-0.00059764569768185,0.00059765030876036,-0.0005976481572132,0.00059764785755937,-0.0012791990794512,0.001279200106019,-0.0012792015474761,0.0012791976325703,-0.0012792011420364,0.0012791981642137,-0.0012792036153817,0.0012791956940567,-0.0011730066818381,0.0011730085053967,-0.0011730139410415,0.0011730012561803,-0.0011730046737935,0.0011730104882697,-0.0011730119229507,0.0011730032340413,-0.0004246393447071,0.0004246371262323,-4.623094854508e-09,1.5324890660275e-09,-3.2017404905699e-10,-2.6262215252737e-09,-0.0015216873389531,0.0015216843751142,-0.0014020146255088,0.0014020074128809,-0.0016076355142984,0.0016076272663292,-0.001607629717063,0.0016076334036,-0.0014639089597773,0.0014639047615766,-0.0014639097127399,0.0014639039940979,-0.0014639070029268,0.0014639068464644,-0.0014639077569243,0.0014639060777731,-0.0014020103826915,0.0014020117265081,-0.0014020126331696,0.0014020094630865,-0.0016076362702472,0.001607626508765,-0.0016076304686637,0.0016076326422193,-0.0014020123796637,0.0014020096764183,-3.9983004714666e-09,3.3914041664013e-09,-0.0008849978809052,0.00088499727153253,-1.4660683959588e-09,8.6284668935432e-10,-0.00060049754344081,0.00060049200199965,-0.00070519553715472,0.00070519967159251,-0.00070519797690513,0.00070519720318925,-0.00060049260223686,0.00060049695756247,-0.00060049993146088,0.00060048983509709,-0.00070519780444678,0.00070519737306844,-0.00070520030675351,0.00070519495606951,-0.0011517749150779,0.0011517710508502,-0.0011517741027379,0.0011517718190341,-0.0011517724358168,0.0011517734995328,-0.0011517716674512,0.0011517743104454,-0.001070510282823,0.0010705176690203,-0.0010705175543754,0.0010705104702715,-0.0010705183244938,0.0010705097011708,-0.0010705110575861,0.001070516919549,-0.00060049036616077,0.0006004992535901,0.73560164709121,129794,2964,0.0041678315461708,0.0063188159301502,0.0036831254169092,31.386541643549,1.1092333148394e-05,1.1092333148394e-05,1.1092333148394e-05,3774603.0788943,0.014272968992051
34591759,0.88172132049993,0.01458403925568,0.0045037264631967,0.0058693610320215,0.0042109517604623,-0.0010092587388769,0.0010092551902755,1.9764740064582e-09,-5.4972732500463e-09,1.1754165543311e-09,-4.880069270013e-09,-0.00042783298309758,0.00042781602768901,-0.00060243437422544,0.00060242722495399,-0.00060243685861382,0.00060242473837419,-0.0004278196278062,0.0004278293183681,-0.00042782693490703,0.00042782203665471,-0.0006024283855418,0.00060243310829743,-0.00060243086992429,0.00060243063206945,-0.0012892988113896,0.0012892998647984,-0.00128930130459,0.0012892973665475,-0.0012893009305388,0.0012892978755999,-0.0012893034282685,0.0012892953801634,-0.0011825626587543,0.0011825644574302,-0.0011825699894367,0.0011825571348452,-0.0011825606023241,0.0011825664890728,-0.0011825679225657,0.0011825591592409,-0.00042782568539828,0.00042782334570585,-4.7416908991273e-09,1.5532872670336e-09,-3.5293912347043e-10,-2.6821046402741e-09,-0.0015342063213996,0.0015342032681534,-0.0014127753921596,0.0014127680237701,-0.0016204579813728,0.001620449516615,-0.0016204520560732,0.0016204557876521,-0.0014764097511739,0.0014764054276591,-0.0014764105111445,0.0014764046523913,-0.0014764077509163,0.0014764075582204,-0.001476408511551,0.0014764067812947,-0.001412771078382,0.0014127724002545,-0.0014127733539926,0.0014127701163384,-0.0016204587452007,0.0016204487517469,-0.0016204528126677,0.0016204550157231,-0.0014127731193306,0.0014127703065677,-4.031807498111e-09,3.4324423536834e-09,-0.00089148227162777,0.00089148166951784,-1.4725792848809e-09,8.7616160534967e-10,-0.00060478652724071,0.00060478094146041,-0.00071053223186446,0.00071053641552565,-0.00071053469523925,0.00071053392214654,-0.00060478153535693,0.00060478594737801,-0.00060478893754789,0.0006047787604573,-0.00071053451877332,0.00071053409663009,-0.00071053704615443,0.00071053165689927,-0.0011607436968422,0.0011607398076881,-0.0011607428765441,0.0011607405817939,-0.0011607411917761,0.0011607422802313,-0.0011607404170546,0.0011607430991152,-0.0010787996613674,0.0010788071356263,-0.0010788070084863,0.0010787998649264,-0.0010788077837597,0.0010787990898065,-0.0010788004436666,0.0010788063813322,-0.00060477928095813,0.0006047882650886,0.76226247178831,129794,2964,0.0042003523980891,0.0063706001638888,0.0037100950777776,32.031181691188,1.6249453529507e-05,1.6249453529507e-05,1.6249453529507e-05,3783664.6638475,0.014385873639934
34791759,0.88782746705179,0.014689464180825,0.0045356196423775,0.005914284295873,0.0042395602425743,-0.0010176579847452,0.0010176543928004,1.9920424699405e-09,-5.5555629349247e-09,1.212943634831e-09,-4.9626112695881e-09,-0.00043136373122011,0.00043134654348862,-0.00060774363361146,0.00060773634553977,-0.00060774614098187,0.00060773383527499,-0.00043135018413252,0.00043136002530334,-0.00043135756214899,0.00043135266860097,-0.0006077375251826,0.0006077423452086,-0.00060774003355978,0.00060773984340936,-0.0013000648986513,0.0013000659763521,-0.001300067416831,0.0013000634531901,-0.0013000670635213,0.0013000639480584,-0.0013000695858985,0.0013000614282093,-0.0011929428842221,0.0011929446717366,-0.0011929502861368,0.0011929372773217,-0.0011929407873568,0.0011929467451379,-0.0011929481788942,0.0011929393411831,-0.0004313563638527,0.00043135393130246,-4.8396858182145e-09,1.5743034374434e-09,-3.6085838411598e-10,-2.742969253367e-09,-0.0015476755123141,0.0015476723890564,-0.0014244819118138,0.0014244743860332,-0.0016343878608947,0.0016343792283498,-0.0016343818243159,0.0016343856114275,-0.0014896751668777,0.0014896707528,-0.0014896759437086,0.0014896699602648,-0.0014896731289681,0.0014896729220145,-0.0014896739057563,0.0014896721268436,-0.0014244775114941,0.0014244788542352,-0.0014244798344119,0.0014244765139936,-0.0016343886443022,0.0016343784471195,-0.0016343825979465,0.0016343848207915,-0.0014244795888119,0.0014244767233153,-4.0640268198512e-09,3.4752459052113e-09,-0.00089844467751295,0.00089844408591992,-1.4913795772104e-09,9.0704516075509e-10,-0.00060944209980505,0.00060943650118128,-0.00071646691978307,0.00071647119028673,-0.00071646940851025,0.00071646867108344,-0.00060943708244384,0.00060944153055274,-0.00060944456225447,0.00060943427926288,-0.00071646925680061,0.00071646882224058,-0.00071647181052058,0.00071646635921499,-0.0011703009939,0.0011702970721149,-0.0011703001557544,0.0011702978622915,-0.0011702984628996,0.001170299568742,-0.0011702976718129,0.0011703004058424,-0.0010878187591013,0.0010878263335296,-0.0010878261822259,0.0010878189913762,-0.0010878269716731,0.0010878182001649,-0.0010878195575191,0.0010878255635757,-0.00060943478088549,0.00060944389882541,0.7918021752007,129794,2964,0.004235279503354,0.0064263123897727,0.0037390522239846,32.909164468297,2.3273315746376e-05,2.3273315746376e-05,2.3273315746376e-05,3788751.0168461,0.014507235837387
34991759,0.89398089629691,0.014790734034545,0.0045663814261423,0.0059574116205713,0.0042669409878319,-0.0010260328317744,0.0010260291838888,1.9989754851123e-09,-5.6174832466546e-09,1.2645996293641e-09,-5.0732499787544e-09,-0.00043430926935245,0.00043429180065176,-0.00061253846190151,0.00061253097720647,-0.00061254099034128,0.00061252844539931,-0.00043429548998702,0.00043430551189677,-0.00043430294340584,0.00043429807931892,-0.00061253219001467,0.00061253713608244,-0.00061253472368992,0.00061253460837394,-0.0013110364162013,0.0013110375191383,-0.0013110389582005,0.0013110349726021,-0.001311038641919,0.0013110354368354,-0.0013110411861279,0.0013110328946091,-0.0012032303260953,0.0012032320703229,-0.0012032377931169,0.0012032246105049,-0.001203228173112,0.0012032342005047,-0.0012032356339322,0.0012032267265867,-0.0004343018375825,0.00043429925113939,-4.9449446473942e-09,1.6000799289065e-09,-3.6658605155144e-10,-2.8091512393065e-09,-0.0015613678827294,0.0015613646862911,-0.0014363758889407,0.0014363681890238,-0.0016487241555716,0.00164871534133,-0.0016487179992144,0.001648721851915,-0.0015030756199669,0.0015030711120328,-0.0015030764171863,0.0015030702989613,-0.0015030735420047,0.0015030733240514,-0.0015030743371653,0.0015030725088243,-0.0014363713898504,0.001436372759892,-0.0014363737674303,0.0014363703597561,-0.0016487249619059,0.0016487145395662,-0.0016487187890169,0.0016487210418978,-0.0014363735035548,0.0014363705871969,-4.0998459404252e-09,3.5196262303052e-09,-0.0009053211148351,0.00090532053180358,-1.5094651434017e-09,9.3447972550183e-10,-0.00061329155568907,0.00061328593116349,-0.00072188722353814,0.00072189157539408,-0.00072188973977925,0.00072188902845858,-0.00061328651007208,0.00061329099161302,-0.00061329406249424,0.00061328367534217,-0.00072188960767545,0.00072188916099498,-0.000721892186141,0.00072188667548937,-0.0011800689527841,0.0011800649970704,-0.0011800680988562,0.0011800658013242,-0.0011800663943574,0.0011800675188257,-0.0011800655878206,0.0011800683733304,-0.001096769011062,0.0010967766896656,-0.001096776516926,0.0010967692687476,-0.0010967773176729,0.0010967684635032,-0.0010967698273527,0.0010967759038759,-0.00061328415813931,0.00061329341127463,0.75494740951342,129794,2964,0.0042701119203082,0.0064829448435969,0.003767656136319,33.939617740051,3.1516941920409e-05,3.1516941920409e-05,3.1516941920409e-05,3791043.8217142,0.014629098943857
35191759,0.90015792381629,0.014889777459689,0.0045965500879964,0.0059995533091629,0.0042936740625302,-0.0010343753393666,0.0010343716091141,1.9983887503013e-09,-5.69832680341e-09,1.34058776092e-09,-5.2376540296176e-09,-0.00043753850746419,0.00043752063199978,-0.00061740536040057,0.00061739757926457,-0.00061740791792103,0.00061739501928692,-0.00043752441263586,0.00043753465492905,-0.00043753193690538,0.00043752715362951,-0.00061739885191411,0.00061740397042996,-0.00061740141005058,0.00061740141953612,-0.001321905489239,0.0013219066179259,-0.0013219080564916,0.0013219040447317,-0.0013219077951198,0.001321904458292,-0.0013219103673578,0.0013219018891911,-0.0012132835237871,0.0012132851942633,-0.001213291074799,0.0012132776558318,-0.0012132812996938,0.0012132873973626,-0.0012132888361263,0.001213279845735,-0.00043753099208184,0.0004375281657674,-5.1291863291726e-09,1.7037891494147e-09,-4.0469256835365e-10,-2.8434919813389e-09,-0.0015747392307921,0.0015747359608706,-0.0014479656227902,0.001447957761772,-0.0016624741130906,0.0016624649377104,-0.0016624676818355,0.0016624717363573,-0.0015163543111686,0.0015163496362503,-0.001516355106193,0.0015163488244035,-0.0015163521426987,0.0015163519456785,-0.0015163529382295,0.0015163511314251,-0.0014479610326628,0.0014479624222257,-0.0014479634153713,0.0014479600279133,-0.0016624749137508,0.0016624641371354,-0.0016624684734667,0.0016624709277957,-0.0014479632401472,0.0014479601548582,-4.1328655583566e-09,3.5558781596278e-09,-0.00091224711606391,0.00091224653644275,-1.5138329305479e-09,9.4150718279072e-10,-0.0006173417713848,0.00061733609574014,-0.00072732610740486,0.00072733049389463,-0.00072732864408933,0.00072732792489055,-0.0006173366686153,0.00061734121693924,-0.00061734430229493,0.00061733382674276,-0.00072732849910618,0.00072732806944749,-0.00072733110501512,0.00072732556024443,-0.0011897644294637,0.0011897604500308,-0.0011897635704049,0.0011897612584254,-0.0011897618466176,0.0011897629948732,-0.0011897610377359,0.0011897638531433,-0.0011055496157754,0.0011055573657263,-0.0011055571923371,0.0011055498835382,-0.0011055579932778,0.0011055490691874,-0.0011055504369459,0.0011055565844571,-0.00061733431127245,0.00061734364322598,0.73556804787032,129794,2964,0.0043048023762339,0.0065382465223216,0.0037964618052155,34.974102228528,3.9792817828224e-05,3.9792817828224e-05,3.9792817828224e-05,3803020.5933738,0.014749684108846
35391759,0.90627601177492,0.014985080122577,0.0046256523838506,0.0060400791946151,0.0043193485441109,-0.0010422238031874,0.0010422199306891,1.965291700217e-09,-5.8052108367056e-09,1.4636413494673e-09,-5.5106567749241e-09,-0.00044041728081299,0.00044039879477838,-0.00062181369537291,0.00062180539843175,-0.0006218162768558,0.00062180281851842,-0.00044040272244353,0.0004404132794439,-0.00044041031258423,0.00044040571173843,-0.00062180679607642,0.00062181217606684,-0.00062180937742507,0.00062180960436491,-0.0013322188501363,0.0013322199980991,-0.0013322214423644,0.0013322174005691,-0.0013322212949857,0.001332217708084,-0.0013322238918654,0.0013322151140551,-0.0012226496502842,0.0012226511241586,-0.001222657271816,0.0012226435095557,-0.0012226472945787,0.0012226534594869,-0.0012226548989762,0.0012226458313295,-0.00044040969534284,0.00044040639906693,-5.3985716732235e-09,1.8739697752781e-09,-4.9157020078691e-10,-2.8471382182936e-09,-0.0015873752403523,0.0015873718789748,-0.0014588888561361,0.0014588808426562,-0.0016753659353642,0.0016753562103801,-0.0016753590851143,0.0016753634466346,-0.0015289968342905,0.0015289919003914,-0.0015289976023522,0.0015289911166386,-0.0015289945302128,0.0015289943566935,-0.0015289952992054,0.0015289935698457,-0.0014588841925187,0.001458885553865,-0.0014588865054975,0.001458883249678,-0.0016753667111302,0.0016753554395521,-0.0016753598481367,0.0016753626568979,-0.001458886546147,0.0014588831423296,-4.171704763011e-09,3.5921902133195e-09,-0.00091877496803725,0.00091877438467678,-1.4788062898175e-09,9.0006314823598e-10,-0.00062108388253758,0.00062107805466797,-0.00073227294179518,0.00073227726708606,-0.00073227550119011,0.00073227467095354,-0.00062107862372696,0.00062108331880626,-0.00062108634671897,0.00062107586697872,-0.00073227525527677,0.00073227491434468,-0.00073227788935516,0.00073227238094602,-0.0011989567307128,0.0011989527470688,-0.0011989558968205,0.0011989535299177,-0.0011989541221559,0.0011989553172078,-0.0011989533403447,0.001198956151177,-0.0011137528379749,0.0011137606335616,-0.0011137604890602,0.0011137530817521,-0.0011137612644538,0.0011137522941212,-0.0011137536301548,0.0011137598803623,-0.00062107635541179,0.00062108567125186,0.71497033847819,129794,2964,0.0043374362071175,0.0065905043827404,0.0038236116168916,35.839360198947,4.6714881591573e-05,4.6714881591573e-05,4.6714881591573e-05,3817694.9108087,0.014863425209313
35591759,0.91224280542946,0.015073514708634,0.0046527837162342,0.0060776264423999,0.0043431045499997,-0.0010492908236608,0.0010492867667489,1.9120886488572e-09,-5.9345094770738e-09,1.6478818935158e-09,-5.890175855862e-09,-0.00044271260839436,0.00044269330265962,-0.00062545901277597,0.00062544999140981,-0.00062546161748405,0.00062544738972363,-0.00044269741421233,0.0004427084219804,-0.00044270507916027,0.0004427007733596,-0.00062545155675471,0.00062545732297162,-0.00062545416054459,0.00062545472300692,-0.0013416732010891,0.0013416743832107,-0.0013416758179432,0.0013416717588645,-0.0013416758367703,0.0013416719057827,-0.0013416784591694,0.0013416692873466,-0.0012309582297377,0.0012309594069016,-0.0012309659245797,0.0012309517203959,-0.0012309556841935,0.0012309619335947,-0.0012309633633987,0.0012309542293697,-0.00044270494978397,0.00044270097243604,-5.7373939798463e-09,2.0791752095437e-09,-6.2033505541046e-10,-2.8343781586497e-09,-0.0015988852690909,0.0015988817880505,-0.0014687800314473,0.0014687718691295,-0.0016870045713766,0.0016869941444083,-0.0016869972051618,0.0016870019184641,-0.0015406234524015,0.0015406181791803,-0.0015406241760623,0.0015406174429244,-0.0015406209804444,0.0015406208158566,-0.0015406217035302,0.0015406200758717,-0.0014687753424543,0.0014687766226757,-0.0014687775036504,0.0014687744479769,-0.0016870053061228,0.0016869934231349,-0.0016869979195761,0.0016870011720328,-0.0014687778639804,0.0014687740314709,-4.2244477281099e-09,3.6126304863537e-09,-0.00092465065110499,0.00092465003572521,-1.4205016784668e-09,8.0980048086212e-10,-0.00062421936145978,0.00062421328418341,-0.00073640787803661,0.00073641205553688,-0.00073641046181572,0.00073640943059421,-0.00062421388974839,0.00062421876822927,-0.00062422169318859,0.00062421126344342,-0.00073641004635894,0.0007364098478694,-0.00073641271135746,0.00073640729748394,-0.0012073785592211,0.0012073745694154,-0.0012073777739743,0.0012073753014688,-0.0012073759248612,0.0012073771616036,-0.001207375193098,0.0012073779476429,-0.0011210445786896,0.0011210523656858,-0.0011210523069835,0.0011210447428006,-0.001121053030243,0.0011210440048837,-0.0011210453220494,0.0011210516603989,-0.00062421176484199,0.00062422098047853,0.68077348659019,129794,2964,0.0043668196724062,0.0066381036137211,0.0038480502212313,36.485407655735,5.1883261245883e-05,5.1883261245883e-05,5.1883261245883e-05,3834496.1002138,0.014966398223324
35791759,0.91804314210772,0.01516441527945,0.0046804997380618,0.0061162988449532,0.0043676166964351,-0.001056467149682,0.0010564629206676,1.8646170392e-09,-6.0555267526379e-09,1.8032848797524e-09,-6.2321165110156e-09,-0.00044574334603265,0.0004457232919366,-0.00062968663471104,0.00062967696491898,-0.0006296892656981,0.00062967433282748,-0.00044572757894321,0.00044573897378951,-0.00044573532018037,0.00044573125467456,-0.00062967868195263,0.00062968477593611,-0.00062968131409183,0.00062968215207246,-0.0013510187134118,0.0013510199227424,-0.0013510213546089,0.0013510172740231,-0.0013510215238527,0.0013510172816761,-0.0013510241707888,0.0013510146382659,-0.0012394603716016,0.0012394612892931,-0.0012394681406697,0.0012394535309915,-0.001239457659843,0.0012394639810509,-0.0012394654138145,0.0012394562081415,-0.00044573561425246,0.00044573104173009,-6.0802132960692e-09,2.2683408823791e-09,-7.61724409026e-10,-2.8274678645586e-09,-0.0016103463333723,0.0016103427164388,-0.0014787563500054,0.0014787480284023,-0.0016983797554793,0.001698368615964,-0.0016983718922783,0.0016983769183495,-0.0015522156946642,0.0015522100709686,-0.0015522163691028,0.0015522093832236,-0.0015522130608835,0.0015522128853323,-0.0015522137353878,0.0015522121947997,-0.0014787516409161,0.0014787528146358,-0.0014787536592887,0.0014787507893135,-0.001698380433709,0.001698367941033,-0.0016983725588935,0.0016983762316043,-0.0014787543309693,0.0014787500504213,-4.2580112150589e-09,3.6548299492479e-09,-0.00093071071480577,0.00093071010833516,-1.3428125040089e-09,7.4127955268229e-10,-0.00062820231273436,0.00062819602655134,-0.00074113931658987,0.00074114338326718,-0.00074114192356422,0.00074114073543543,-0.00062819662360952,0.00062820172782548,-0.00062820451123634,0.00062819415578598,-0.00074114133878613,0.00074114131824305,-0.00074114403255798,0.00074113874801276,-0.0012156845132981,0.0012156805557645,-0.0012156837750978,0.0012156812387887,-0.0012156818516133,0.0012156831713092,-0.0012156811694069,0.0012156839101816,-0.0011285273554496,0.0011285351743021,-0.001128535161368,0.0011285274820542,-0.0011285358344268,0.0011285267908433,-0.0011285280498934,0.0011285345186209,-0.00062819464512766,0.0006282038012766,0.72027366278419,129794,2964,0.0043966492790422,0.0066854985350863,0.0038732491080598,37.125705998786,5.7005647990286e-05,5.7005647990286e-05,5.7005647990286e-05,3855888.4621488,0.015070391560738
35991759,0.9236646855332,0.015257916310955,0.0047088111885327,0.0061562133058618,0.0043928918165604,-0.0010636661076427,0.0010636617176571,1.8228935161191e-09,-6.1718616793622e-09,1.9424210036511e-09,-6.5436427616613e-09,-0.00044863562417893,0.00044861488288437,-0.00063403979473192,0.00063402953434139,-0.00063404245065042,0.00063402687720721,-0.00044861933327949,0.00044863108318877,-0.00044862714694018,0.00044862329002478,-0.00063403139258631,0.00063403778276901,-0.00063403404944605,0.00063403513375871,-0.001360386592426,0.00136038782578,-0.0013603892583997,0.0013603851519632,-0.001360389565149,0.001360385035818,-0.0013603922368609,0.0013603823672478,-0.0012482534157458,0.0012482541012556,-0.0012482612577416,0.0012482462696567,-0.0012482505553619,0.0012482569436981,-0.0012482583825243,0.0012482490976569,-0.00044862781929628,0.00044862270598306,-6.392749115138e-09,2.4301763166677e-09,-8.8593104579336e-10,-2.8327905779947e-09,-0.0016220909094621,0.001622087160079,-0.0014890103331753,0.0014890018507798,-0.0017102836005547,0.0017102718201842,-0.001710275292519,0.0017102805911685,-0.0015638744341806,0.0015638684923004,-0.0015638750716148,0.0015638678440745,-0.0015638716567749,0.0015638714635601,-0.0015638722944272,0.0015638708128761,-0.0014890055917114,0.001489006670544,-0.0014890074947097,0.001489004764768,-0.0017102842402413,0.0017102711852619,-0.0017102759208888,0.001710279945047,-0.0014890084294768,0.0014890037534222,-4.3118812767331e-09,3.6754810116075e-09,-0.00093670727320903,0.00093670663321549,-1.3022701420852e-09,6.6493284014143e-10,-0.00063215087844501,0.00063214436912992,-0.00074609854823026,0.00074610248900012,-0.0007461011785496,0.00074609981510909,-0.0006321450009384,0.00063215025905264,-0.00063215297564399,0.00063214262890212,-0.00074610045365504,0.00074610053834277,-0.00074610317771738,0.00074609794902991,-0.0012239516763481,0.0012239477001214,-0.0012239509771361,0.0012239483444154,-0.0012239489888234,0.0012239503396226,-0.0012239483465686,0.0012239510407429,-0.0011362292223061,0.0011362370428513,-0.001136237103593,0.0011362292799911,-0.0011362377364928,0.0011362286253723,-0.0011362298752253,0.0011362364222544,-0.00063214314235911,0.00063215222051641,0.76499783197144,129794,2964,0.0044265790781545,0.0067340620931387,0.0038981875242893,37.765768293854,6.2126146350834e-05,6.2126146350834e-05,6.2126146350834e-05,3863994.5088241,0.015175421041605
36191759,0.92894611282704,0.015343272594211,0.0047347123566265,0.0061926548307317,0.0044159054068523,-0.0010693163344362,0.0010693117204675,1.7479465116692e-09,-6.3181947199001e-09,2.1833857042125e-09,-7.0226126419014e-09,-0.00044974933164557,0.00044972758037578,-0.00063672366687653,0.00063671248223433,-0.00063672634521427,0.00063670980901013,-0.00044973225179902,0.00044974456310558,-0.00044974014223412,0.00044973669152169,-0.00063671455188245,0.00063672143882911,-0.00063671723356434,0.00063671876469696,-0.0013682157593513,0.0013682170400345,-0.0013682184482642,0.0013682143399705,-0.0013682189783189,0.0013682140118088,-0.0013682216733029,0.0013682113212106,-0.0012553586786552,0.0012553589728755,-0.001255366584598,0.0012553510695901,-0.001255355574772,0.001255362059476,-0.0012553634711967,0.0012553541370318,-0.00044974145873661,0.00044973546346441,-6.8035069629442e-09,2.704896319026e-09,-1.0428194514786e-09,-2.7946760638183e-09,-0.0016321667614044,0.001632162891334,-0.001497680588572,0.0014976719542611,-0.0017207551051249,0.0017207424654199,-0.001720746147969,0.0017207519185667,-0.0015737614531893,0.0015737551091392,-0.0015737620303953,0.0015737545260212,-0.0015737584637943,0.0015737583088797,-0.0015737590391967,0.0015737577239633,-0.0014976758022288,0.0014976767898894,-0.0014976775240924,0.0014976750903918,-0.0017207556873268,0.0017207418957037,-0.0017207467054561,0.0017207513296951,-0.0014976788572372,0.0014976736487023,-4.3783029413101e-09,3.6870087023856e-09,-0.00094113945588273,0.00094113875961759,-1.2298018516255e-09,5.2903473535428e-10,-0.00063408503679628,0.00063407818351432,-0.0007492729317002,0.00074927662708041,-0.00074927558721373,0.00074927392371527,-0.00063407888142042,0.00063408434894589,-0.00063408693466866,0.00063407667011265,-0.00074927463161721,0.00074927487585405,-0.00074927738192068,0.00074927226826028,-0.001230737043383,0.0012307330569285,-0.0012307364148496,0.0012307336311621,-0.0012307343294974,0.0012307357208574,-0.00123073375732,0.0012307363547136,-0.0011423339414001,0.0011423417203024,-0.0011423419055913,0.0011423338807847,-0.0011423424649659,0.0011423332969047,-0.0011423345263681,0.0011423411660655,-0.00063407722822437,0.00063408611478679,0.74360849035376,129794,2964,0.0044500861079057,0.006775720069129,0.0039166343076631,37.870089398298,6.2960715186385e-05,6.2960715186385e-05,6.2960715186385e-05,3853190.6362958,0.015260342872354
36391759,0.93379287555141,0.015420639719945,0.0047582339198023,0.0062256460204186,0.0044367597797241,-0.0010737282049001,0.0010737233716421,1.6792538014785e-09,-6.4640417339033e-09,2.4054472901335e-09,-7.4812671716291e-09,-0.00045027985979026,0.00045025712923067,-0.00063855510351523,0.00063854303995863,-0.00063855780841895,0.0006385403350705,-0.00045026202981856,0.0004502748593484,-0.00045026998641934,0.00045026691498965,-0.00063854530962611,0.00063855265559387,-0.00063854801521202,0.00063854995511727,-0.0013745358006371,0.0013745371288149,-0.00137453851511,0.0013745344038104,-0.0013745392633665,0.0013745338758619,-0.001374541984361,0.0013745311581701,-0.0012609482001496,0.0012609481338774,-0.001260956184571,0.0012609401551557,-0.0012609448742407,0.0012609514468135,-0.0012609528457652,0.0012609434524542,-0.0004502719115032,0.00045026509458277,-7.254892303373e-09,2.99529541309e-09,-1.1949346236815e-09,-2.7783384212456e-09,-0.0016403899860677,0.0016403859759767,-0.0015046908399592,0.001504682003023,-0.0017291373919847,0.0017291238151518,-0.0017291277296304,0.0017291340076463,-0.0015819358767923,0.0015819291032184,-0.001581936401427,0.0015819285769614,-0.001581932658129,0.0015819325517156,-0.0015819331825791,0.0015819320231489,-0.0015046859936129,0.0015046869225926,-0.0015046875460362,0.0015046853849904,-0.0017291379150582,0.0017291233019781,-0.0017291282386308,0.0017291334832327,-0.0015046892842441,0.0015046835381612,-4.4348606165708e-09,3.7020930430988e-09,-0.00094447248158662,0.00094447174346723,-1.1733643729816e-09,4.2996926478098e-10,-0.00063523372188828,0.00063522660266316,-0.00075142689638571,0.00075143042189821,-0.00075142957455282,0.00075142769601237,-0.00063522733718275,0.00063523299741103,-0.00063523548654728,0.00063522525608773,-0.00075142844067974,0.00075142882630859,-0.00075143122534442,0.00075142620055504,-0.0012361149413261,0.0012361109410459,-0.0012361143637453,0.0012361114646916,-0.0012361122014668,0.0012361136278324,-0.0012361116825304,0.0012361142110639,-0.0011470702488318,0.0011470780003757,-0.0011470782875741,0.0011470700997455,-0.0011470787916955,0.0011470695622364,-0.0011470707776248,0.00114707749817,-0.00063522584534171,0.00063523460770938,0.73413358452594,129794,2964,0.0044684443878678,0.0068097144033441,0.0039305117729038,37.543315700056,6.0346525600449e-05,6.0346525600449e-05,6.0346525600449e-05,3841627.835449,0.015327617177085
36591759,0.93824145531027,0.015487517802601,0.0047787010552124,0.0062540748321923,0.0044547419151967,-0.0010774997910236,0.0010774947677442,1.6232963008535e-09,-6.5946135537591e-09,2.5768745659861e-09,-7.8563453835414e-09,-0.00045047771305996,0.0004504541687671,-0.00063986130106909,0.00063984852175977,-0.00063986403123004,0.00063984579173001,-0.00045045926293497,0.00045047251039329,-0.00045046729104138,0.00045046449352674,-0.00063985096181512,0.00063985866595291,-0.000639853691101,0.00063985594069178,-0.0013800728576762,0.0013800742169455,-0.0013800755969472,0.0013800714673074,-0.0013800765213268,0.0013800707836289,-0.001380079267145,0.0013800680405977,-0.0012656174264204,0.0012656170664382,-0.001265625483879,0.001265609013152,-0.001265613917511,0.0012656205630566,-0.0012656219633038,0.001265612497609,-0.00045046969036559,0.00045046220895128,-7.6505567016855e-09,3.1877258067861e-09,-1.3115019272737e-09,-2.8360939252048e-09,-0.0016474928433187,0.0016474886549562,-0.0015106824843235,0.0015106733479587,-0.0017363174323771,0.0017363030718614,-0.0017363072165755,0.0017363138472867,-0.0015890854865838,0.0015890783337436,-0.001589085993374,0.0015890778273316,-0.0015890820904399,0.0015890819770511,-0.0015890825973576,0.0015890814684018,-0.0015106775120228,0.0015106783974713,-0.0015106790071591,0.0015106769190548,-0.0017363179355147,0.0017363025789493,-0.001736307706846,0.0017363133427527,-0.0015106809873171,0.0015106748235717,-4.4804092880129e-09,3.7310353934592e-09,-0.00094730917039125,0.00094730841555002,-1.1548800296931e-09,3.9348036709608e-10,-0.000635949733666,0.00063594247148728,-0.00075298453688965,0.00075298801486833,-0.0007529872370223,0.00075298526232992,-0.00063594322262744,0.00063594899330334,-0.0006359514651821,0.00063594119690659,-0.00075298602482318,0.00075298647202786,-0.0007529888418268,0.00075298382836614,-0.001240835235407,0.0012408312127562,-0.0012408346760315,0.0012408317180394,-0.0012408324691872,0.0012408339231341,-0.0012408319706008,0.0012408344895939,-0.0011510360482181,0.001151043838142,-0.0011510441615302,0.0011510358668469,-0.00115104464733,0.0011510353454336,-0.0011510365548731,0.0011510433500001,-0.00063594179264419,0.0006359505543178,0.69114506598873,129794,2964,0.0044841387737142,0.0068390759317801,0.0039423246603713,37.205131099238,5.7641048793907e-05,5.7641048793907e-05,5.7641048793907e-05,3833922.6928563,0.015385388633434
36791759,0.94232783753317,0.01554722372043,0.0047970351482119,0.0062793981447942,0.0044707904274243,-0.0010808883342727,0.0010808831200954,1.5666379634915e-09,-6.7256526931622e-09,2.6982523585955e-09,-8.1817329387925e-09,-0.00045100150097574,0.00045097724405948,-0.00064116500722595,0.00064115160797318,-0.00064116776182481,0.00064114885288568,-0.00045098253059158,0.00045099609625982,-0.0004509906321699,0.00045098800628661,-0.00064115421463724,0.00064116218050138,-0.00064115696913494,0.00064115943072798,-0.0013849687914877,0.0013849701490263,-0.0013849715559844,0.0013849673749573,-0.0013849726272964,0.0013849665695183,-0.001384975397683,0.0013849638013966,-0.0012696482569414,0.0012696476386106,-0.0012696563874833,0.001269639512854,-0.0012696446044571,0.0012696512842086,-0.001269652723749,0.0012696431462951,-0.0004509934057766,0.0004509853568747,-8.0158500974583e-09,3.3010633976358e-09,-1.400937971314e-09,-2.9615692651387e-09,-0.0016536186468649,0.0016536142376629,-0.0015158402613322,0.0015158307308379,-0.0017422294785832,0.0017422144260231,-0.0017422188172579,0.0017422256753568,-0.0015954426981816,0.0015954351916518,-0.0015954432162279,0.0015954346729231,-0.0015954391601577,0.0015954389919028,-0.0015954396782403,0.0015954384711306,-0.0015158351121667,0.001515835968183,-0.001515836640042,0.001515834451943,-0.0017422299926023,0.0017422139211491,-0.0017422193183925,0.0017422251593731,-0.0015158387313517,0.0015158322444261,-4.5101266707224e-09,3.7759742297263e-09,-0.0009499541824271,0.00094995344301086,-1.1639544964321e-09,4.1933645605452e-10,-0.00063697863891311,0.0006369713550729,-0.00075448156444722,0.00075448511871168,-0.00075448428619329,0.00075448233821125,-0.00063697209259129,0.00063697791689477,-0.00063698042446885,0.00063697006463472,-0.00075448308603927,0.00075448353994621,-0.00075448593497165,0.0007544808789068,-0.0012450238727647,0.0012450198287341,-0.0012450233025065,0.0012450203464496,-0.0012450210804383,0.0012450225627818,-0.001245020571905,0.0012450231427556,-0.001154507218114,0.0011545151073779,-0.0011545154111942,0.0011545070695235,-0.0011545159004453,0.001154506529012,-0.0011545077342426,0.0011545146061118,-0.00063697063295773,0.00063697951916281,0.67162364306882,129794,2964,0.0044982308189078,0.0068643980571403,0.0039533339982779,36.866476806455,5.4931814451637e-05,5.4931814451637e-05,5.4931814451637e-05,3837305.3238999,0.015436611336515
36991759,0.94617420572345,0.015606704635662,0.0048151892295374,0.0063046703222607,0.0044868450838639,-0.0010850237395308,0.0010850184205823,1.5506639073115e-09,-6.8183028009121e-09,2.7481269952685e-09,-8.3233782750512e-09,-0.00045264466377935,0.00045262009603018,-0.00064351389279346,0.00064350022897705,-0.00064351664810898,0.00064349746496111,-0.00045262549688119,0.00045263919668235,-0.00045263361164342,0.0004526310453247,-0.00064350290963113,0.00064351099533006,-0.00064350565390409,0.00064350821033514,-0.0013904783280978,0.0013904796601592,-0.0013904811221139,0.0013904768638823,-0.0013904822191646,0.0013904760213021,-0.0013904850194768,0.0013904732334456,-0.0012745325329032,0.0012745318079037,-0.0012745407565251,0.0012745236334638,-0.0012745288194401,0.0012745355238605,-0.0012745370348037,0.0012745273378003,-0.00045263651959769,0.00045262822745252,-8.2429650089007e-09,3.2852477495356e-09,-1.4056386479468e-09,-3.1452624850022e-09,-0.0016604264074043,0.0016604217819049,-0.0015217528937385,0.0015217429806223,-0.0017487435685248,0.0017487281372503,-0.0017487326821585,0.0017487395738421,-0.0016024374692973,0.0016024297173128,-0.0016024380399817,0.0016024291465442,-0.0016024338624307,0.0016024335844805,-0.0016024344329054,0.0016024330060977,-0.0015217476754976,0.0015217485780658,-0.0015217491938426,0.0015217466958656,-0.0017487441935622,0.0017487276120807,-0.0017487332485161,0.0017487389607403,-0.0015217513055694,0.0015217447640392,-4.5199819710358e-09,3.8371361649182e-09,-0.00095340253350509,0.00095340185464472,-1.1974381725545e-09,5.5830192857274e-10,-0.00063920445415088,0.00063919736012235,-0.00075709154065199,0.00075709547190788,-0.00075709430453636,0.00075709263264084,-0.00063919802428802,0.00063920388525332,-0.00063920651473024,0.00063919598778383,-0.00075709325794861,0.00075709374142434,-0.00075709617682881,0.00075709105947266,-0.0012498347875212,0.001249830711818,-0.0012498341619206,0.0012498312866227,-0.0012498319741601,0.001249833471499,-0.0012498314107472,0.001249834109898,-0.001158817482286,0.0011588255360959,-0.001158825734992,0.0011588174149154,-0.0011588262777652,0.0011588168133635,-0.0011588180511113,0.0011588249704424,-0.00063919637093177,0.00063920564590915,0.71099418105295,129794,2964,0.0045154183828336,0.006892541350462,0.0039676744432267,36.972964340269,5.5783714722148e-05,5.5783714722148e-05,5.5783714722148e-05,3849900.1423883,0.015497223626014
37191759,0.94983372928629,0.015666689497316,0.004833376877186,0.0063302361798713,0.0045030764402586,-0.0010894665849425,0.0010894615092917,1.7105221937211e-09,-6.7326417305343e-09,2.3620438881071e-09,-7.6924125782084e-09,-0.00045433354211636,0.00045431008808212,-0.00064614993148804,0.00064613754637248,-0.00064615273145897,0.00064613474095917,-0.00045431523677066,0.00045432829728541,-0.00045432348480633,0.00045432006530829,-0.00064613999712934,0.00064614734744718,-0.00064614279856814,0.0006461445469182,-0.0013963494518208,0.0013963505983511,-0.0013963522630607,0.0013963477689381,-0.0013963527673564,0.0013963472930068,-0.001396355594799,0.0013963444827579,-0.0012799638420638,0.0012799637908079,-0.0012799721259211,0.0012799555239248,-0.0012799604888413,0.0012799671627123,-0.0012799687624598,0.001279958884482,-0.00045432530321803,0.00045431834280895,-7.0792307386544e-09,3.3185277647088e-09,-8.0604044362435e-10,-2.7185499312254e-09,-0.0016678010865878,0.0016677975256633,-0.0015281713833679,0.001528162615848,-0.0017561193686349,0.0017561061469853,-0.0017561095144492,0.0017561165518381,-0.0016097955280126,0.0016097892513929,-0.0016097961543997,0.0016097886164862,-0.0016097922681832,0.0016097927591255,-0.0016097928947446,0.001609792121399,-0.0015281661890788,0.0015281679531066,-0.0015281680276451,0.0015281660513328,-0.0017561200010074,0.0017561055280787,-0.001756110129202,0.0017561159141824,-0.0015281695322376,0.0015281645011932,-4.5317503077013e-09,3.9017394358032e-09,-0.00095706960067246,0.00095706896948845,-1.2747974412103e-09,6.5296330808827e-10,-0.00064150703866468,0.00064150006688622,-0.00076010466170183,0.00076010873777333,-0.00076010744335649,0.00076010591263449,-0.00064150069841951,0.00064150644077713,-0.00064150916179254,0.00064149842731401,-0.00076010652532044,0.00076010682084154,-0.00076010942060224,0.0007601041027288,-0.0012549676613635,0.0012549635563164,-0.001254966982779,0.001254964195771,-0.001254964825332,0.0012549663448493,-0.0012549641996931,0.0012549670378672,-0.0011635778097624,0.0011635860599989,-0.0011635861653664,0.0011635778941232,-0.0011635867410894,0.0011635772097523,-0.001163578452693,0.0011635854550852,-0.00064149887286114,0.00064150836449156,0.75399384121913,129794,2964,0.0045338900369376,0.0069230295082632,0.0039829270509663,37.297080639909,5.8376645119269e-05,5.8376645119269e-05,5.8376645119269e-05,3852912.6884616,0.015562455130824
37391759,0.95331106508167,0.015721268300091,0.0048499879725666,0.0063534766689266,0.0045178036585974,-0.0010935045526143,0.001093499880534,1.9457479726762e-09,-6.5708131025819e-09,1.8055914743022e-09,-6.7011381010956e-09,-0.00045518329460372,0.00045516172428338,-0.00064811215170546,0.00064810174933967,-0.00064811497705116,0.00064809892078215,-0.000455166463913,0.00045517847628876,-0.00045517478246576,0.0004551701727475,-0.00064810375780492,0.00064811003757317,-0.00064810658472083,0.00064810721434774,-0.0014019355175494,0.0014019365796428,-0.00140193835368,0.0014019337260869,-0.0014019383383098,0.001401933785299,-0.0014019411895147,0.0014019309494548,-0.0012849917614396,0.0012849926798672,-0.0012850001155644,0.001284984338479,-0.0012849889052465,0.0012849955348713,-0.0012849972499526,0.001284987183452,-0.00045517498389527,0.00045517005096491,-6.2131572434288e-09,2.5919245629599e-09,-7.1686207545861e-10,-2.7123487764615e-09,-0.0016748999406306,0.0016748964831199,-0.0015342759012121,0.0015342676516795,-0.0017635271053041,0.0017635156036231,-0.0017635187693222,0.0017635244147829,-0.0016167431137688,0.0016167374713926,-0.0016167437649519,0.0016167368075745,-0.0016167403454007,0.001616740452078,-0.00161674099675,0.0016167397855423,-0.0015342711217224,0.0015342725459445,-0.0015342730483755,0.0015342705687162,-0.001763527764451,0.001763514956568,-0.0017635194111193,0.0017635237486819,-0.0015342739643294,0.0015342696150598,-4.5570894193625e-09,3.9521865480021e-09,-0.00096027722181416,0.00096027661502612,-1.3037497354122e-09,7.0706186491265e-10,-0.00064283887294239,0.00064283193584871,-0.00076244642883306,0.00076245063453001,-0.00076244924014364,0.00076244778949167,-0.00064283253635598,0.00064283829722813,-0.00064284104511954,0.00064283018009304,-0.00076244837629504,0.00076244863755507,-0.00076245128388936,0.00076244588190072,-0.0012598435526642,0.0012598394181997,-0.0012598428415253,0.0012598400807337,-0.0012598406916584,0.0012598422321933,-0.0012598400366215,0.0012598429514901,-0.0011679214114105,0.0011679297886725,-0.0011679298231336,0.0011679215311194,-0.0011679304502306,0.0011679208420695,-0.0011679220847143,0.0011679291581268,-0.00064283062262269,0.00064284029665387,0.72209467393929,129794,2964,0.0045506894589014,0.0069523733709775,0.0039962771666223,37.627019785426,6.1016158283407e-05,6.1016158283407e-05,6.1016158283407e-05,3845415.5300799,0.015622904605091
37591759,0.95661000628181,0.015771007235024,0.004865192792108,0.0063746127385178,0.0045312017043984,-0.0010973078779918,0.0010973036062046,2.1792476394511e-09,-6.411934882173e-09,1.2857048600991e-09,-5.7489484005579e-09,-0.00045626128955564,0.00045624152602671,-0.00065005563315522,0.00065004713361591,-0.00065005848357842,0.00065004428020068,-0.00045624585478795,0.00045625689029182,-0.00045625424647295,0.00045624851362994,-0.00065004868812627,0.00065005397624462,-0.00065005154037923,0.00065005112867894,-0.0014071462946954,0.0014071472846212,-0.001407149156149,0.0014071444066306,-0.0014071486318601,0.0014071449797245,-0.0014071515075127,0.001407142118309,-0.0012895719739785,0.0012895738402879,-0.0012895804008583,0.0012895654250968,-0.0012895696015871,0.0012895762004663,-0.001289578019674,0.0012895677761882,-0.00045625290545782,0.00045624992610351,-5.4453064352145e-09,1.8593472968671e-09,-6.9387555276198e-10,-2.712784322347e-09,-0.0016813628050343,0.001681359372744,-0.0015398248712538,0.0015398171127064,-0.0017700259112665,0.0017700159213207,-0.0017700190065879,0.0017700232257838,-0.001623232399402,0.0016232272739979,-0.0016232330572134,0.0016232266018059,-0.0016232300966075,0.0016232297497151,-0.0016232307545986,0.0016232290748977,-0.0015398205533478,0.0015398215290145,-0.0015398225039322,0.001539819529776,-0.0017700265777897,0.0017700152662204,-0.0017700196561901,0.0017700225521406,-0.0015398229109726,0.0015398190989059,-4.5885692300178e-09,3.9952491633805e-09,-0.00096335912845304,0.00096335853328398,-1.3090978908698e-09,7.247436682866e-10,-0.00064427374050102,0.00064426676597125,-0.00076467981755313,0.00076468408244802,-0.0007646826547647,0.00076468121421816,-0.00064426735885807,0.00064427318216393,-0.00064427591133631,0.00064426496321565,-0.00076468179143501,0.00076468206668042,-0.00076468471169486,0.00076467927442936,-0.0012644089513022,0.0012644047950754,-0.0012644082311433,0.001264405464598,-0.0012644060674346,0.001264407635941,-0.0012644054033627,0.0012644083622439,-0.0011719063753722,0.001171914844691,-0.0011719148461587,0.0011719065004297,-0.0011719154924126,0.0011719058148676,-0.0011719070587836,0.0011719142086486,-0.00064426541565783,0.00064427519741532,0.69345403953395,129794,2964,0.0045665068553031,0.0069790870770857,0.0040090999168398,37.957199042823,6.3657592342588e-05,6.3657592342588e-05,6.3657592342588e-05,3847485.5257402,0.015679148714921
37791759,0.95966208636679,0.015815439632901,0.0048788245945438,0.0063934614063001,0.0045431536320575,-0.001100025120226,0.0011000210917265,2.3341080223668e-09,-6.3298024337335e-09,1.0417105115325e-09,-5.2418518054079e-09,-0.00045676760217306,0.00045674876936549,-0.00065119633948267,0.00065118886464221,-0.00065119921488909,0.00065118598652393,-0.00045675284870566,0.00045676345688347,-0.000456761311807,0.00045675500867761,-0.00065119013203612,0.00065119497168751,-0.00065119300903428,0.00065119209978869,-0.0014110542792743,0.0014110552922074,-0.0014110571654013,0.0014110523905914,-0.0014110563894203,0.0014110532361486,-0.0014110592883447,0.0014110503492383,-0.0012928030341289,0.0012928054566895,-0.0012928115318109,0.001292796969423,-0.0012928009132416,0.0012928075624544,-0.0012928094031261,0.001292799067148,-0.00045675914691283,0.00045675724051849,-5.0391101838193e-09,1.5055337474113e-09,-7.4594255368761e-10,-2.6161568949012e-09,-0.0016862250744384,0.0016862216879917,-0.0015439387339074,0.0015439314155868,-0.0017746908380024,0.0017746815879258,-0.0017746846504555,0.0017746881285267,-0.0016282668001526,0.0016282619168591,-0.0016282674108709,0.0016282612939093,-0.0016282647291177,0.0016282641343312,-0.0016282653401733,0.0016282635093974,-0.0015439348057022,0.0015439354283539,-0.0015439366145416,0.0015439335812847,-0.0017746914544754,0.0017746809812353,-0.0017746852516245,0.0017746875069826,-0.0015439369166687,0.0015439332525575,-4.6415850709865e-09,4.018742948838e-09,-0.00096550374263409,0.0009655031175924,-1.2522275521645e-09,6.3521626201443e-10,-0.0006451267368381,0.0006451195103562,-0.0007659968301171,0.0007660009434248,-0.00076599969296857,0.00076599805062248,-0.00064512014441806,0.00064512615573086,-0.00064512874809983,0.00064511783732878,-0.0007659986631025,0.00076599907556132,-0.00076600159889221,0.00076599624880981,-0.0012677587938191,0.0012677546318473,-0.0012677581227651,0.0012677552533932,-0.001267755886473,0.0012677575000984,-0.0012677552701835,0.0012677581772103,-0.001174703744159,0.0011747122103408,-0.0011747122837649,0.0011747037846762,-0.001174712880853,0.0011747031477144,-0.0011747043820321,0.0011747116261156,-0.00064511833659524,0.00064512801861673,0.66961884013981,129794,2964,0.0045778072044852,0.0069991829659933,0.004018025821295,37.836168824416,6.2689350595329e-05,6.2689350595329e-05,6.2689350595329e-05,3850495.1797367,0.01572012170739
37991759,0.96246852586837,0.015857520266086,0.0048916934291123,0.0064113263093567,0.0045545005276171,-0.0011023865399008,0.0011023826659806,2.4446204992571e-09,-6.2901241310255e-09,9.396090336037e-10,-4.9710005041998e-09,-0.00045739913174888,0.00045738077281298,-0.00065230573062421,0.00065229881241056,-0.00065230862844678,0.00065229591695409,-0.00045738469204497,0.00045739515372433,-0.00045739321686026,0.00045738663902047,-0.00065229989424476,0.00065230455966617,-0.00065230279369929,0.00065230166524066,-0.0014144074317493,0.0014144084962904,-0.0014144103411182,0.0014144055696011,-0.0014144094217283,0.001414406562791,-0.0014144123441098,0.0014144036517144,-0.0012956017229717,0.0012956044855227,-0.0012956102851176,0.0012955959249227,-0.0012955997239027,0.0012956064671511,-0.0012956082778401,0.0012955978954215,-0.00045739061566143,0.00045738930321501,-4.821913885723e-09,1.3532430643625e-09,-8.0248962696334e-10,-2.5039379776424e-09,-0.0016904135107807,0.0016904101819439,-0.0015475110150608,0.0015475040373581,-0.0017785283012564,0.0017785194226971,-0.0017785224529663,0.0017785255832533,-0.0016326695553507,0.0016326647893469,-0.001632670112875,0.0016326642246353,-0.0016326675926578,0.0016326668805903,-0.0016326681477599,0.0016326663096516,-0.0015475073588926,0.0015475077492792,-0.0015475090075957,0.0015475060738889,-0.0017785288689092,0.0017785188736281,-0.0017785229980017,0.0017785250094439,-0.0015475093574885,0.0015475057000532,-4.6966913154771e-09,4.0416116850667e-09,-0.00096739505683383,0.00096739439853212,-1.187169784528e-09,5.3263381804356e-10,-0.00064614365906579,0.00064613614563737,-0.00076724783761703,0.00076725177541886,-0.00076725072790742,0.0007672488537506,-0.00064613681722819,0.00064614303987841,-0.00064614549092308,0.00064613463466796,-0.00076724950965232,0.00076725007295759,-0.00076725246485972,0.00076724721184163,-0.0012705984927452,0.0012705943275137,-0.0012705978762524,0.0012705948925978,-0.0012705955598622,0.0012705972219171,-0.0012705949981049,0.0012705978431457,-0.0011771424038352,0.0011771508597805,-0.0011771510199978,0.0011771423572764,-0.001177151559954,0.0011771417799879,-0.0011771429845647,0.0011771503333128,-0.00064613517821898,0.00064614473396934,0.68978257923168,129794,2964,0.0045876236495752,0.0070164936412525,0.0040258949637039,37.594044035989,6.0752352287913e-05,6.0752352287913e-05,6.0752352287913e-05,3856366.7205395,0.015755680697134
38191759,0.96505036533312,0.015896575153951,0.0049036208783477,0.0064279141888563,0.0045650400867467,-0.0011045012620087,0.0011044974499075,2.5139667819816e-09,-6.2994816582477e-09,9.0189063494842e-10,-4.8670282811122e-09,-0.00045772231892464,0.00045770407738898,-0.00065318276202851,0.00065317607681989,-0.00065318568743776,0.00065317315066455,-0.00045770793492871,0.0004577184015755,-0.0004577165432099,0.00045770980553347,-0.00065317706262609,0.00065318168437589,-0.00065317998879167,0.00065317876254696,-0.0014174879848945,0.0014174890870906,-0.001417490920487,0.0014174861352222,-0.001417489927091,0.0014174872015681,-0.0014174928754649,0.0014174842643088,-0.0012981820928492,0.0012981850415367,-0.0012981907351453,0.0012981764057037,-0.0012981801449386,0.0012981869733263,-0.0012981887801911,0.0012981783301288,-0.00045771371565309,0.00045771269348083,-4.7101314007189e-09,1.2978973450627e-09,-8.432169062582e-10,-2.4115947361118e-09,-0.0016943388210837,0.0016943355437897,-0.0015508375252576,0.0015508307857933,-0.0017822757076331,0.001782266990835,-0.0017822700148656,0.0017822729914806,-0.0016367030413382,0.0016366983387192,-0.0016367035577878,0.0016366978171935,-0.0016367011288637,0.0016367003726551,-0.0016367016450035,0.0016366998477234,-0.0015508340603357,0.0015508343171791,-0.0015508355765176,0.0015508327727285,-0.0017822762269986,0.0017822664851123,-0.0017822705178948,0.0017822724690172,-0.0015508360006263,0.0015508323196775,-4.748355899472e-09,4.0604845944829e-09,-0.00096903503928454,0.00096903434827451,-1.1387613626441e-09,4.5036713567955e-10,-0.00064681826226407,0.00064681052763803,-0.00076829298803835,0.0007682967860515,-0.00076829590019688,0.00076829384379493,-0.00064681123658238,0.00064681762083386,-0.0006468199609564,0.00064680913538012,-0.00076829453141625,0.00076829521605859,-0.0007682975053496,0.00076829232876436,-0.0012731891592315,0.0012731849823456,-0.0012731885876359,0.0012731855052603,-0.0012731862038832,0.0012731879018752,-0.0012731856860767,0.0012731884794121,-0.0011793750118115,0.0011793834597582,-0.0011793836930398,0.0011793748848234,-0.0011793841888211,0.0011793743472568,-0.0011793755531898,0.0011793829798786,-0.00064680971832864,0.00064681917889874,0.69607506612868,129794,2964,0.0045964187700521,0.0070327162621542,0.0040327219477079,37.348596449038,5.8788771592301e-05,5.8788771592301e-05,5.8788771592301e-05,3855411.7748276,0.015788041220632
38391759,0.96743906017523,0.01593441109658,0.0049151211835715,0.006444013661666,0.0045752762513423,-0.0011066724566844,0.0011066686688102,2.5629833664704e-09,-6.3251119289664e-09,8.9600784060493e-10,-4.8367754904759e-09,-0.00045820950989239,0.00045819125462331,-0.00065423534766262,0.00065422874745685,-0.00065423829875371,0.00065422579294633,-0.00045819509038759,0.00045820561696656,-0.00045820377262198,0.00045819694712791,-0.00065422968227895,0.00065423432017032,-0.00065423263407459,0.00065423137244663,-0.0014205627288207,0.0014205638672976,-0.0014205656890832,0.001420560890611,-0.0014205646570222,0.0014205619936878,-0.0014205676303561,0.0014205590316154,-0.0013008816690894,0.0013008847275804,-0.0013008903869189,0.0013008760201346,-0.0013008797355055,0.0013008866450018,-0.0013008884478565,0.0013008779327675,-0.00045820083354983,0.00045819994690374,-4.6600997115056e-09,1.3086942002556e-09,-8.4231837405333e-10,-2.3555680194763e-09,-0.0016982856347759,0.0016982824145118,-0.0015542108905712,0.0015542042763217,-0.0017861016262046,0.0017860929811512,-0.001786095968249,0.001786098947081,-0.001640701684401,0.0016406970345878,-0.0016407021845459,0.0016406965303545,-0.00164069978384,0.001640699054875,-0.0016407002845395,0.0016406985493931,-0.0015542075007899,0.001554207747885,-0.0015542089588498,0.0015542062567109,-0.0017861021249205,0.0017860924923216,-0.0017860964554953,0.0017860984503952,-0.0015542094257968,0.0015542057613189,-4.7931252731366e-09,4.0903281248129e-09,-0.0009707299683819,0.0009707292628979,-1.1193245687483e-09,4.1633630671024e-10,-0.00064763787297557,0.00064762999616857,-0.00076953638621929,0.00076954014411033,-0.00076953932352629,0.00076953717819076,-0.00064763072493039,0.00064763722077894,-0.00064763951650926,0.00064762865168808,-0.00076953787781296,0.00076953862918032,-0.00076954087498364,0.00076953571594099,-0.0012757840574488,0.0012757798604473,-0.0012757835045595,0.0012757803663198,-0.0012757810776028,0.0012757828050979,-0.0012757805778072,0.0012757833648488,-0.0011817026718425,0.0011817111585506,-0.0011817114268017,0.0011817025114642,-0.001181711901391,0.0011817019873336,-0.0011817031977754,0.0011817106980745,-0.00064762925280476,0.00064763872257774,0.72889799679789,129794,2964,0.0046054485121162,0.0070490274780753,0.0040397766778246,37.197794922726,5.7582359381806e-05,5.7582359381806e-05,5.7582359381806e-05,3852888.1226213,0.015820961831629
38591759,0.96966695657159,0.015970286218855,0.0049260067085796,0.0064592916337809,0.0045849878764947,-0.001108904038328,0.0011089002546455,2.6028932865144e-09,-6.3605913468004e-09,9.063802845133e-10,-4.8416611543693e-09,-0.00045847151600542,0.0004584531765233,-0.00065523182484939,0.00065522523976348,-0.00065523480037877,0.00065522226258236,-0.00045845700828863,0.00045846763102101,-0.0004584657620756,0.00045845888601675,-0.00065522614784671,0.0006552308307246,-0.00065522912380315,0.00065522785816036,-0.0014237610501478,0.0014237622219423,-0.0014237640357658,0.0014237592199922,-0.0014237629826529,0.0014237603426271,-0.0014237659810342,0.0014237573552801,-0.0013037560195891,0.001303759150407,-0.0013037648088252,0.0013037503675539,-0.0013037540803935,0.0013037610751713,-0.0013037628630922,0.0013037522856098,-0.00045846276594727,0.00045846194069146,-4.6292818751458e-09,1.3396054756065e-09,-7.9676830453993e-10,-2.34665833708e-09,-0.0017024627293053,0.0017024595646289,-0.0015577756902984,0.0015577690912965,-0.0017904205184804,0.0017904119438456,-0.0017904148564285,0.0017904179114392,-0.0016447782076287,0.0016447736222288,-0.0016447787194505,0.001644773106488,-0.0016447763048662,0.001644775643173,-0.0016447768167394,0.0016447751248926,-0.0015577722575512,0.0015577725962728,-0.0015577737529566,0.0015577710694334,-0.0017904210315249,0.0017904114444244,-0.0017904153537947,0.0017904173961175,-0.001557774186544,0.0015577706080875,-4.8247209967729e-09,4.1320635202664e-09,-0.00097242713349591,0.00097242643749522,-1.1321224931243e-09,4.3834045355334e-10,-0.00064820031859604,0.00064819241640716,-0.00077076933601753,0.00077077315935744,-0.00077077229807065,0.00077077016984778,-0.00064819312978952,0.00064819967127125,-0.00064820199005005,0.00064819103417166,-0.00077077086263213,0.00077077160948889,-0.00077077388234093,0.00077076867033409,-0.0012785050667994,0.0012785008422606,-0.0012785045019342,0.0012785013595913,-0.001278502062,0.0012785038112964,-0.0012785015504716,0.0012785043828836,-0.0011841483357826,0.0011841569167902,-0.0011841571644903,0.0011841481997416,-0.0011841576506197,0.0011841476661115,-0.0011841488726972,0.0011841564464456,-0.00064819162692425,0.00064820120682825,0.74096371081152,129794,2964,0.0046147351529933,0.0070662900056237,0.0040468444688592,37.193781355156,5.7550250841247e-05,5.7550250841247e-05,5.7550250841247e-05,3843154.095627,0.015855128300143
38791759,0.97174494318596,0.016003847258029,0.0049361909461778,0.0064735815203213,0.0045940747915299,-0.0011109648737352,0.0011109610877866,2.6386972262287e-09,-6.3987533052729e-09,9.163037984744e-10,-4.854262892836e-09,-0.0004585457920846,0.00045852735542068,-0.0006560690515263,0.00065606246608572,-0.00065607205165745,0.00065605946421384,-0.0004585311910531,0.00045854190521649,-0.00045854001722706,0.00045853308922196,-0.00065606335389289,0.00065606808123469,-0.00065606635460835,0.00065606508454159,-0.0014267765587727,0.0014267777592595,-0.0014267795691483,0.0014267747327114,-0.001426778495852,0.0014267758721972,-0.0014267815189768,0.00142677286012,-0.0013064612365913,0.0013064644298918,-0.0013064700986021,0.0013064555744649,-0.001306459289655,0.001306466361758,-0.00130646814553,0.0013064575003991,-0.00045853696966914,0.00045853619145213,-4.6136768003995e-09,1.3816134163736e-09,-7.4568797947571e-10,-2.3460546256673e-09,-0.0017064495323241,0.0017064464199496,-0.0015611738508865,0.0015611672428881,-0.0017946043616971,0.001794595829597,-0.00179459867165,0.0017946018267031,-0.0016486234858262,0.0016486189587088,-0.001648624013441,0.0016486184261152,-0.0016486215738721,0.0016486209892472,-0.0016486221016202,0.0016486204541583,-0.0015611703591663,0.00156117080941,-0.0015611719037118,0.0015611692325342,-0.0017946048904325,0.001794595313226,-0.0017945991851311,0.0017946012950864,-0.0015611722982518,0.0015611688100081,-4.8560695463425e-09,4.1758160926848e-09,-0.00097394727742599,0.00097394659400636,-1.1509186875366e-09,4.7050571575984e-10,-0.00064849977688867,0.00064849186463572,-0.00077181332261303,0.00077181723441177,-0.00077181631034118,0.0007718142205733,-0.00064849256482829,0.00064849914224958,-0.00064850149695384,0.00064849042881319,-0.00077181489979644,0.00077181563473468,-0.00077181794373779,0.00077181266966704,-0.0012810617272454,0.0012810574728295,-0.0012810611450874,0.0012810580072144,-0.0012810586971767,0.0012810604666661,-0.0012810581686509,0.0012810610555361,-0.0011864229433872,0.0011864316270401,-0.0011864318460502,0.0011864228367944,-0.0011864323491614,0.0011864222860599,-0.001186423498897,0.0011864311415223,-0.00064849100955211,0.00064850072691704,0.74287813639517,129794,2964,0.0046233147490649,0.0070827650228386,0.0040531779147738,37.19361602322,5.7548928185764e-05,5.7548928185764e-05,5.7548928185764e-05,3830827.8855246,0.015887032332907
38880000,0.97263343107649,0.016018220338329,0.0049405545267598,0.0064796977306848,0.0045979680808848,-0.0011118152695435,0.0011118114822405,2.6544884241713e-09,-6.4157944410603e-09,9.1968460347254e-10,-4.8592200328253e-09,-0.00045850613435961,0.00045848765592413,-0.00065638453259261,0.0006563779480209,-0.00065638754361816,0.00065637493519451,-0.00045849149338495,0.00045850224649525,-0.00045850035216256,0.00045849339890827,-0.00065637882688994,0.0006563835718916,-0.00065638183881003,0.00065638056460457,-0.0014280762743879,0.0014280774866331,-0.0014280792957787,0.0014280744491767,-0.0014280782126945,0.0014280755966308,-0.0014280812467861,0.0014280725735981,-0.0013076091831452,0.0013076124048072,-0.0013076180772135,0.0013076035169672,-0.0013076072336952,0.0013076143394017,-0.0013076161218693,0.0013076054459463,-0.00045849727995035,0.00045849652420615,-4.6052716131134e-09,1.3975225909493e-09,-7.1965660358402e-10,-2.3508424038452e-09,-0.0017081902609563,0.0017081871703042,-0.0015626409931689,0.001562634372272,-0.0017963791249458,0.0017963706175451,-0.0017963734265456,0.001796376623614,-0.00165031164923,0.0016503071508069,-0.0016503121864201,0.0016503066077856,-0.0016503097347677,0.0016503091842753,-0.001650310272114,0.0016503086388008,-0.0015626374675512,0.0015626379727013,-0.0015626390428137,0.0015626363658509,-0.0017963796633687,0.001796370090791,-0.0017963739498509,0.001796376081804,-0.0015626394101897,0.0015626359698845,-4.8688732654808e-09,4.1959344282305e-09,-0.00097453343387541,0.00097453275784084,-1.1623204273261e-09,4.8967993727305e-10,-0.00064845704168848,0.00064844913521322,-0.00077219169308165,0.00077219565319259,-0.00077219469215052,0.00077219262915235,-0.000648449826229,0.00064845641293608,-0.00064845878918857,0.00064844766621077,-0.00077219330018696,0.00077219402327534,-0.00077219635453445,0.00077219104694508,-0.0012821482786916,0.0012821440100892,-0.0012821476863509,0.001282144555052,-0.0012821452375638,0.0012821470148328,-0.0012821446989718,0.0012821476144225,-0.0011873652673356,0.0011873740005198,-0.0011873742036549,0.0011873651794221,-0.0011873747153204,0.0011873646172457,-0.0011873658339422,0.0011873735062733,-0.00064844824058819,0.0006484580276562,0.74369371242058,129794,2964,0.0046268570700863,0.0070899564994145,0.0040556224486039,37.193609155902,5.7548873247215e-05,5.7548873247215e-05,5.7548873247215e-05,3823780.1142975,0.015900428312731
