time,ASR_ext,ASR_strain,ASR_strain_xx,ASR_strain_yy,ASR_strain_zz,disp_x_101,disp_x_102,disp_x_103,disp_x_104,disp_x_105,disp_x_106,disp_x_p10_neg,disp_x_p10_pos,disp_x_p11_neg,disp_x_p11_pos,disp_x_p12_neg,disp_x_p12_pos,disp_x_p13_neg,disp_x_p13_pos,disp_x_p14_neg,disp_x_p14_pos,disp_x_p15_neg,disp_x_p15_pos,disp_x_p16_neg,disp_x_p16_pos,disp_x_p1_neg,disp_x_p1_pos,disp_x_p2_neg,disp_x_p2_pos,disp_x_p3_neg,disp_x_p3_pos,disp_x_p4_neg,disp_x_p4_pos,disp_x_p5_neg,disp_x_p5_pos,disp_x_p6_neg,disp_x_p6_pos,disp_x_p7_neg,disp_x_p7_pos,disp_x_p8_neg,disp_x_p8_pos,disp_x_p9_neg,disp_x_p9_pos,disp_y_101,disp_y_102,disp_y_103,disp_y_104,disp_y_105,disp_y_106,disp_y_p10_neg,disp_y_p10_pos,disp_y_p11_neg,disp_y_p11_pos,disp_y_p12_neg,disp_y_p12_pos,disp_y_p1_neg,disp_y_p1_pos,disp_y_p2_neg,disp_y_p2_pos,disp_y_p3_neg,disp_y_p3_pos,disp_y_p4_neg,disp_y_p4_pos,disp_y_p5_neg,disp_y_p5_pos,disp_y_p6_neg,disp_y_p6_pos,disp_y_p7_neg,disp_y_p7_pos,disp_y_p8_neg,disp_y_p8_pos,disp_y_p9_neg,disp_y_p9_pos,disp_z_101,disp_z_102,disp_z_103,disp_z_104,disp_z_105,disp_z_106,disp_z_p10_neg,disp_z_p10_pos,disp_z_p11_neg,disp_z_p11_pos,disp_z_p12_neg,disp_z_p12_pos,disp_z_p13_neg,disp_z_p13_pos,disp_z_p14_neg,disp_z_p14_pos,disp_z_p15_neg,disp_z_p15_pos,disp_z_p16_neg,disp_z_p16_pos,disp_z_p1_neg,disp_z_p1_pos,disp_z_p2_neg,disp_z_p2_pos,disp_z_p3_neg,disp_z_p3_pos,disp_z_p4_neg,disp_z_p4_pos,disp_z_p5_neg,disp_z_p5_pos,disp_z_p6_neg,disp_z_p6_pos,disp_z_p7_neg,disp_z_p7_pos,disp_z_p8_neg,disp_z_p8_pos,disp_z_p9_neg,disp_z_p9_pos,humidity,ndof,nelem,strain_xx,strain_yy,strain_zz,temp,thermal_strain_xx,thermal_strain_yy,thermal_strain_zz,vonmises,vstrain
14391759,0,0,0,0,0,0,0,0,0,0,0,0,0,0,0,0,0,0,0,0,0,0,0,0,0,0,0,0,0,0,0,0,0,0,0,0,0,0,0,0,0,0,0,0,0,0,0,0,0,0,0,0,0,0,0,0,0,0,0,0,0,0,0,0,0,0,0,0,0,0,0,0,0,0,0,0,0,0,0,0,0,0,0,0,0,0,0,0,0,0,0,0,0,0,0,0,0,0,0,0,0,0,0,0,0,0,0,0,0,0,0,0,0,0,0,0,0,0,0,0,0,0,0
14591759,0.019287191299588,0.00033908309211765,0.00011302769737255,0.00011302769737255,0.00011302769737255,-2.9189002167937e-05,2.9194263247467e-05,2.6134906523512e-09,2.6137745456325e-09,-5.1283162184313e-09,1.0609497411651e-08,-2.6285362973838e-05,2.6306383704193e-05,-2.7546723272194e-05,2.7567681315611e-05,-2.7546717867138e-05,2.7567675862976e-05,-2.6300915565581e-05,2.6290558504386e-05,-2.6300949766301e-05,2.6290593333206e-05,-2.7562052993322e-05,2.7551957703574e-05,-2.7562068659788e-05,2.7551973884112e-05,-3.0332539686201e-05,3.0332600439764e-05,-3.0332548020045e-05,3.0332609155223e-05,-3.0327515480274e-05,3.033785699775e-05,-3.0327513765437e-05,3.0337855237136e-05,-2.85385429943e-05,2.8548978573292e-05,-2.8538545090158e-05,2.8548981377996e-05,-2.8543730333862e-05,2.8543686574641e-05,-2.8543754634722e-05,2.8543711626867e-05,-2.6285372814839e-05,2.6306393000548e-05,5.147407059199e-09,-1.0593001702707e-08,1.2285556440566e-10,-5.3289436945387e-09,-3.0286589352767e-05,3.0281356685372e-05,-2.9324522492145e-05,2.9319232980107e-05,-2.9461199660504e-05,2.9473154261683e-05,-2.9476525884578e-05,2.9457412601092e-05,-3.0555880245554e-05,3.0557636094252e-05,-3.0557629919648e-05,3.0555808128697e-05,-3.0560904910783e-05,3.0552379157463e-05,-3.0562655156394e-05,3.0550550646595e-05,-2.9324445095536e-05,2.9319370711649e-05,-2.9329727488621e-05,2.931395444373e-05,-2.9462994103238e-05,2.9471332118362e-05,-2.9478320872792e-05,2.9455589310521e-05,-2.9319241059643e-05,2.9324648007618e-05,8.9548327060824e-10,8.9530965410776e-10,-2.8300048103432e-05,2.8301849450244e-05,-1.7585938167593e-09,3.6336725603302e-09,-2.5932234129864e-05,2.5939410285523e-05,-2.6742537111196e-05,2.6749703359124e-05,-2.674252971207e-05,2.6749696097756e-05,-2.5937651867752e-05,2.59341250309e-05,-2.5937618996723e-05,2.5934092613346e-05,-2.6747880849878e-05,2.674442721183e-05,-2.6747869420669e-05,2.6744415942501e-05,-2.9690805691922e-05,2.9690797935021e-05,-2.9689006697056e-05,2.9692576714926e-05,-2.969081568175e-05,2.9690808041153e-05,-2.9689018050164e-05,2.9692587736527e-05,-2.8125401175371e-05,2.8128987304994e-05,-2.8125349418033e-05,2.8128936141399e-05,-2.8127175024415e-05,2.8127151648232e-05,-2.812721931131e-05,2.8127196111507e-05,-2.5932267147684e-05,2.5939443298606e-05,0.70642003678301,129794,2964,0.00012162432699995,0.0001261751599481,0.00011791359934351,31.354609380994,1.0836875047948e-05,1.0836875047948e-05,1.0836875047948e-05,613757.83123706,0.00036578035374951
14791759,0.038364591798558,0.00066422808270048,0.00022136852283308,0.00022340628239595,0.00021945327747145,-5.4121753720823e-05,5.4123135900897e-05,6.7069294107228e-10,6.9918190609219e-10,-1.4506289775562e-09,2.9758603346804e-09,-4.7040853187388e-05,4.7046768734629e-05,-5.0170913776945e-05,5.0176771280327e-05,-5.0170900740261e-05,5.0176778199634e-05,-4.7045251410598e-05,4.7042219897856e-05,-4.7045266145881e-05,4.7042284646566e-05,-5.017517476237e-05,5.0172304417416e-05,-5.0175185910569e-05,5.0172332553579e-05,-5.7550373635109e-05,5.755026483143e-05,-5.7550370767215e-05,5.7550280484205e-05,-5.7549008714281e-05,5.7551758630995e-05,-5.7548995436623e-05,5.755176469637e-05,-5.2421800404825e-05,5.2424608121483e-05,-5.2421769045484e-05,5.2424634252268e-05,-5.2423252554754e-05,5.2423097079654e-05,-5.2423244861028e-05,5.2423144064894e-05,-4.7040892550866e-05,4.7046748301439e-05,9.2300067590226e-10,-3.520587226855e-09,7.4093787473635e-10,-3.2146704193253e-09,-5.6656210904194e-05,5.6653726408078e-05,-5.4175046724355e-05,5.4170195707426e-05,-5.4602580369507e-05,5.4605695154514e-05,-5.4606840951244e-05,5.4601195070314e-05,-5.8114811698712e-05,5.8115087947127e-05,-5.8116066432724e-05,5.8113756361098e-05,-5.8116178820923e-05,5.8113595028243e-05,-5.8117433243263e-05,5.8112263736569e-05,-5.417268934093e-05,5.4172628882617e-05,-5.4176502226867e-05,5.4168684425916e-05,-5.4603875389236e-05,5.4604366521013e-05,-5.460813555701e-05,5.459986736867e-05,-5.4171232983713e-05,5.4174140870989e-05,7.2312054385516e-10,6.9108545962609e-10,-5.2007192167129e-05,5.2008615111865e-05,-1.1969354048282e-09,2.6972914247228e-09,-4.6275221050003e-05,4.6280578314735e-05,-4.8212329534241e-05,4.8217637391365e-05,-4.8212308475614e-05,4.8217636362347e-05,-4.6279179915381e-05,4.6276719477565e-05,-4.6279111756559e-05,4.6276719293297e-05,-4.8216187166322e-05,4.8213825489829e-05,-4.8216154790608e-05,4.8213816013967e-05,-5.5919132006795e-05,5.5919250967547e-05,-5.591784080093e-05,5.5920539442173e-05,-5.5919150385395e-05,5.5919247672967e-05,-5.5917856948877e-05,5.5920534681391e-05,-5.1508687730446e-05,5.1511369048922e-05,-5.1508641609745e-05,5.1511384584285e-05,-5.1509955182273e-05,5.151008564986e-05,-5.151000138314e-05,5.1510067689967e-05,-4.6275272475366e-05,4.628057073394e-05,0.70581019256541,129794,2964,0.00022548433113861,0.00023603389532321,0.00021667577229994,31.086722984392,8.6937838751351e-06,8.6937838751351e-06,8.6937838751351e-06,1238519.5311114,0.0006784264282267
14991759,0.056227390803867,0.0009594962917063,0.00031981412072366,0.00032491035324197,0.00031477181774067,-7.572872413451e-05,7.572774892322e-05,-5.0930242382232e-10,-4.5012403436164e-10,8.6963171474144e-10,-1.7957229607638e-09,-6.3833868193785e-05,6.3830374262654e-05,-6.8305520183298e-05,6.8301950689645e-05,-6.830549658183e-05,6.8301972419454e-05,-6.3831269514893e-05,6.3832928722549e-05,-6.3831244965321e-05,6.3833000927477e-05,-6.8302879912943e-05,6.830456412972e-05,-6.8302871674792e-05,6.8304588943215e-05,-8.1774719147418e-05,8.1774592068836e-05,-8.177470076102e-05,8.1774611134854e-05,-8.1775646585391e-05,8.1773717515056e-05,-8.1775620284434e-05,8.1773732321923e-05,-7.38877121903e-05,7.3885808462011e-05,-7.3887635371815e-05,7.3885853469516e-05,-7.3886820633266e-05,7.3886672641127e-05,-7.3886767073939e-05,7.3886729354265e-05,-6.3833942421127e-05,6.3830313382052e-05,-1.5847848883617e-09,1.0757944811103e-09,1.0231558679027e-09,-1.518056077238e-09,-8.0488408921427e-05,8.0487926794446e-05,-7.7465472254282e-05,7.7461609774561e-05,-7.8215341476759e-05,7.8213070037622e-05,-7.8212688210813e-05,7.8215644006646e-05,-8.2214308050857e-05,8.2213766460241e-05,-8.2215095497148e-05,8.2212906211455e-05,-8.2213383333166e-05,8.2214647263664e-05,-8.2214168954513e-05,8.221378883771e-05,-7.7462148984444e-05,7.7465031485012e-05,-7.7464580041769e-05,7.7462480616267e-05,-7.82161734641e-05,7.8212206575768e-05,-7.8213514963638e-05,7.8214785608825e-05,-7.746303587712e-05,7.7464165943799e-05,5.7436656931198e-10,5.1298146393017e-10,-7.2108396876841e-05,7.2109483876109e-05,-6.7314176244331e-10,1.8253946567386e-09,-6.2384076666452e-05,6.2387734951286e-05,-6.496877945801e-05,6.4972362189317e-05,-6.4968757311329e-05,6.4972374940758e-05,-6.2386618824402e-05,6.2385187291501e-05,-6.2386546285319e-05,6.2385253946646e-05,-6.4971225027809e-05,6.4969886306545e-05,-6.4971199437396e-05,6.4969907879533e-05,-7.906800079588e-05,7.9068258531291e-05,-7.9067182146618e-05,7.9069087552544e-05,-7.9068018642031e-05,7.9068233540447e-05,-7.9067198751432e-05,7.9069064954348e-05,-7.1923596025222e-05,7.1925453665551e-05,-7.1923571799747e-05,7.1925544013746e-05,-7.1924403158255e-05,7.1924702394197e-05,-7.1924442727145e-05,7.1924616170726e-05,-6.2384126565771e-05,6.2387683650712e-05,0.70496389257735,129794,2964,0.00031548385813489,0.00033530978456052,0.00030040838643616,30.085424664476,6.8339731580984e-07,6.8339731580984e-07,6.8339731580984e-07,1374102.0269512,0.00095166015857972
15191759,0.072466859194919,0.0012086428617627,0.00040274625254662,0.00041186081613466,0.00039403579308142,-9.3481972378291e-05,9.3480804092782e-05,-6.2280771468492e-10,-5.3354070715352e-10,1.2120230997763e-09,-2.3339393304761e-09,-7.4827276769909e-05,7.4822763921942e-05,-8.0790401410674e-05,8.0785768067819e-05,-8.079037113084e-05,8.078580010668e-05,-7.4823859774098e-05,7.4826129006215e-05,-7.4823795528059e-05,7.4826232526265e-05,-8.0786891527158e-05,8.0789232902545e-05,-8.0786868933847e-05,8.0789266654248e-05,-0.00010274906357813,0.00010274902447972,-0.00010274903209661,0.00010274905164978,-0.00010275027776875,0.00010274786030957,-0.00010275024136837,0.00010274788388515,-9.1642320140667e-05,9.1639892699714e-05,-9.1642210049833e-05,9.1639959765103e-05,-9.1641129749193e-05,9.1641054306738e-05,-9.1641038023817e-05,9.1641135221989e-05,-7.4827372721542e-05,7.4822677721317e-05,-2.0684351070472e-09,1.4804343889837e-09,5.9668266430979e-10,-1.1557735648486e-09,-0.00010112145954834,0.0001011209097789,-9.779851236681e-05,9.7795064278716e-05,-9.9301345097423e-05,9.9297861473321e-05,-9.9297817199621e-05,9.9301307304918e-05,-0.00010266208894316,0.00010266093114673,-0.00010266262033136,0.00010266033575831,-0.00010266088093923,0.00010266210852575,-0.00010266141154309,0.00010266151388455,-9.7795660858859e-05,9.7798003758423e-05,-9.7797326233439e-05,9.7796230295515e-05,-9.930191400548e-05,9.9297261210277e-05,-9.9298384066739e-05,9.9300708785422e-05,-9.779684463724e-05,9.7796839812002e-05,4.8935619312071e-10,3.9799801736759e-10,-8.8267408180709e-05,8.8268291799305e-05,-3.868210366965e-10,1.3283907467393e-09,-7.2793346173516e-05,7.2796061317795e-05,-7.6346673401644e-05,7.6349265205751e-05,-7.634663856971e-05,7.6349288481619e-05,-7.2795148744557e-05,7.2794268646362e-05,-7.2795056685304e-05,7.2794362447831e-05,-7.6348351744069e-05,7.6347568312275e-05,-7.6348316959218e-05,7.6347597485349e-05,-9.890569125586e-05,9.8906016583947e-05,-9.8905129532132e-05,9.8906582783188e-05,-9.890571958809e-05,9.8905983105741e-05,-9.8905159884543e-05,9.8906552898821e-05,-8.8627301661597e-05,8.8628664946711e-05,-8.8627228095338e-05,8.8628768071935e-05,-8.8627811937331e-05,8.8628199908957e-05,-8.8627876165211e-05,8.8628082871269e-05,-7.2793440141047e-05,7.2795983673706e-05,0.66036287146985,129794,2964,0.00038942917259704,0.00042124719644624,0.00036771494073588,28.683487706305,-1.0532098349559e-05,-1.0532098349559e-05,-1.0532098349559e-05,1474500.520526,0.0011790974251878
15391759,0.087187114787151,0.0014609289244005,0.00048662485879686,0.00050036835371499,0.00047393571188868,-0.0001111045370155,0.00011110330545569,-6.7118119672442e-10,-5.5184508449676e-10,1.3716317648521e-09,-2.5576842808575e-09,-8.7724384660321e-05,8.7719463033227e-05,-9.469881328103e-05,9.4693733171683e-05,-9.4698773318889e-05,9.4693775479211e-05,-8.7720628401702e-05,8.7723173173202e-05,-8.7720532503732e-05,8.7723304080488e-05,-9.4694932744969e-05,9.4697573909539e-05,-9.4694899064071e-05,9.469761683002e-05,-0.00012266259500883,0.00012266260853831,-0.00012266255316557,0.00012266264534374,-0.00012266392876399,0.00012266131535329,-0.00012266388285533,0.00012266134951492,-0.00010988150373271,0.00010987884906411,-0.00010988136893555,0.00010987895037667,-0.00010988018451089,0.00010988014414479,-0.00010988006575074,0.00010988025681256,-8.7724509375348e-05,8.7719346662805e-05,-2.206381125402e-09,1.7239963370928e-09,3.1906662959332e-10,-7.733926713271e-10,-0.00012157490277196,0.00012157445741557,-0.00011822655211006,0.00011822372784758,-0.00012066753277103,0.00012066356206758,-0.00012066363015136,0.00012066737846265,-0.00012244480124325,0.00012244340658261,-0.00012244512120943,0.00012244303227909,-0.00012244347125846,0.00012244470975588,-0.00012244379049853,0.00012244433619098,-0.00011822421498229,0.00011822614098926,-0.00011822523827614,0.00011822502246452,-0.00012066788435712,0.0001206631832253,-0.00012066397931944,0.00012066700166347,-0.00011822552615195,0.00011822484867213,4.4384999890136e-10,3.2250096479484e-10,-0.0001041656791606,0.0001041664426145,-1.2169663631288e-10,9.3619284215236e-10,-8.5153141894573e-05,8.5155113473188e-05,-8.9177173173592e-05,8.9178983204867e-05,-8.9177129612648e-05,8.9179017687751e-05,-8.5154326632963e-05,8.5153941186105e-05,-8.5154204157905e-05,8.5154063314658e-05,-8.9178205513218e-05,8.917793461709e-05,-8.9178159967135e-05,8.9177972992291e-05,-0.00011752965687835,0.00011753009269048,-0.00011752931262089,0.00011753044024395,-0.00011752969637374,0.00011753005025769,-0.00011752935404806,0.00011753040153223,-0.00010612329434453,0.00010612428870924,-0.00010612318111766,0.00010612441067678,-0.00010612354835786,0.00010612406546323,-0.00010612364715466,0.0001061239240408,-8.515326593308e-05,8.515500734169e-05,0.73442855753296,129794,2964,0.00046282576907319,0.00050643037426981,0.00043393200581153,27.270695226646,-2.1834438186834e-05,-2.1834438186834e-05,-2.1834438186834e-05,1263639.0947846,0.0014041882139016
15591759,0.10069757311242,0.0016987808851231,0.00056583240698701,0.00058409534064614,0.00054885313748993,-0.00012723484193127,0.00012723349804202,-7.4267828723959e-10,-5.9348357571576e-10,1.2734750780929e-09,-2.5748326435603e-09,-9.9945174678625e-05,9.9940249616696e-05,-0.0001078770486208,0.0001078719226061,-0.0001078769980217,0.00010787197650531,-9.9941529296727e-05,9.9943855795502e-05,-9.9941405219732e-05,9.9944009036125e-05,-0.00010787325016143,0.0001078756886299,-0.00010787320633102,0.00010787573862545,-0.00014083486081766,0.0001408347249115,-0.00014083480892518,0.00014083477061777,-0.00014083616276583,0.00014083345653132,-0.00014083610687141,0.00014083350151264,-0.000126578018688,0.00012657524641738,-0.00012657785450469,0.00012657537960998,-0.00012657672651478,0.00012657651960277,-0.00012657657889504,0.00012657665940771,-9.9945331736806e-05,9.9940099353943e-05,-2.1099602274134e-09,1.7397752384711e-09,1.4260860840261e-10,-4.8607032654016e-10,-0.00014022839481637,0.0001402280598598,-0.00013677772065216,0.00013677548785466,-0.00013998462927915,0.0001399806975591,-0.00013998080880521,0.00013998443407952,-0.0001405318341483,0.00014053042618213,-0.0001405320056503,0.00014053020673372,-0.00014053053541102,0.0001405317012415,-0.00014053070523887,0.00014053148345238,-0.00013677586013105,0.00013677741338941,-0.00013677643207215,0.0001367767573686,-0.00013998482973022,0.00013998047218922,-0.00013998100405608,0.00013998421383337,-0.000136777143097,0.0001367761490494,3.9170707813005e-10,2.4014898880074e-10,-0.00011861705981594,0.00011861768848606,3.6684460971149e-11,6.3653931642668e-10,-9.6985074444498e-05,9.6986479654526e-05,-0.000101117934841,0.00010111914544745,-0.00010111788297433,0.00010111918890895,-9.6985834789595e-05,9.6985732301569e-05,-9.6985678564114e-05,9.698588771803e-05,-0.00010111851852242,0.0001011185485874,-0.00010111846162942,0.00010111859814505,-0.00013435449542439,0.00013435496062762,-0.0001343543032634,0.00013435515566116,-0.00013435454568179,0.00013435490787234,-0.00013435435457259,0.00013435510763237,-0.00012210438663695,0.00012210506561606,-0.00012210424202359,0.00012210521267766,-0.00012210445518544,0.00012210502253715,-0.00012210458613215,0.00012210485124644,-9.6985223622905e-05,9.6986347653028e-05,0.74589761276406,129794,2964,0.00053000259560339,0.00058411088823791,0.00049411911192956,26.025568843163,-3.1795449254695e-05,-3.1795449254695e-05,-3.1795449254695e-05,1287936.5778014,0.0016095450064071
15791759,0.11388605900956,0.0019437842571509,0.00064743541763683,0.00067060046635761,0.00062574837315647,-0.00014514828147161,0.00014514684152389,-8.0614555924035e-10,-6.2569555262889e-10,1.0818096305135e-09,-2.4831377213912e-09,-0.00011508081924407,0.0001150760728833,-0.00012379673363324,0.00012379178411909,-0.00012379668350976,0.00012379183956553,-0.00011507748075585,0.00011507937311754,-0.00011507729668771,0.00011507958336471,-0.00012379322059524,0.00012379526038974,-0.00012379315731807,0.00012379532929478,-0.00016045259754175,0.0001604522586611,-0.00016045253192153,0.00016045231732249,-0.00016045380026842,0.00016045108689738,-0.0001604537370475,0.00016045113945659,-0.00014533305215436,0.00014533025809203,-0.0001453328649126,0.00014533041199138,-0.00014533186584754,0.00014533143083847,-0.00014533167669681,0.0001453316087548,-0.00011508097752836,0.00011507592010027,-1.9439839890206e-09,1.6210206750614e-09,5.4050943494473e-11,-3.4709089683803e-10,-0.00016067270677694,0.00016067242079518,-0.00015715482742624,0.00015715297334713,-0.0001609405752341,0.00016093688588489,-0.00016093703098416,0.00016094035365855,-0.00016036414679821,0.00016036280749084,-0.00016036424345416,0.00016036266682604,-0.00016036294359856,0.00016036398986226,-0.00016036304402935,0.0001603638453824,-0.00015715328174525,0.00015715457583082,-0.00015715364063276,0.00015715413827263,-0.00016094069163962,0.00016093674273204,-0.0001609371587815,0.00016094020121914,-0.00015715447740648,0.00015715339919023,3.6226644433646e-10,1.8180668664376e-10,-0.00013468600928758,0.00013468654966021,1.0990320299422e-10,4.7112995252083e-10,-0.00011173642970552,0.00011173756271896,-0.00011553978635702,0.00011554065154966,-0.00011553971486936,0.00011554071192738,-0.00011173697874441,0.00011173702244605,-0.0001117368243673,0.00011173718063908,-0.00011554012792084,0.0001155403017558,-0.00011554007157502,0.00011554035192955,-0.00015246088368655,0.00015246134730777,-0.0001524607670841,0.00015246146528872,-0.00015246094058704,0.00015246128766018,-0.00015246083123884,0.00015246140515777,-0.00013997712859859,0.00013997760393148,-0.00013997694788175,0.00013997778909503,-0.00013997708806562,0.00013997766866745,-0.00013997723781751,0.0001399774757167,-0.00011173663365928,0.00011173737542013,0.7851288212752,129794,2964,0.00060460047006196,0.00066924218533384,0.0005610391851604,25.604185665531,-3.5166514675753e-05,-3.5166514675753e-05,-3.5166514675753e-05,1318023.5677026,0.0018365866087523
15991759,0.12677529315008,0.0021815366926408,0.00072662433222083,0.00075511266120154,0.00069979969921843,-0.0001626199834256,0.00016261849929538,-8.4361042494971e-10,-6.3366989048893e-10,8.3818601879395e-10,-2.2833876609126e-09,-0.0001294064353818,0.00012940212239864,-0.00013919667885459,0.00013919210793044,-0.00013919661344869,0.00013919217714564,-0.00012940356259102,0.00012940495959998,-0.00012940336203634,0.00012940518483365,-0.00013919359987266,0.00013919515431795,-0.00013919352953086,0.00013919522816881,-0.00017966399428889,0.00017966345575168,-0.00017966392029898,0.00017966352294862,-0.00017966505003468,0.00017966243009568,-0.0001796649758825,0.00017966249439341,-0.00016367323963431,0.00016367051226722,-0.00016367302058123,0.00016367070152708,-0.00016367219425968,0.0001636715428011,-0.00016367198242439,0.00016367174557312,-0.00012940663584366,0.00012940192659537,-1.7303566365793e-09,1.3938007996691e-09,-2.3246830318857e-11,-2.8172379889645e-10,-0.00018081642415917,0.00018081612583326,-0.00017704700897667,0.00017704542515994,-0.0001814888709704,0.00018148556197173,-0.00018148576291087,0.00018148858887797,-0.00017991229035508,0.00017991104083737,-0.00017991234367673,0.00017991094621483,-0.00017991123567285,0.00017991207473621,-0.0001799112905529,0.0001799119786671,-0.0001770457520355,0.00017704674216847,-0.0001770459671835,0.00017704644860948,-0.00018148894501239,0.00018148546323612,-0.00018148584008732,0.00018148848779907,-0.00017704679546491,0.00017704571554019,3.4704169584787e-10,1.3598396284945e-10,-0.00015020574038648,0.00015020622014562,1.458040757102e-10,3.7321830690693e-10,-0.00012586492259994,0.00012586587904354,-0.00012942160647982,0.00012942227239218,-0.00012942152917315,0.00012942234002097,-0.00012586537013931,0.00012586544276401,-0.0001258651742838,0.00012586564480018,-0.00012942181932806,0.00012942205027025,-0.00012942175077636,0.00012942211738562,-0.00017006425061302,0.00017006470980628,-0.00017006417900619,0.00017006478148573,-0.00017006431900806,0.00017006463879216,-0.00017006425292421,0.0001700647131973,-0.0001572600299401,0.00015726037277045,-0.00015725981873329,0.00015726057958286,-0.00015725991336787,0.00015726051080282,-0.00015726009784747,0.00015726028576246,-0.00012586514515376,0.0001258656746113,0.77894718107221,129794,2964,0.00067735374328129,0.00075311451481206,0.00062566815900373,25.204137446299,-3.836690042961e-05,-3.836690042961e-05,-3.836690042961e-05,1387043.7424172,0.0020582742922089
16191759,0.13936130368805,0.0024113348347139,0.00080322667973597,0.00083742656845846,0.00077068158651951,-0.00017954410560895,0.00017954260553729,-8.6703147749675e-10,-6.2702462629866e-10,5.9272070001742e-10,-2.0532362138739e-09,-0.00014277000722219,0.00014276617604721,-0.00015398896064295,0.00015398483125373,-0.0001539888846964,0.00015398491053723,-0.00014276763212481,0.00014276851550712,-0.00014276740231105,0.00014276876907083,-0.00015398634835238,0.00015398740971502,-0.00015398626789526,0.00015398749300053,-0.00019837204900282,0.00019837132721698,-0.000198371965118,0.00019837140435,-0.00019837294744601,0.00019837045995759,-0.00019837286342001,0.00019837053465098,-0.0001814232573452,0.00018142064084091,-0.00018142300929156,0.00018142086053179,-0.00018142236919496,0.00018142151396607,-0.00018142212856661,0.00018142174622162,-0.00014277023719469,0.00014276594958006,-1.5218158495631e-09,1.1290331847149e-09,-8.8488645344299e-11,-2.686911711355e-10,-0.00020053452203954,0.00020053417045087,-0.00019634190372693,0.0001963405029613,-0.0002015521461619,0.00020154922342979,-0.00020154950326276,0.00020155178253556,-0.00019905887958681,0.00019905770923327,-0.0001990589088288,0.00019905764031869,-0.00019905798220108,0.00019905858524261,-0.00019905801270694,0.00019905851507683,-0.00019634088237937,0.00019634158562169,-0.00019634101992724,0.00019634136880635,-0.00020155219449976,0.00020154915061818,-0.00020154955433873,0.00020155170758714,-0.00019634176766831,0.00019634071714245,3.4300980103695e-10,1.0190326475609e-10,-0.00016506780538778,0.00016506824737069,1.6545055064796e-10,3.1511497756702e-10,-0.000139015359492,0.00013901622951387,-0.00014259369851709,0.00014259424008597,-0.00014259361124538,0.00014259431740444,-0.00013901576088795,0.00013901584271845,-0.00013901553563936,0.00013901607507834,-0.00014259383595286,0.00014259409578508,-0.00014259375847698,0.00014259417457758,-0.0001870913140582,0.00018709177148824,-0.00018709126790412,0.00018709181689461,-0.00018709139275405,0.00018709169062761,-0.00018709135233292,0.00018709173918265,-0.00017386022581711,0.0001738604751949,-0.00017385998277578,0.00017386070862442,-0.00017386005265675,0.00017386066738598,-0.00017386026710851,0.00017386041324881,-0.00013901561187386,0.00013901599672678,0.77198524391256,129794,2964,0.00074782211623505,0.00083520777362138,0.00068755494735298,24.804958274051,-4.156033380759e-05,-4.156033380759e-05,-4.156033380759e-05,1472152.9473198,0.0022731898567455
16391759,0.15168111314986,0.002636723344728,0.00087833774840524,0.00091879750271102,0.0008395880936117,-0.00019617828002079,0.00019617676469237,-8.8980081615909e-10,-6.1953193068066e-10,3.6435165316739e-10,-1.8408355524948e-09,-0.00015570130171517,0.00015569790896869,-0.00016838272017275,0.00016837899818508,-0.00016838263662497,0.00016837908551948,-0.00015569938578326,0.00015569978471195,-0.00015569912163434,0.00015570007340708,-0.00016838053735203,0.00016838113698685,-0.00016838044550671,0.00016838123244923,-0.00021680776446013,0.00021680687104652,-0.00021680767003411,0.00021680695882609,-0.00021680851691131,0.00021680615171935,-0.00021680842340185,0.0002168062361034,-0.00019893329515797,0.00019893078174017,-0.00019893301876152,0.00019893102975576,-0.00019893255524087,0.00019893150786523,-0.00019893228351808,0.00019893177183072,-0.00015570155415206,0.00015569765853448,-1.3403306966628e-09,8.7079119959111e-10,-1.4026656228828e-10,-2.8830236461558e-10,-0.00022010361989865,0.00022010319598517,-0.00021548927240878,0.00021548798035183,-0.00022151084082716,0.00022150826199049,-0.00022150863123316,0.00022151039082848,-0.0002180171637957,0.00021801605817883,-0.00021801718302984,0.00021801600009419,-0.00021801641215348,0.00021801678798131,-0.00021801643340128,0.00021801672788273,-0.00021548843013282,0.00021548888426146,-0.00021548853625915,0.00021548869823822,-0.00022151087686257,0.00022150819931129,-0.00022150867200696,0.00022151032548009,-0.00021548916843033,0.00021548816184468,3.4842363287375e-10,7.7443543263207e-11,-0.00017954561390701,0.0001795460369759,1.7359118146877e-10,2.8778539339491e-10,-0.00015173970166712,0.00015174055217306,-0.00015537053756283,0.00015537101305594,-0.00015537043823668,0.00015537110148775,-0.00015174009431548,0.0001517401682041,-0.00015173984772974,0.00015174042726184,-0.00015537063833881,0.00015537090655715,-0.00015537055409881,0.00015537099391189,-0.00020376952646115,0.00020376998616486,-0.00020376949092923,0.00020377001967509,-0.00020376961461472,0.00020376989585844,-0.00020376958625785,0.0002037699318995,-0.00019017138456565,0.00019017157252455,-0.00019017110978532,0.00019017183554374,-0.00019017116940945,0.00019017180506058,-0.00019017141130535,0.00019017152237774,-0.00015173998736504,0.00015174028425423,0.77561769773462,129794,2964,0.00081707867662607,0.00091667401971183,0.00074783848482795,24.447665512343,-4.4418675901255e-05,-4.4418675901255e-05,-4.4418675901255e-05,1559900.5013995,0.0024847010147585
16591759,0.16382992472136,0.0028662784078173,0.00095467174737687,0.0010023439569916,0.00090926270344886,-0.00021314284281395,0.00021314129952036,-9.1874244350488e-10,-6.1870486174117e-10,1.638967426626e-10,-1.6691913984883e-09,-0.00016914893230935,0.00016914591317001,-0.00018328526750416,0.00018328186943615,-0.00018328517164347,0.00018328196891295,-0.00016914741123725,0.00016914739272606,-0.00016914712483746,0.00016914770418165,-0.0001832834463948,0.00018328364387737,-0.00018328334732166,0.00018328374735742,-0.00023547355425118,0.00023547250099669,-0.00023547345097412,0.00023547259815613,-0.00023547418505249,0.00023547190518929,-0.00023547408091064,0.00023547200049653,-0.00021702510793103,0.00021702265882892,-0.00021702480061712,0.00021702293913515,-0.00021702448920615,0.00021702326331884,-0.00021702419163359,0.00021702355455703,-0.00016914922056243,0.00016914562650089,-1.1894274133163e-09,6.5379139423474e-10,-1.7460177590508e-10,-3.1666040556481e-10,-0.00024020661344035,0.0002402061257684,-0.00023531298225794,0.00023531175497806,-0.00024214469952582,0.0002421424179149,-0.00024214285489691,0.00024214418309267,-0.00023735174947085,0.00023735070205043,-0.00023735176839724,0.00023735064472993,-0.00023735112158354,0.00023735130885482,-0.00023735114099313,0.00023735125114475,-0.00023531227064267,0.00023531253115694,-0.00023531236697658,0.00023531235234057,-0.00024214473549286,0.00024214235474204,-0.00024214289089203,0.00024214412189757,-0.00023531288318454,0.00023531193403012,3.6374666090868e-10,6.2410386684939e-11,-0.0001942375921311,0.00019423801587616,1.7471305972235e-10,2.8796185089177e-10,-0.00016504128014843,0.00016504215358228,-0.00016860694214142,0.00016860741002929,-0.00016860683421381,0.00016860750582065,-0.00016504170300324,0.00016504174165663,-0.00016504142102474,0.00016504203745673,-0.00016860704465389,0.00016860730309864,-0.00016860694958189,0.00016860740435325,-0.0002205860714162,0.00022058654272432,-0.00022058603668379,0.00022058657487226,-0.00022058617030275,0.00022058644145668,-0.00022058614171484,0.00022058647807575,-0.00020698176390005,0.00020698192416925,-0.00020698146064791,0.000206982214004,-0.00020698151824811,0.00020698218624934,-0.00020698179208865,0.0002069818716768,-0.00016504158967746,0.00016504186300816,0.8031541254361,129794,2964,0.00088770621201773,0.0010003560812259,0.00080901060738654,24.193127548259,-4.6454979613929e-05,-4.6454979613929e-05,-4.6454979613929e-05,1642784.5171798,0.0027007435287247
16791759,0.17580747756764,0.0030928733895703,0.0010298261654111,0.00108560924599,0.0009774379781692,-0.00022985799172817,0.00022985642745787,-9.4452359625395e-10,-6.1429615367418e-10,-6.7436765000179e-12,-1.5198359531725e-09,-0.00018198496255009,0.0001819822648102,-0.00019760453013888,0.00019760141558821,-0.00019760442439296,0.00019760152425866,-0.00018198378624016,0.00018198339927195,-0.00018198346822954,0.00018198374275942,-0.00019760302350758,0.00019760287486122,-0.00019760291369383,0.0001976029893542,-0.00025397618825686,0.00025397499809376,-0.00025397607478189,0.00025397510584086,-0.00025397671367644,0.00025397450955795,-0.00025397659994488,0.00025397461472966,-0.00023498150297536,0.0002349791101928,-0.00023498116799324,0.00023497941974758,-0.00023498099119095,0.00023497960671819,-0.0002349806638543,0.00023497992926658,-0.00018198527804173,0.00018198195024892,-1.0622197578714e-09,4.6258940591982e-10,-2.046497532918e-10,-3.481868088041e-10,-0.00026031167255825,0.00026031112257178,-0.00025519421707448,0.00025519303476689,-0.00026295295978876,0.00026295092781261,-0.00026295142684632,0.00026295238084055,-0.00025657613069874,0.00025657512733454,-0.00025657615042409,0.00025657506952064,-0.0002565756086936,0.00025657562881176,-0.00025657562936886,0.00025657557002866,-0.00025519361273625,0.00025519370776914,-0.00025519371000264,0.0002551935251931,-0.00026295299487371,0.00026295086567482,-0.00026295146423781,0.00026295231780485,-0.0002551941198025,0.00025519321559897,3.807077166654e-10,4.9448650061507e-11,-0.00020859290969814,0.00020859333790263,1.7793711498795e-10,2.899700526499e-10,-0.00017777634220253,0.00017777725104334,-0.00018130914483253,0.00018130960620254,-0.00018130902596751,0.00018130971270076,-0.00017777679481985,0.00017777681196392,-0.00017777648612633,0.00017777713477128,-0.00018130924544809,0.00018130950150739,-0.00018130914237239,0.00018130961349199,-0.00023718609994904,0.00023718658557728,-0.00023718606530117,0.00023718661761168,-0.0002371862085439,0.00023718647470208,-0.00023718618086392,0.00023718651068654,-0.00022355867722416,0.00022355881066163,-0.00022355834288622,0.00022355912976634,-0.00022355840144464,0.00022355910190263,-0.00022355870431532,0.00022355875990104,-0.00017777668382517,0.00017777692877637,0.80668160464565,129794,2964,0.00095729097795377,0.0010840397933384,0.00086877800315633,23.941254635785,-4.8469962913722e-05,-4.8469962913722e-05,-4.8469962913722e-05,1727082.6788991,0.002914380020668
16991759,0.18761078445933,0.003311243861237,0.0011021596135152,0.0011664703333364,0.0010426139143853,-0.00024603069889381,0.00024602912852659,-9.627331748903e-10,-6.0246546729205e-10,-1.4081780125254e-10,-1.3917962322349e-09,-0.00019374997802675,0.00019374756227196,-0.00021091621970324,0.00021091334613559,-0.00021091610367457,0.00021091346493444,-0.00019374908896028,0.00019374840799533,-0.0001937487422723,0.00019374878072754,-0.00021091496878998,0.00021091454655349,-0.00021091484938436,0.00021091467115913,-0.00027211133967038,0.00027211004706697,-0.00027211121636383,0.00027211016489059,-0.00027211177955747,0.0002721096461638,-0.00027211165580402,0.00027210976148479,-0.00025233224344476,0.00025232990177974,-0.00025233187926831,0.00025233024136205,-0.00025233181828853,0.00025233031109454,-0.00025233146221438,0.00025233066328307,-0.00019375032318205,0.00019374721755763,-9.671632730759e-10,2.9739020807023e-10,-2.3923441222572e-10,-3.807850440083e-10,-0.00028003317741518,0.00028003255959702,-0.00027463698539649,0.00027463582514568,-0.00028344349144735,0.00028344164564717,-0.00028344221453435,0.00028344284216505,-0.00027540573658726,0.00027540475159654,-0.00027540575610975,0.00027540469415416,-0.00027540530049927,0.00027540516659906,-0.00027540532083419,0.00027540510833369,-0.00027463647130936,0.00027463641018586,-0.00027463656530301,0.00027463622898768,-0.00028344352580187,0.000283441583892,-0.00028344225079766,0.00028344277981853,-0.00027463689101629,0.00027463600501227,3.9763189832709e-10,3.629199258395e-11,-0.00022236315814819,0.00022236359039226,1.8115158337868e-10,2.912999786584e-10,-0.00018945146260885,0.00018945240300701,-0.00019307514692291,0.00019307560107898,-0.00019307501803308,0.00019307571735398,-0.0001894519435742,0.00018945193645355,-0.00018945160544562,0.00018945228936915,-0.00019307524588818,0.00019307549861095,-0.0001930751335675,0.00019307562170607,-0.00025337834748506,0.0002533788476916,-0.00025337831343049,0.00025337887895566,-0.00025337846624188,0.00025337872681491,-0.00025337843917596,0.00025337876225908,-0.00023949110535347,0.00023949121251899,-0.0002394907410138,0.00023949156027394,-0.00023949079893738,0.00023949153325195,-0.00023949113185871,0.00023949116215974,-0.00018945183335081,0.00018945205163336,0.79134032693094,129794,2964,0.001024613476936,0.0011661202299344,0.00092610678920069,23.689490169499,-5.0484078644008e-05,-5.0484078644008e-05,-5.0484078644008e-05,1812640.1104045,0.0031217392586975
17191759,0.19896588219435,0.0035157807066409,0.0011698663930504,0.0012426814031485,0.001103232910442,-0.00026065193887126,0.00026065037353774,-9.7707783016357e-10,-5.8554336305219e-10,-2.3715880095407e-10,-1.2852964310763e-09,-0.00020366115733315,0.0002036589786041,-0.00022239639977686,0.00022239373368577,-0.00022239627247993,0.00022239385847777,-0.00020366050942401,0.00020365959029266,-0.00020366012026765,0.00020366000685374,-0.00022239536677437,0.00022239474244163,-0.00022239523062475,0.00022239488147997,-0.00028881190721919,0.00028881054045134,-0.00028881177178175,0.00028881067087099,-0.00028881228100017,0.00028881020903356,-0.00028881214908405,0.00028881033318,-0.0002679893353843,0.00026798703509729,-0.00026798895021544,0.00026798740228888,-0.00026798897788888,0.00026798736867051,-0.00026798858874877,0.00026798775832868,-0.0002036615226976,0.00020365861185878,-8.9860904631635e-10,1.5937155794249e-10,-2.8533077725789e-10,-4.0647720806897e-10,-0.0002981976801423,0.00029819699001244,-0.00029243302751762,0.00029243189125176,-0.00030232873331929,0.00030232701692008,-0.00030232764357178,0.00030232800779896,-0.00029274191742628,0.00029274091493857,-0.00029274192803561,0.00029274086632256,-0.00029274154582957,0.00029274126516889,-0.00029274156190709,0.00029274121092726,-0.00029243260696498,0.00029243239477986,-0.00029243268692213,0.00029243222088823,-0.00030232875521777,0.00030232697620942,-0.00030232768207052,0.00030232794370442,-0.00029243296900416,0.00029243204917413,4.0941243361354e-10,1.9361184999677e-11,-0.00023464005678046,0.00023464048512169,1.9773492453829e-10,2.7250268620265e-10,-0.0001992884543347,0.00019928940099623,-0.00020310905168667,0.00020310945657619,-0.00020310890897016,0.00020310958909847,-0.00019928894463204,0.00019928895414615,-0.0001992885839664,0.00019928931636411,-0.00020310911337973,0.00020310939395316,-0.00020310899455711,0.00020310952563171,-0.0002681548443735,0.00026815535954788,-0.0002681548210326,0.00026815538226583,-0.00026815497095895,0.00026815523152262,-0.00026815495873753,0.00026815525429637,-0.00025377064343828,0.00025377069789174,-0.00025377024005469,0.00025377107403657,-0.00025377029625799,0.00025377105677383,-0.00025377065448687,0.0002537706699329,-0.00019928887297733,0.00019928900839718,0.77293680837713,129794,2964,0.0010854743479898,0.0012417145035255,0.00097721641642889,23.132131704779,-5.4942946361771e-05,-5.4942946361771e-05,-5.4942946361771e-05,1890878.5847707,0.0033099117983362
17391759,0.20951503750778,0.0036981028928253,0.0012302180146507,0.001310948610393,0.0011569362677815,-0.00027284498003299,0.0002728434274102,-9.8551235970037e-10,-5.6451715585898e-10,-2.8898402086153e-10,-1.2198332435273e-09,-0.00021099662299799,0.00021099460014984,-0.00023126331481964,0.00023126076798656,-0.00023126317898518,0.00023126090202768,-0.00021099611919829,0.0002109950664943,-0.00021099569927819,0.00021099551421678,-0.0002312623947986,0.00023126165739221,-0.00023126224826119,0.00023126180743912,-0.0003031542241165,0.00030315282140091,-0.00030315407887233,0.00030315296187055,-0.000303154560617,0.00030315252988033,-0.00030315441894213,0.00030315266395474,-0.00028097275682214,0.00028097047911753,-0.00028097234285604,0.00028097087553672,-0.00028097243759817,0.00028097077356518,-0.0002809720202782,0.00028097119198998,-0.0002109970160758,0.00021099420685227,-8.8265888706806e-10,6.017237593101e-11,-3.5352143810115e-10,-4.1819831016141e-10,-0.00031375463556998,0.00031375386526231,-0.00030750088849414,0.00030749976604623,-0.00031847490520564,0.00031847320027899,-0.0003184739278413,0.00031847407689603,-0.00030762034321339,0.00030761928065517,-0.00030762033576281,0.00030761925104599,-0.00030762000810005,0.00030761959274768,-0.00030762000698633,0.0003076195570591,-0.00030750056246923,0.00030750017633827,-0.00030750058696237,0.00030750005751336,-0.00031847490818175,0.00031847317773624,-0.00031847394759218,0.00031847403170514,-0.00030750088508912,0.00030749986858325,4.1941043020458e-10,-1.3032816562282e-12,-0.00024466160097484,0.00024466201865366,2.1991021418619e-10,2.3944382280321e-10,-0.00020654624427068,0.00020654715719398,-0.00021068994275835,0.00021069027116638,-0.00021068978934932,0.00021069041531919,-0.00020654670950163,0.00020654673471028,-0.00020654632232877,0.00020654712544327,-0.00021068994829718,0.00021069026357208,-0.00021068982106666,0.00021069040517961,-0.0002806744149895,0.00028067494785186,-0.00028067440951634,0.00028067495212706,-0.00028067455150039,0.00028067480977471,-0.00028067455795864,0.00028067481414579,-0.00026549053035784,0.00026549052478978,-0.00026549009494784,0.00026549093067316,-0.00026549013410891,0.00026549093161488,-0.00026549052151383,0.00026549051485456,-0.00020654669554232,0.0002065467343362,0.74411373298607,129794,2964,0.0011362256900379,0.0013064525320707,0.0010189358170506,22.132409118009,-6.2940727055926e-05,-6.2940727055926e-05,-6.2940727055926e-05,1957621.5420558,0.0034676589918201
17591759,0.21929681903846,0.0038606379855763,0.0012840425501264,0.0013719786527502,0.0012046167826997,-0.00028356895321209,0.00028356740161133,-9.9949119465655e-10,-5.4851692139045e-10,-2.8124416913957e-10,-1.2285214260799e-09,-0.00021692694833216,0.00021692494249968,-0.0002386582041195,0.00023865562574607,-0.00023865805819681,0.00023865577241719,-0.00021692645262573,0.00021692539353656,-0.00021692601122421,0.00021692586278294,-0.0002386572563185,0.00023865652578181,-0.00023865710345496,0.00023865668339437,-0.00031603456267722,0.0003160331580355,-0.00031603440830571,0.00031603330701876,-0.00031603490649442,0.00031603286079386,-0.00031603475356033,0.00031603300577679,-0.00029227361462492,0.00029227130186928,-0.00029227316557962,0.00029227172992157,-0.00029227328857278,0.00029227160696627,-0.00029227284329867,0.00029227205032844,-0.00021692737669014,0.00021692451385008,-9.3305239555155e-10,2.972944821729e-11,-4.1607262806553e-10,-4.3072592656805e-10,-0.00032762290469935,0.00032762205865203,-0.00032078073323448,0.00032077957563166,-0.00033279480661724,0.0003327929857587,-0.00033279381781502,0.00033279388206617,-0.00032095599400851,0.00032095483628533,-0.00032095597181958,0.00032095482206467,-0.00032095565331014,0.00032095515390875,-0.00032095563487871,0.00032095513587631,-0.0003207804476401,0.00032077993952111,-0.00032078041981276,0.00032077987637006,-0.00033279479594246,0.00033279297234738,-0.00033279381613718,0.00033279385734838,-0.00032078077088842,0.0003207796306622,4.2921490877365e-10,-2.1724876121418e-11,-0.00025338231792907,0.0002533827243788,2.3523444171481e-10,2.1181420098913e-10,-0.00021237847236295,0.00021237935278824,-0.00021691777205182,0.00021691803733236,-0.00021691761022378,0.00021691818753216,-0.00021237891863182,0.00021237893754284,-0.00021237849748618,0.00021237936789386,-0.00021691773711239,0.00021691807071241,-0.00021691759842601,0.00021691822333891,-0.00029182694647019,0.00029182749361583,-0.00029182695579809,0.00029182748208054,-0.00029182709388031,0.00029182734418405,-0.00029182711310428,0.00029182733493023,-0.00027564187498881,0.00027564181900312,-0.00027564141535016,0.00027564225388241,-0.00027564143498832,0.00027564227016472,-0.00027564185328292,0.00027564181766419,-0.00021237894265089,0.00021237890693912,0.71798589203703,129794,2964,0.001180860568326,0.0013641597665707,0.0010552390928395,21.121179876875,-7.1030560985002e-05,-7.1030560985002e-05,-7.1030560985002e-05,2019950.4613848,0.0036068012876535
17791759,0.22836945942819,0.0040063451514835,0.0013323202366494,0.0014267880507263,0.0012472368641078,-0.00029306117456071,0.00029305960019813,-1.0257260489498e-09,-5.4478178777563e-10,-2.1120294975515e-10,-1.3226508299692e-09,-0.00022181812659067,0.00022181596455666,-0.00024493586620401,0.00024493309265335,-0.00024493571091132,0.00024493324936415,-0.00022181749793204,0.00022181654631318,-0.00022181702618188,0.00022181704575597,-0.00024493475525453,0.00024493415223937,-0.00024493459241284,0.00024493432014432,-0.0003276440383008,0.00032764265566303,-0.00032764387376047,0.00032764281460698,-0.00032764443696485,0.00032764230454182,-0.00032764427408838,0.00032764245943492,-0.00030217938773065,0.00030217696911207,-0.00030217890923402,0.00030217742586649,-0.00030217900737972,0.00030217732836468,-0.0003021785319559,0.00030217780090174,-0.00022181858314589,0.00022181550734164,-1.0477070815472e-09,8.1582050869107e-11,-4.6173042326042e-10,-4.4543213409303e-10,-0.00034003498013332,0.00034003407330649,-0.00033254871719444,0.00033254747507896,-0.00034552638189979,0.0003455243240403,-0.00034552523049128,0.00034552538597384,-0.00033297463109076,0.00033297334742169,-0.00033297459877802,0.00033297334362847,-0.00033297423521359,0.00033297372113998,-0.00033297420682685,0.00033297371339348,-0.00033254840700714,0.00033254786366087,-0.00033254834903418,0.00033254783104184,-0.00034552636047107,0.00034552432075233,-0.00034552521863515,0.00034552537104795,-0.00033254878497348,0.0003325474994718,4.3918719026057e-10,-4.1901559693467e-11,-0.00026103077908368,0.00026103117516491,2.4535228959852e-10,1.9104257563489e-10,-0.00021713399994294,0.00021713487001126,-0.00022211669048807,0.0002221169042812,-0.00022211651796729,0.0002221170645146,-0.00021713444449563,0.0002171344553314,-0.00021713399556087,0.00021713491486945,-0.00022211662458971,0.00022211696862944,-0.00022211647671393,0.00022211713132697,-0.00030180618869136,0.00030180674567826,-0.00030180620802934,0.00030180672384776,-0.00030180634579962,0.00030180658602975,-0.00030180637546267,0.00030180656657485,-0.00028449958646177,0.00028449948035335,-0.00028449909718702,0.00028449994499361,-0.0002844991067941,0.00028449997150625,-0.000284499553788,0.00028449948888702,-0.00021713450060458,0.00021713439352988,0.69669206953628,129794,2964,0.0012203673255145,0.0014158047581393,0.0010870781093915,20.125986589466,-7.8992107284274e-05,-7.8992107284274e-05,-7.8992107284274e-05,2078200.1102101,0.0037302503260931
17991759,0.23679235336971,0.004139698513699,0.0013765107251038,0.00147700238327,0.0012861854053253,-0.000301612899482,0.00030161127535408,-1.0653827467443e-09,-5.5448967250053e-10,-1.0802139641019e-10,-1.4781338772306e-09,-0.0002261333705956,0.00022613093192431,-0.00025055748189136,0.00025055439187111,-0.00025055731687286,0.0002505545587637,-0.00022613251542541,0.0002261317388242,-0.0002261320143966,0.0002261322675268,-0.00025055611517009,0.00025055570515557,-0.000250555942541,0.00025055588312677,-0.00033819226167795,0.00033819090548681,-0.00033819208709177,0.00033819107433261,-0.00033819274604462,0.00033819046896967,-0.00033819257314171,0.0003381906338366,-0.00031107245495135,0.00031106987203722,-0.00031107194676094,0.00031107035794312,-0.00031107198851407,0.00031107031718123,-0.00031107148346895,0.00031107081862509,-0.00022613385629767,0.00022613044520937,-1.2006127030766e-09,1.898319247117e-10,-4.9133066724696e-10,-4.5907929765903e-10,-0.00035129321453106,0.00035129226428343,-0.00034316807589076,0.00034316671979982,-0.00035700876903433,0.0003570064042247,-0.00035700736323393,0.00035700772579815,-0.00034393662812009,0.00034393520980667,-0.00034393659059063,0.00034393521132511,-0.00034393614693071,0.00034393567109894,-0.00034393611324832,0.00034393566872016,-0.00034316769555775,0.00034316717979933,-0.00034316762164126,0.0003431671629807,-0.00035700874218128,0.00035700640579538,-0.00035700734571051,0.00035700771607954,-0.0003431681591629,0.00034316672874136,4.5075933751055e-10,-6.0492657152613e-11,-0.00026787791627536,0.00026787830523492,2.4951532332787e-10,1.7968990241783e-10,-0.00022130531920615,0.00022130619664288,-0.00022671188382321,0.000226712065074,-0.00022671170102031,0.00022671223511252,-0.00022130577730396,0.00022130576716714,-0.00022130530007913,0.00022130625719552,-0.00022671180207964,0.00022671214447325,-0.00022671164491833,0.00022671231780499,-0.00031081983940257,0.00031082040441442,-0.00031081986374627,0.00031082037731092,-0.00031082000620607,0.00031082023435729,-0.00031082004119812,0.0003108202099319,-0.00029243912556155,0.00029243897776691,-0.00029243860703648,0.00029243947218379,-0.0002924386116419,0.00029243950408727,-0.00029243908737384,0.00029243899099261,-0.00022130584929608,0.00022130569044173,0.68920300512522,129794,2964,0.0012559585548896,0.0014626463646115,0.0011155808914919,19.154409840541,-8.6764721275668e-05,-8.6764721275668e-05,-8.6764721275668e-05,2129539.7589487,0.0038416130526196
18191759,0.24460570588751,0.0042652733627872,0.0014181006536118,0.0015243109978568,0.0013228617113186,-0.00030946328989524,0.00030946159231567,-1.116892484613e-09,-5.7587128549811e-10,-9.3239632769692e-12,-1.6538494661517e-09,-0.00023026608002268,0.00023026332499227,-0.00025590357546183,0.00025590012846072,-0.00025590340030112,0.00025590030567967,-0.00023026498251044,0.00023026437379563,-0.00023026445271822,0.00023026493145192,-0.00025590193779739,0.00025590171215731,-0.00025590175546275,0.00025590190009244,-0.00034783889165282,0.0003478375434502,-0.00034783870705417,0.00034783772227012,-0.00034783946654196,0.00034783701624836,-0.00034783928351013,0.00034783719119458,-0.00031930356962686,0.00031930079340793,-0.00031930303157853,0.00031930130895161,-0.00031930301170447,0.00031930132990722,-0.00031930247725973,0.00031930186055092,-0.00023026659570224,0.00023026280806374,-1.3522797940452e-09,3.1525360088893e-10,-5.086584624903e-10,-4.6752030232752e-10,-0.00036166337888609,0.00036166240278165,-0.00035295728392552,0.00035295581889919,-0.00036756331602958,0.00036756064901863,-0.00036756164111313,0.00036756224714766,-0.00035404286156661,0.00035404132353673,-0.00035404282122851,0.00035404132789724,-0.00035404229086198,0.00035404187772834,-0.00035404225422356,0.00035404187837322,-0.00035295682200401,0.00035295636305051,-0.00035295673868074,0.00035295635500032,-0.00036756328621128,0.00036756065293764,-0.00036756162008033,0.0003675622404052,-0.00035295737589148,0.00035295581970133,4.6405498559314e-10,-7.717472757093e-11,-0.00027414113233294,0.00027414151787051,2.52111123164e-10,1.7381616853651e-10,-0.00022531584303491,0.00022531673774051,-0.00023107617576231,0.00023107633554638,-0.00023107598290466,0.00023107651518323,-0.00022531632149249,0.00022531628655485,-0.00022531581573349,0.00022531680785169,-0.00023107608511197,0.00023107642260421,-0.00023107591868633,0.0002310766069703,-0.00031902785991301,0.00031902843425455,-0.00031902788696403,0.00031902840415889,-0.00031902803640486,0.00031902825378104,-0.00031902807434699,0.00031902822683739,-0.00029979795321489,0.00029979777004787,-0.00029979740588647,0.00029979829390954,-0.00029979740780149,0.00029979832921226,-0.0002997979121121,0.00029979778557548,-0.00022531640159848,0.00022531620251089,0.70094114908686,129794,2964,0.0012886299161258,0.0015057909436015,0.0011416525427173,18.183448802619,-9.4532409579048e-05,-9.4532409579048e-05,-9.4532409579048e-05,2169388.4706832,0.0039439037003957
18391759,0.25202712310275,0.0043847884357323,0.0014576632498165,0.0015693924853585,0.0013577327005574,-0.00031736206014531,0.00031736027731895,-1.1738526822975e-09,-6.0315180227352e-10,8.3537674709321e-11,-1.8368489759805e-09,-0.00023463136540019,0.00023462827493698,-0.00026145883735657,0.00026145501924361,-0.00026145865394854,0.00026145520577571,-0.00023463002149466,0.00023462956729494,-0.00023462946086697,0.00023463015635193,-0.00026145692589495,0.00026145687197587,-0.00026145673380089,0.00026145707076368,-0.00035744833485821,0.00035744698327588,-0.00035744814012661,0.00035744717208077,-0.00035744899979352,0.0003574463651471,-0.00035744880693437,0.00035744654969797,-0.00032761377607104,0.00032761079662621,-0.000327613208365,0.00032761133997604,-0.00032761312805131,0.00032761142491563,-0.00032761256313524,0.00032761198472348,-0.00023463190710361,0.00023462773161906,-1.499610355036e-09,4.4638769632406e-10,-5.0834201000881e-10,-4.8278345713295e-10,-0.00037201666009328,0.00037201566881856,-0.0003627629730656,0.00036276138658716,-0.00037809915779777,0.00037809620345334,-0.00037809721381331,0.00037809808209917,-0.00036413025753738,0.00036412861867231,-0.00036413022220728,0.00036412861786756,-0.00036412959724979,0.00036412926631013,-0.00036412956575092,0.00036412926161633,-0.00036276240432312,0.00036276203794188,-0.00036276233608699,0.00036276201502194,-0.00037809913198315,0.00037809620089222,-0.00037809719756862,0.00037809806961484,-0.00036276304888371,0.00036276140194,4.8098332418391e-10,-9.0708717484475e-11,-0.00028051137194742,0.000280511760628,2.4616218230217e-10,1.8293883493079e-10,-0.0002295906546702,0.00022959159977229,-0.00023568542016191,0.00023568558647486,-0.00023568521578737,0.00023568577612541,-0.00022959117485662,0.00022959110096257,-0.00022959064404284,0.00022959165148108,-0.0002356853429634,0.00023568565955683,-0.00023568516846313,0.00023568585352833,-0.00032726135703574,0.00032726193935655,-0.00032726137862241,0.00032726191417683,-0.00032726154309678,0.00032726174847973,-0.00032726157625311,0.00032726172647454,-0.00030727325336787,0.00030727304859698,-0.00030727267707721,0.00030727360439125,-0.0003072726839208,0.00030727363349335,-0.00030727321589416,0.00030727305832895,-0.00022959124379986,0.0002295910310508,0.70344890520077,129794,2964,0.0013215015584554,0.0015488633890629,0.0011681690167631,17.511913796592,-9.9904689627263e-05,-9.9904689627263e-05,-9.9904689627263e-05,2207318.6404897,0.004046779910876
18591759,0.25932126019554,0.0044996146610037,0.0014956683168522,0.001612800730353,0.0013911456137986,-0.00032572184510978,0.00032571998116402,-1.22959606939e-09,-6.271667689416e-10,1.6763040807228e-10,-2.007518762371e-09,-0.00023935014168593,0.00023934674941793,-0.00026739641611337,0.00026739224703484,-0.00026739622224901,0.00026739244610104,-0.00023934857258324,0.00023934826249424,-0.00023934798701232,0.00023934887687591,-0.0002673942452969,0.0002673943473599,-0.00026739404589194,0.00026739455525897,-0.00036756039845097,0.00036755904078426,-0.00036756019380284,0.00036755923931758,-0.00036756114702282,0.00036755833791352,-0.00036756094268996,0.00036755853355704,-0.0003363560469642,0.00033635287136425,-0.00033635544420138,0.00033635344689134,-0.00033635531400489,0.00033635358758661,-0.00033635471881719,0.00033635417569665,-0.00023935071994038,0.00023934617034064,-1.6382502644466e-09,5.6542910080391e-10,-4.9767422102468e-10,-5.1057989258995e-10,-0.00038284703335169,0.00038284602491939,-0.00037301198534926,0.00037301025653355,-0.00038909519265985,0.00038909197688127,-0.00038909300421716,0.00038909411392007,-0.00037471863260486,0.00037471690744768,-0.0003747186106168,0.00037471689284603,-0.00037471789036955,0.0003747176402001,-0.00037471787043386,0.00037471762357295,-0.00037301129362712,0.00037301102942388,-0.00037301125988971,0.00037301097339999,-0.00038909518099913,0.00038909195590441,-0.00038909299698654,0.00038909409135691,-0.00037301201781098,0.00037301031105189,5.0007406883782e-10,-1.0005944475265e-10,-0.00028735326996115,0.00028735366792599,2.3008591235363e-10,2.0818551501269e-10,-0.0002342287187418,0.00023422973497006,-0.00024069316410138,0.0002406933714197,-0.00024069295159689,0.0002406935680609,-0.00023422930131783,0.00023422916258105,-0.00023422874094604,0.00023422974873864,-0.00024069312778739,0.000240693401893,-0.00024069294411359,0.00024069360673573,-0.00033601093539319,0.0003360115233877,-0.00033601094343158,0.00033601151059904,-0.00033601113125229,0.00033601132184178,-0.00033601114971806,0.00033601131404718,-0.00031517130214851,0.00031517109587276,-0.00031517070219656,0.00031517167966689,-0.00031517071926889,0.0003151716958331,-0.00031517127933862,0.00031517108740817,-0.00023422932713339,0.0002342291432638,0.68932006372476,129794,2964,0.0013562905716637,0.0015939186672097,0.0011966478975667,17.263826351044,-0.00010188938919165,-0.00010188938919165,-0.00010188938919165,2252760.6737041,0.0041555542624904
18791759,0.26649510594875,0.0046193840636258,0.001535241500406,0.0016581138380338,0.001426028725186,-0.00033431996196145,0.00033431801117548,-1.2876365155589e-09,-6.5618021351255e-10,1.9605719022712e-10,-2.124905072763e-09,-0.00024483578227183,0.00024483218667857,-0.00027403111831983,0.0002740267092572,-0.00027403091330226,0.0002740269171205,-0.00024483410042066,0.00024483381791948,-0.000244833484468,0.00024483446330898,-0.00027402881055258,0.00027402895864219,-0.00027402859990956,0.00027402917691913,-0.00037771566140007,0.00037771425561792,-0.00037771544691614,0.00037771446436688,-0.00037771645747021,0.00037771350500858,-0.00037771624387654,0.00037771371024189,-0.000345553456451,0.00034555011707196,-0.00034555282866004,0.00034555072121833,-0.00034555267335324,0.00034555087945277,-0.00034555205063254,0.00034555149829162,-0.00024483638760045,0.00024483157996693,-1.7173238526557e-09,6.3450868570898e-10,-4.9038545913345e-10,-5.3020137930418e-10,-0.00039388952306696,0.00039388850229397,-0.00038356951834098,0.00038356770291007,-0.00040032454454748,0.00040032118314051,-0.00040032220932356,0.00040032346867437,-0.00038546657959238,0.00038546480057537,-0.00038546656592194,0.00038546477724332,-0.00038546579026856,0.00038546558424673,-0.0003854657796134,0.00038546555792242,-0.00038356875554606,0.00038356855625997,-0.00038356874822638,0.00038356846886952,-0.00040032454088164,0.00040032115713966,-0.00040032221294012,0.00040032343512843,-0.0003835695307526,0.00038356778544892,5.2054562852844e-10,-1.1054453355803e-10,-0.0002944252586725,0.00029442566729854,2.236641576285e-10,2.2680143956081e-10,-0.00023962004186793,0.00023962112797099,-0.00024635988836106,0.00024636012252609,-0.00024635966514333,0.00024636033068401,-0.00023962068450561,0.00023962050349634,-0.00023962009529047,0.00023962111922696,-0.0002463598761253,0.00024636012791518,-0.00024635968280235,0.0002463603450801,-0.00034480619481668,0.00034480679471765,-0.00034480619439845,0.00034480679074194,-0.00034480640046231,0.00034480658297619,-0.00034480641148704,0.00034480658378535,-0.00032346819916775,0.0003234679789744,-0.00032346756665182,0.00032346859243368,-0.00032346759544979,0.00032346860149134,-0.00032346818497285,0.0003234679652533,-0.00023962068516359,0.00023962050465122,0.73043485853779,129794,2964,0.0013920701178015,0.0016398541522954,0.0012260836578032,17.026718945992,-0.00010378624843206,-0.00010378624843206,-0.00010378624843206,2287337.2230851,0.0042671786548929
18991759,0.27355016567506,0.0047391503837745,0.0015747457190947,0.0017035849903248,0.001460819674355,-0.00034285321966758,0.00034285120026408,-1.3367804111584e-09,-6.7533458447731e-10,1.8031522418485e-10,-2.1806465309218e-09,-0.00025018699255782,0.00025018331531115,-0.00028059152745092,0.00028058699742667,-0.00028059131234072,0.00028058721517238,-0.00025018529883737,0.00025018495795816,-0.00025018465381076,0.00025018563313176,-0.00028058917991991,0.00028058928676585,-0.00028058895945632,0.00028058951532842,-0.00038779624180328,0.00038779477096689,-0.00038779601734262,0.00038779498982695,-0.00038779705065732,0.00038779400755007,-0.00038779682706885,0.00038779422275213,-0.00035480638036502,0.00035480293026929,-0.0003548057232549,0.00035480356390504,-0.00035480558346502,0.00035480370593809,-0.00035480493159572,0.00035480435437094,-0.0002501876269053,0.00025018267919979,-1.7491595854342e-09,6.4512689496371e-10,-4.9618418021536e-10,-5.4504950477583e-10,-0.00040496591074794,0.00040496486918862,-0.00039423120060273,0.00039422934210097,-0.00041167334096486,0.00041166991972662,-0.00041167096658489,0.00041167225001359,-0.00039615076079156,0.00039614895079166,-0.00039615075026645,0.00039614892423102,-0.00039614995942947,0.0003961497490733,-0.00039614995183755,0.00039614971957637,-0.00039423041698214,0.00039423021946492,-0.00039423041753556,0.00039423012241366,-0.00041167334005654,0.00041166989051759,-0.00041167097281801,0.00041167221329322,-0.00039423120516745,0.00039422943430088,5.3980628462035e-10,-1.2137603582483e-10,-0.00030142287049756,0.00030142328772423,2.2387831775517e-10,2.3577388420465e-10,-0.00024498093803444,0.00024498207140936,-0.00025197823818938,0.00025197848012735,-0.0002519780047397,0.0002519786981291,-0.00024498161890131,0.00024498140843386,-0.00024498100191733,0.0002449820549007,-0.00025197823412068,0.00025197847660449,-0.0002519780318299,0.00025197870483038,-0.00035354216470379,0.00035354278005533,-0.00035354216118133,0.00035354277890166,-0.00035354238020112,0.00035354255815599,-0.00035354238846166,0.0003535425619878,-0.00033181901537547,0.00033181877697692,-0.00033181835363673,0.0003318194202827,-0.00033181838577612,0.00033181942664004,-0.00033181900443261,0.000331818760751,-0.00024498161107861,0.00024498141866152,0.74318761772091,129794,2964,0.001427578908649,0.0016859286463782,0.0012552094267215,16.790056754164,-0.00010567954596669,-0.00010567954596669,-0.00010567954596669,2317019.7605977,0.004378371672689
19191759,0.28071517001646,0.004867778873431,0.0016170467172636,0.0017526003987328,0.0014981317574346,-0.00035266029588164,0.00035265819726464,-1.3895542177048e-09,-6.9955489348996e-10,1.3361433571788e-10,-2.2230291388387e-09,-0.00025700276676838,0.00025699898155244,-0.00028861158284381,0.00028860696268967,-0.00028861137293356,0.00028860717913741,-0.00025700108290299,0.00025700059484087,-0.00025700038006361,0.00025700132891449,-0.00028860922449962,0.00028860922214678,-0.00028860898874402,0.00028860946825291,-0.0003990691789193,0.00039906761725909,-0.00039906894111937,0.00039906784584564,-0.00039906998028274,0.00039906685757889,-0.00039906974921526,0.00039906707903835,-0.00036554659273409,0.00036554305147062,-0.00036554590791029,0.00036554370041221,-0.00036554581456327,0.00036554382192524,-0.00036554511690658,0.0003655445025947,-0.00025700338862453,0.00025699835436291,-1.7598408019392e-09,6.2959872177578e-10,-4.924574442622e-10,-5.6745826739814e-10,-0.00041749033629397,0.00041748927641379,-0.00040645608342048,0.00040645418840372,-0.00042458738234881,0.00042458393008519,-0.00042458501984948,0.00042458627676476,-0.0004081367128467,0.00040813490279779,-0.00040813670928968,0.00040813486871677,-0.00040813591803028,0.00040813570033685,-0.00040813591809441,0.00040813565862774,-0.00040645527056531,0.00040645508026347,-0.00040645530338058,0.00040645496008394,-0.00042458738127762,0.00042458388939326,-0.00042458503879691,0.00042458622539925,-0.00040645605836684,0.00040645429506463,5.6135149789119e-10,-1.317355885829e-10,-0.00030959801049831,0.00030959843771785,2.2253406610836e-10,2.4468421064598e-10,-0.00025184398378141,0.00025184520013453,-0.00025901360634866,0.00025901384406446,-0.00025901335378497,0.00025901407935841,-0.00025184467882479,0.00025184447062991,-0.00025184407535354,0.00025184512333093,-0.00025901359882253,0.0002590138401716,-0.00025901340084941,0.00025901406585136,-0.00036341517234076,0.00036341580340165,-0.00036341516222819,0.00036341580731197,-0.00036341539711311,0.00036341557351905,-0.00036341540056618,0.00036341557533542,-0.00034163496748376,0.0003416347083857,-0.00034163427723254,0.00034163540145817,-0.00034163431243318,0.00034163538743582,-0.00034163495116318,0.00034163469220643,-0.0002518447041106,0.00025184447145284,0.78534703221599,129794,2964,0.0014683866476058,0.00173802395698,0.0012892349417792,16.952885741367,-0.00010437691406907,-0.00010437691406907,-0.00010437691406907,2347363.4852397,0.0045058683204254
19391759,0.28819583079829,0.0049991073889696,0.0016601563503987,0.0018029640873117,0.0015359869512591,-0.00036335668306135,0.00036335453601437,-1.4304164930521e-09,-7.084907579172e-10,7.0911504319866e-11,-2.2060508338672e-09,-0.00026407280139073,0.00026406910982775,-0.00029702794392084,0.00029702334511707,-0.00029702771504354,0.0002970235768852,-0.00026407124203104,0.00026407061404016,-0.00026407052264123,0.00026407136721749,-0.00029702567694983,0.0002970255431759,-0.00029702543257777,0.0002970257977549,-0.00041145312878849,0.00041145148187034,-0.00041145288238832,0.00041145172181122,-0.00041145390597261,0.00041145074855639,-0.00041145366340541,0.00041145098209059,-0.00037721385998032,0.00037721025805918,-0.00037721314621797,0.00037721094583893,-0.00037721309686551,0.00037721100217589,-0.00037721237992774,0.00037721171354065,-0.00026407347622375,0.00026406843333806,-1.7315051173102e-09,5.8137202672538e-10,-5.0008469626683e-10,-5.8397573556438e-10,-0.00043123806693921,0.0004312369818514,-0.00041988727723209,0.00041988537435711,-0.00043884218507683,0.00043883880205906,-0.00043883989393005,0.0004388410650395,-0.00042123927040815,0.000421237457725,-0.00042123927046809,0.0004212374204903,-0.00042123849895129,0.00042123823094473,-0.00042123850439744,0.00042123818741436,-0.00041988648864468,0.00041988625809338,-0.00041988652664986,0.00041988612303402,-0.00043884219034652,0.00043883876244692,-0.00043883991435333,0.00043884101213454,-0.00041988725060918,0.00041988549662543,5.8129690379975e-10,-1.3975641340515e-10,-0.00031854739223255,0.00031854783254791,2.2372746765168e-10,2.5945175551612e-10,-0.00025901588866507,0.00025901714520621,-0.00026645537715526,0.00026645564002145,-0.00026645511785102,0.00026645588210394,-0.00025901664604281,0.00025901639405122,-0.0002590159923249,0.00025901708462059,-0.00026645539000138,0.00026645561899554,-0.00026645517641333,0.00026645586233212,-0.00037432192970054,0.00037432257832967,-0.00037432191615097,0.00037432258640807,-0.00037432216367241,0.00037432233797457,-0.00037432216473096,0.00037432234763762,-0.00035230417446678,0.00035230390388151,-0.00035230345121007,0.00035230461406036,-0.00035230349562184,0.00035230460524188,-0.00035230416615245,0.00035230388440661,-0.00025901663460494,0.00025901641462745,0.76951387875566,129794,2964,0.0015128934042172,0.0017952047207993,0.0013264819174364,17.466267697079,-0.00010026985842337,-0.00010026985842337,-0.00010026985842337,2388794.4154794,0.0046454441971133
19591759,0.29600469680641,0.0051328049435551,0.0017040063417557,0.0018544911754332,0.0015743074263662,-0.00037432096274662,0.00037431878742998,-1.4594274214352e-09,-7.0789665884593e-10,-7.0523484085382e-12,-2.1570591232215e-09,-0.00027108205160386,0.00027107849119346,-0.00030541048658167,0.00030540597111978,-0.00030541024528151,0.00030540621500897,-0.00027108064494093,0.00027107984089929,-0.00027107990302481,0.00027108061644454,-0.00030540834097521,0.00030540804616691,-0.00030540808906213,0.00030540830816586,-0.0004242581042119,0.00042425637803268,-0.00042425784864469,0.00042425662719947,-0.00042425884037225,0.00042425568680413,-0.00042425858720815,0.0004242559309581,-0.0003891016092497,0.00038909798960474,-0.00038910086446624,0.0003890987088939,-0.00038910088529886,0.00038909869359244,-0.00038910014188785,0.00038909943188567,-0.00027108276156418,0.0002710777792175,-1.6935626797785e-09,4.9466853889814e-10,-5.3078170315059e-10,-6.0023621744741e-10,-0.00044540408263696,0.00044540295050991,-0.00043364780797173,0.00043364591149453,-0.00045350234601582,0.00045349903521058,-0.00045350017994762,0.00045350117335455,-0.00043478767323425,0.00043478585151349,-0.00043478766970753,0.00043478581818452,-0.00043478694380528,0.00043478658270593,-0.00043478694447842,0.00043478654441794,-0.00043364707627353,0.00043364674037944,-0.00043364709701004,0.00043364662126589,-0.00045350234871749,0.00045349899811388,-0.00045350019326724,0.00045350112736103,-0.00043364779389897,0.00043364602271502,5.9957925982125e-10,-1.5201778332872e-10,-0.00032768884228599,0.00032768928874503,2.3176067382868e-10,2.5798875071037e-10,-0.00026610229134756,0.00026610356845071,-0.00027385707523369,0.00027385732716869,-0.00027385680792826,0.0002738575775144,-0.00026610306967988,0.00026610279588038,-0.00026610238040148,0.00026610352447307,-0.00027385708012752,0.00027385731300292,-0.00027385685492627,0.00027385756956042,-0.00038556799755095,0.0003855686661327,-0.00038556798763991,0.00038556867021391,-0.0003855682424355,0.0003855684151263,-0.00038556824601823,0.00038556842218309,-0.00036313120969246,0.00036313091429038,-0.00036313045786565,0.00036313165085776,-0.00036313049776747,0.00036313164866775,-0.00036313120059033,0.00036313089550013,-0.00026610306004505,0.00026610281421608,0.75193871861659,129794,2964,0.001558513153853,0.0018541217958441,0.0013645272268665,17.988797158327,-9.6089622733382e-05,-9.6089622733382e-05,-9.6089622733382e-05,2438141.8419529,0.0047887056777949
19791759,0.30414886008374,0.0052684101569595,0.0017484744217317,0.0019069579076796,0.0016129778275482,-0.00038550846431498,0.00038550627063764,-1.4836846475995e-09,-7.022063505633e-10,-7.5735681047519e-11,-2.10695732615e-09,-0.00027800810356688,0.00027800467213834,-0.00031375686213352,0.00031375243455992,-0.00031375661054499,0.00031375268882846,-0.00027800684273743,0.00027800587437697,-0.00027800607244836,0.00027800667831091,-0.00031375483198193,0.00031375439196447,-0.00031375457052242,0.00031375466373862,-0.0004374326944554,0.00043743090090065,-0.00043743242891228,0.00043743116001838,-0.0004374333921052,0.00043743024974879,-0.00043743312890327,0.00043743050392485,-0.00040114229089123,0.00040113866222146,-0.00040114151665254,0.00040113941101538,-0.00040114160530206,0.00040113932694144,-0.00040114083279105,0.00040114009444861,-0.00027800884357384,0.00027800392966016,-1.6663418912226e-09,4.0519778588192e-10,-5.7265920957335e-10,-6.1804847567567e-10,-0.0004599134468306,0.00045991225459774,-0.00044765083234703,0.00044764893877481,-0.00046846591294068,0.00046846264814334,-0.00046846386195835,0.00046846467092539,-0.00044873162373502,0.00044872977304438,-0.00044873161276141,0.00044872974751461,-0.00044873093255624,0.00044873046557378,-0.00044873092570361,0.00044873043521283,-0.00044765016397104,0.00044764970552297,-0.00044765016017056,0.00044764961000237,-0.0004684659077011,0.00046846261863377,-0.00046846386698477,0.00046846463278491,-0.00044765084210972,0.00044764902717328,6.1572739140489e-10,-1.6607799088726e-10,-0.00033698307586028,0.00033698352444326,2.4472290031858e-10,2.4737797580895e-10,-0.00027308483565856,0.00027308612057078,-0.0002811938210267,0.00028119404228179,-0.00028119354367684,0.00028119430230431,-0.00027308562124584,0.00027308534230412,-0.00027308490218318,0.0002730861020434,-0.00028119380289695,0.00028119405139437,-0.00028119356790756,0.00028119431881325,-0.00039710097118014,0.00039710165965864,-0.00039710096895774,0.00039710165569072,-0.00039710122622631,0.00039710139862243,-0.00039710123766611,0.0003971013979331,-0.00037405910788017,0.00037405877741929,-0.00037405832578907,0.00037405954219541,-0.0003740583584064,0.00037405954902467,-0.00037405909097416,0.00037405876580509,-0.000273085633821,0.00027308533835147,0.73294776744571,129794,2964,0.0016050598657899,0.001914463231414,0.0014032073144745,18.511697964569,-9.1906416283444e-05,-9.1906416283444e-05,-9.1906416283444e-05,2493421.9826419,0.0049349896224626
19991759,0.3124024296684,0.0054085809548851,0.0017943655657418,0.0019613751604128,0.0016528402287305,-0.00039630510649192,0.00039630288949595,-1.5120050075055e-09,-6.9837887263718e-10,-1.4846091404745e-10,-2.0555419616776e-09,-0.00028470679288277,0.00028470353073916,-0.00032185708116663,0.00032185273611287,-0.00032185680662453,0.0003218530102227,-0.00028470569589039,0.00028470458043429,-0.00028470491942297,0.00028470538823302,-0.00032185517165599,0.00032185458650939,-0.00032185490646882,0.0003218548597132,-0.00045016231028163,0.00045016044470971,-0.00045016203723922,0.00045016071188005,-0.000450162971271,0.00045015983242195,-0.00045016269472902,0.00045016010044645,-0.00041289306345122,0.00041288940900102,-0.00041289225251093,0.00041289019984747,-0.0004128924060798,0.00041289003978856,-0.00041289161353312,0.00041289083130288,-0.00028470759789662,0.00028470272707223,-1.6357598485418e-09,3.1585859128097e-10,-6.3525603513808e-10,-6.149632274311e-10,-0.0004740659770937,0.00047406472504772,-0.00046131858181295,0.00046131672508134,-0.00048308345019847,0.00048308023674132,-0.00048308152140827,0.00048308212828594,-0.00046231594700494,0.00046231405533927,-0.00046231591787624,0.00046231404871134,-0.00046231529786518,0.00046231470614696,-0.00046231526744973,0.00046231470025045,-0.00046131802133207,0.00046131739229874,-0.0004613179439673,0.00046131736589819,-0.0004830834323913,0.00048308022431484,-0.00048308149698039,0.00048308211996354,-0.00046131865382573,0.00046131676024565,6.2766247051057e-10,-1.8199718090517e-10,-0.00034586168065469,0.00034586212601489,2.6942248850576e-10,2.2058970153976e-10,-0.00027986189993597,0.00027986312738818,-0.0002882651690245,0.00028826533927224,-0.00028826489172044,0.00028826560005033,-0.00027986267283489,0.00027986238573266,-0.0002798618944197,0.00027986319752568,-0.00028826511037442,0.00028826538896213,-0.00028826485587517,0.00028826567741267,-0.00040815419350141,0.00040815490785117,-0.00040815421153135,0.00040815488411772,-0.00040815446084819,0.00040815463467995,-0.00040815448727889,0.00040815462045113,-0.00038464986363198,0.00038464949229652,-0.00038464905929539,0.000384650271884,-0.00038464906988506,0.0003846503079564,-0.00038464983890168,0.00038464949105181,-0.00027986270306592,0.00027986235445892,0.74869675609993,129794,2964,0.0016499787823483,0.0019733170244969,0.0014401569311783,18.674378078737,-9.0604975370107e-05,-9.0604975370107e-05,-9.0604975370107e-05,2541049.1954127,0.0050764238942284
20191759,0.32064012125909,0.0055514776978799,0.0018410559627864,0.0020170596881126,0.0016933620469809,-0.0004068558688701,0.00040685361665152,-1.5438592713208e-09,-7.0156016049514e-10,-2.1478190904541e-10,-2.0261743227947e-09,-0.00029116358865474,0.00029116040201442,-0.0003297613435864,0.00032975704802469,-0.00032976106243212,0.00032975732960015,-0.00029116260951117,0.00029116132877456,-0.00029116179826072,0.00029116217111203,-0.00032975952782597,0.00032975880043129,-0.00032975925140608,0.00032975908528712,-0.00046261805776604,0.00046261611546666,-0.00046261777410204,0.00046261639274574,-0.00046261868665474,0.00046261553622041,-0.00046261840119968,0.00046261581311404,-0.0004245554139798,0.00042455173176924,-0.00042455457729335,0.00042455254678307,-0.00042455479174802,0.00042455232793595,-0.00042455396693241,0.00042455315036953,-0.00029116441203341,0.00029115957694988,-1.6166392730446e-09,2.4084379107776e-10,-6.9746464733636e-10,-6.0594594564735e-10,-0.00048808224624547,0.00048808094054064,-0.00047492096470884,0.00047491915923848,-0.00049763383345265,0.00049763063008901,-0.00049763199630215,0.00049763243377047,-0.00047567688380478,0.00047567494672021,-0.00047567683126877,0.00047567496447176,-0.00047567626605418,0.00047567556722357,-0.00047567621352796,0.00047567558426521,-0.00047492050570134,0.00047491972381656,-0.00047492036047818,0.00047491976589807,-0.00049763378907261,0.0004976306433658,-0.00049763195097715,0.00049763244604855,-0.00047492110804373,0.00047491912148263,6.3947137199571e-10,-2.0172714471244e-10,-0.00035447242441643,0.00035447286172927,3.0186438797028e-10,1.796426038453e-10,-0.00028646586533761,0.00028646705243802,-0.00029515204206953,0.00029515211874481,-0.00029515175152225,0.00029515239161106,-0.00028646659457096,0.00028646634906148,-0.00028646579574172,0.00028646718648276,-0.00029515190865703,0.00029515224308744,-0.00029515164697466,0.0002951525405196,-0.00041892261448982,0.00041892335494143,-0.00041892265601776,0.00041892330723934,-0.00041892289162953,0.0004189230720071,-0.00041892294306358,0.0004189230326426,-0.00039512215530421,0.00039512171921628,-0.0003951213182717,0.00039512253188429,-0.00039512130622378,0.00039512259023546,-0.00039512210397391,0.00039512174383577,-0.00028646670674811,0.00028646623842112,0.76566000547849,129794,2964,0.0016938733803439,0.0020316008719116,0.0014759912562052,18.643343008356,-9.0853255933152e-05,-9.0853255933152e-05,-9.0853255933152e-05,2580776.0434393,0.0052151540876765
20391759,0.32885679737082,0.0056949312678123,0.0018878455850981,0.0020731892842813,0.0017338963984329,-0.00041739322456974,0.00041739092937226,-1.5801201789279e-09,-7.0768002225815e-10,-2.6745764160264e-10,-2.0192514928706e-09,-0.00029748444242282,0.00029748128836124,-0.00033756799447803,0.00033756370333027,-0.00033756770724284,0.00033756399253184,-0.00029748354708386,0.00029748212708901,-0.0002974826991848,0.00029748300618108,-0.00033756623536483,0.00033756539142293,-0.00033756594719055,0.00033756568921269,-0.00047509017830559,0.00047508816273428,-0.00047508988355206,0.00047508845084611,-0.0004750907864658,0.00047508760487785,-0.00047509049177341,0.00047508789084042,-0.00043627184406742,0.00043626811346062,-0.00043627097927198,0.00043626895457963,-0.00043627124530625,0.00043626868785364,-0.00043627038723226,0.00043626954202713,-0.00029748528602492,0.00029748044161632,-1.6121697388505e-09,1.8715965650574e-10,-7.5324503221404e-10,-5.9649934408289e-10,-0.00050221052154577,0.00050220916902083,-0.00048866904757919,0.00048866728278411,-0.00051235678219325,0.00051235356095457,-0.00051235500319152,0.00051235531352207,-0.00048908181124887,0.0004890798261867,-0.00048908173729141,0.00048907986650094,-0.0004890812132266,0.00048908042815394,-0.00048908114063521,0.00048908046650623,-0.00048866867211614,0.00048866776162478,-0.00048866846543915,0.00048866786715654,-0.00051235671314421,0.00051235359659952,-0.00051235493810224,0.00051235534524179,-0.00048866925522043,0.00048866717700002,6.506765558661e-10,-2.2063513754212e-10,-0.0003630453890534,0.00036304581833412,3.3236306668673e-10,1.403343176281e-10,-0.00029298099282385,0.00029298214074324,-0.00030196750647609,0.00030196749266062,-0.00030196720287556,0.00030196777746497,-0.00029298167923021,0.0002929814732181,-0.00029298086193804,0.00029298233407364,-0.00030196730111911,0.0003019676884987,-0.00030196703370441,0.00030196799349453,-0.00042969431051749,0.00042969507527656,-0.0004296943740209,0.00042969500502722,-0.00042969459661735,0.00042969478303432,-0.00042969467203529,0.00042969471960322,-0.00040564056387645,0.00040564006512855,-0.00040563969575709,0.00040564091121597,-0.00040563966199134,0.00040564098918924,-0.00040564048606713,0.00040564011474567,-0.00029298187066751,0.00029298128762187,0.77157339227715,129794,2964,0.0017377108179488,0.0020903471415848,0.0015116676911464,18.607200029748,-9.1142399762018e-05,-9.1142399762018e-05,-9.1142399762018e-05,2618391.5853281,0.0053541523580308
20591759,0.33705020900704,0.0058257606526522,0.001930626204571,0.0021245239143888,0.0017706105336924,-0.00042720170318361,0.00042719939029507,-1.6039585079186e-09,-7.0154147499244e-10,-2.8458456178404e-10,-2.0203263077122e-09,-0.00030242014373246,0.0003024170167854,-0.00034405904412741,0.00034405474089732,-0.00034405874732431,0.00034405503997109,-0.00030241929331601,0.00030241780901948,-0.0003024184154023,0.00030241871781316,-0.00034405729966781,0.00034405641127963,-0.0003440570013706,0.00034405671933084,-0.00048710197759856,0.00048709992940529,-0.00048710167263683,0.00048710022750568,-0.00048710258139772,0.00048709937758897,-0.00048710227675066,0.00048709967338396,-0.00044693698758724,0.00044693321482771,-0.00044693609342902,0.00044693408515522,-0.00044693639315954,0.00044693378452826,-0.00044693550535621,0.00044693466788276,-0.00030242101592734,0.00030241614111513,-1.6388987908552e-09,1.4665454780148e-10,-8.1550302217407e-10,-5.9880203481586e-10,-0.00051560225908553,0.00051560084160692,-0.00050145091464551,0.00050144914958439,-0.00052621879665978,0.00052621550258895,-0.00052621703192178,0.00052621724180705,-0.00050190681882927,0.00050190475378461,-0.00050190672551054,0.00050190481419858,-0.00050190622486756,0.00050190535159542,-0.00050190613287976,0.00050190541009206,-0.00050145060281722,0.00050144956460665,-0.00050145033780609,0.00050144972902527,-0.00052621870747352,0.0005262155581174,-0.00052621694679478,0.0005262172933879,-0.00050145118115051,0.00050144898433693,6.6015017186356e-10,-2.4136741077364e-10,-0.00037093202176804,0.00037093243964318,3.5649129904581e-10,1.0437442574659e-10,-0.00029805814267793,0.00029805925013574,-0.00030753569543733,0.00030753560058984,-0.0003075353814104,0.0003075358954554,-0.00029805879949486,0.00029805861231744,-0.00029805795418045,0.00029805950322687,-0.00030753543071024,0.0003075358559145,-0.00030753515385204,0.0003075361711683,-0.00044001182356757,0.00044001260686413,-0.00044001190676199,0.00044001251664273,-0.00044001211964012,0.00044001230463035,-0.00044001221511503,0.00044001222126807,-0.00041510447038308,0.00041510391051318,-0.00041510357147475,0.00041510478563967,-0.00041510351861586,0.00041510488397697,-0.0004151043716314,0.00041510398000745,-0.00029805905113964,0.00029805836733501,0.70761958204336,129794,2964,0.0017785151423247,0.0021460279279434,0.0015444879193485,18.570849300465,-9.143320559628e-05,-9.143320559628e-05,-9.143320559628e-05,2663805.3869107,0.0054841690562778
20791759,0.34481138309369,0.0059564562226397,0.0019732467843899,0.0021758980161098,0.00180731142214,-0.00043563791787215,0.0004356355653564,-1.6387274316342e-09,-7.0626126187972e-10,-3.0991684297377e-10,-2.0363376518267e-09,-0.00030689833548818,0.00030689520483628,-0.00034986935061645,0.00034986500504837,-0.00034986904354152,0.00034986531433804,-0.00030689752020964,0.00030689595804964,-0.00030689661441304,0.00030689689498836,-0.00034986761386018,0.00034986666588347,-0.00034986730589465,0.00034986698358265,-0.00049738349490166,0.00049738139476984,-0.00049738317985672,0.00049738170272661,-0.00049738409658033,0.00049738084648124,-0.00049738378179273,0.00049738115239182,-0.00045634191292126,0.00045633807442677,-0.00045634098899416,0.00045633897466997,-0.00045634132077538,0.00045633864159426,-0.00045634040367709,0.00045633955397616,-0.00030689923602637,0.0003068942983609,-1.662775141302e-09,1.1588881354486e-10,-8.8206450965603e-10,-5.8510130675937e-10,-0.00052729481262285,0.00052729334196565,-0.00051261793440186,0.0005126161975215,-0.00053833021406575,0.00053832684621236,-0.00053832845849089,0.00053832857992319,-0.00051309921169408,0.0005130970702385,-0.00051309909284765,0.00051309715732368,-0.00051309862096637,0.00051309766613066,-0.00051309850314956,0.00051309775155681,-0.00051261770448596,0.00051261653134888,-0.00051261736056281,0.00051261677505803,-0.00053833009887963,0.00053832692818181,-0.00053832834634861,0.0005383286586313,-0.00051261827906391,0.00051261595355142,6.681205131876e-10,-2.6350193387327e-10,-0.00037757758469988,0.00037757798835581,3.8919846158044e-10,5.6947906196457e-11,-0.00030267201786391,0.00030267306242522,-0.00031246315489477,0.00031246295693432,-0.00031246283101196,0.00031246326142915,-0.00030267262417905,0.0003026724711079,-0.0003026717499827,0.00030267339507675,-0.00031246281111324,0.00031246329055918,-0.00031246252463799,0.00031246361705044,-0.00044867708153717,0.00044867788732718,-0.00044867719123191,0.0004486777703027,-0.00044867738763662,0.00044867757494618,-0.0004486775096907,0.00044867746515718,-0.00042338855764991,0.00042338792803115,-0.00042338762929783,0.0004233888318341,-0.00042338754966539,0.00042338895759482,-0.00042338843287874,0.00042338802434638,-0.0003026729541148,0.00030267214904995,0.74689073212568,129794,2964,0.0018136097879436,0.0021946409082923,0.0015721433879082,17.866180642719,-9.7070554858248e-05,-9.7070554858248e-05,-9.7070554858248e-05,2692697.6977219,0.0055961572212318
20991759,0.35204743549786,0.0060739095256587,0.0020115723996882,0.0022221522316032,0.0018401848943673,-0.00044272821539406,0.00044272582972672,-1.6710424079485e-09,-7.0908428969698e-10,-3.1092445358902e-10,-2.066048202278e-09,-0.00030984402538676,0.00030984085798501,-0.00035418388592713,0.000354179479846,-0.00035418356676679,0.00035417979301306,-0.00030984322253732,0.00030984161169306,-0.00030984227241967,0.00030984259233533,-0.00035418213915248,0.00035418117687595,-0.00035418181349264,0.00035418150638,-0.00050634475725182,0.0005063426237541,-0.0005063444303488,0.00050634294171875,-0.00050634536913392,0.00050634206671439,-0.00050634504638118,0.00050634238091244,-0.00046429971963331,0.00046429580801886,-0.00046429877486328,0.00046429673440046,-0.0004642991176595,0.00046429638085028,-0.00046429816628627,0.00046429732728804,-0.00030984494278112,0.00030983993579307,-1.7002438816283e-09,1.0842660821232e-10,-9.3918514077209e-10,-5.7546697185605e-10,-0.00053753718832376,0.000537535669286,-0.00052232323394497,0.00052232151185636,-0.00054899381948719,0.00054899036032742,-0.00054899202613812,0.00054899212142833,-0.0005228474158315,0.00052284518864538,-0.000522847273759,0.00052284529884259,-0.00052284681584844,0.00052284579902902,-0.00052284667548579,0.00052284590339042,-0.00052232306152004,0.00052232179546823,-0.00052232265780572,0.00052232209430886,-0.00054899367874821,0.00054899047493567,-0.00054899189782325,0.00054899221550771,-0.00052232365952654,0.00052232120175503,6.7388666843717e-10,-2.8817056932221e-10,-0.00038301525257161,0.00038301563851147,4.1971144622107e-10,9.554853220223e-12,-0.00030582639987965,0.00030582739385001,-0.00031601917919799,0.00031601887785829,-0.00031601884097095,0.00031601919441484,-0.00030582697544284,0.00030582686682936,-0.00030582607623894,0.00030582780119852,-0.00031601876003055,0.00031601929404439,-0.00031601846228611,0.00031601962773721,-0.00045614228312592,0.00045614310599711,-0.00045614241867124,0.00045614296630105,-0.0004561425991903,0.00045614278561211,-0.00045614274792951,0.00045614264854443,-0.00043031950317124,0.00043031879413669,-0.00043031853935759,0.00043031973030094,-0.00043031844114194,0.00043031987815237,-0.00043031935027233,0.00043031892614771,-0.00030582738538961,0.00030582644142735,0.72120224499597,129794,2964,0.0018431057081477,0.0022372231401647,0.0015947732329714,16.958803421422,-0.00010432957262862,-0.00010432957262862,-0.00010432957262862,2714277.0310619,0.0056914089647622
21191759,0.3587879608935,0.0061836359162106,0.0020473524102427,0.0022653976203642,0.0018708858856037,-0.00044922160606704,0.00044921917677751,-1.7073171975139e-09,-7.1479783912255e-10,-3.0208019398096e-10,-2.123098966828e-09,-0.00031262003768774,0.00031261679458454,-0.0003581746883302,0.0003581701528282,-0.000358174360568,0.00035817048115556,-0.00031261918929621,0.0003126175837335,-0.0003126182228732,0.00031261858203847,-0.00035817286117258,0.00035817190708691,-0.00035817253173041,0.00035817224560333,-0.0005145371951708,0.00051453503061454,-0.00051453685964635,0.00051453535845157,-0.0005145378293911,0.00051453445186694,-0.00051453749484556,0.000514534777495,-0.00047162410868369,0.00047162010283486,-0.00047162312786744,0.00047162106327269,-0.00047162348236547,0.00047162070289347,-0.00047162250684715,0.00047162167458548,-0.00031262099679869,0.0003126158309986,-1.7592958547193e-09,1.1804690191178e-10,-9.9007276462945e-10,-5.6915148662251e-10,-0.00054692761625124,0.00054692605284657,-0.00053118063495715,0.000531178897562,-0.00055875680189624,0.00055875320521808,-0.00055875495178447,0.00055875503631273,-0.00053181195357816,0.00053180964528329,-0.00053181179463177,0.00053180977382371,-0.0005318113313073,0.00053181027575476,-0.000531811173266,0.00053181040206521,-0.00053118049568109,0.0005311791433185,-0.00053118003159756,0.00053117950703092,-0.00055875664553671,0.00055875332966712,-0.00055875479834737,0.0005587551558578,-0.00053118110386298,0.0005311785314611,6.8478715366185e-10,-3.07020309505e-10,-0.00038798187706848,0.00038798225412676,4.3793326178046e-10,-1.8994432294942e-11,-0.00030876035779903,0.00030876131187631,-0.00031932928993702,0.00031932892302858,-0.00031932894509936,0.00031932924730712,-0.00030876090551341,0.0003087607925381,-0.00030875997429596,0.00030876177208113,-0.00031932882378504,0.00031932938034143,-0.00031932851803323,0.00031932972737829,-0.00046293251460368,0.00046293335488999,-0.00046293266530822,0.00046293319710767,-0.00046293284033902,0.00046293302266383,-0.00046293300429883,0.00046293287153701,-0.00043668646758031,0.00043668571045066,-0.00043668547738107,0.0004366866729614,-0.00043668535888261,0.00043668683961788,-0.00043668630106114,0.00043668585074855,-0.00030876135963555,0.00030876034367289,0.72387546935551,129794,2964,0.0018701178641628,0.0022762617548284,0.0016154425417474,16.04597039443,-0.00011163223684456,-0.00011163223684456,-0.00011163223684456,2732948.69256,0.0057786348582231
21391759,0.36515837162804,0.0062877046866227,0.0020812595946831,0.0023064536494194,0.0018999914425203,-0.00045562382032705,0.00045562133629061,-1.7483598243663e-09,-7.27234649613e-10,-2.8021881066945e-10,-2.2045699755329e-09,-0.00031548126749042,0.00031547787187476,-0.00036220181153152,0.00036219710751725,-0.00036220148091901,0.00036219744143802,-0.000315480337006,0.00031547873376392,-0.00031547932907403,0.00031547977318356,-0.00036219987734414,0.00036219895311114,-0.00036219953632515,0.00036219930473183,-0.00052255144158489,0.00052254924700003,-0.00052255109478397,0.00052254958484582,-0.0005225521080941,0.00052254863513792,-0.00052255176506013,0.00052254896889647,-0.00047885430869767,0.00047885019253337,-0.00047885329971622,0.00047885117385089,-0.0004788536560396,0.00047885082377478,-0.00047885264381772,0.00047885182509627,-0.00031548223712857,0.00031547689556635,-1.8305763952653e-09,1.5151786576997e-10,-1.0157309511571e-09,-5.7755743126509e-10,-0.00055611919998137,0.00055611760240988,-0.00053986942983526,0.00053986764408783,-0.00056833316919525,0.00056832941727924,-0.00056833121810648,0.00056833136227894,-0.00054057092027883,0.00054056853997673,-0.00054057075482857,0.00054056867540961,-0.00054057026443248,0.00054056920647155,-0.00054057010195756,0.00054056933704612,-0.00053986927048748,0.00053986790329346,-0.00053986879354341,0.00053986828479884,-0.00056833300194665,0.00056832954817268,-0.00056833106257943,0.00056833148374684,-0.00053986991411376,0.00053986725537951,6.9836574011098e-10,-3.2516019197639e-10,-0.0003929315036248,0.00039293187534818,4.4631513899284e-10,-3.4195852554102e-11,-0.00031179088201652,0.00031179185290186,-0.00032273185313407,0.00032273144030221,-0.00032273149347593,0.00032273177834744,-0.00031179142687057,0.00031179131530039,-0.00031179048380285,0.00031179231527682,-0.00032273135753075,0.00032273192507727,-0.0003227310483866,0.00032273227762395,-0.00046961093435413,0.00046961178700714,-0.00046961109151973,0.00046961162230419,-0.00046961126956195,0.00046961144535815,-0.00046961144144635,0.00046961128426912,-0.00044300546671531,0.00044300466341627,-0.00044300444655923,0.00044300566497065,-0.00044300432021434,0.00044300583294688,-0.00044300528746015,0.0004430048122956,-0.00031179192272064,0.00031179083315098,0.72692810575032,129794,2964,0.0018967500328603,0.0023144723280569,0.0016360406053359,15.32373135316,-0.00011741014917472,-0.00011741014917472,-0.00011741014917472,2750984.7822998,0.0058645812511693
21591759,0.37120438018865,0.006387289599295,0.0021136700501077,0.0023457924067148,0.0019278271424725,-0.00046176424879328,0.00046176170917904,-1.791810552594e-09,-7.3942020724964e-10,-2.611539956894e-10,-2.28042553308e-09,-0.0003182624776332,0.00031825897812309,-0.00036609735873693,0.00036609249261209,-0.0003660970128368,0.00036609283982177,-0.00031826148941498,0.00031825990484074,-0.00031826046062353,0.00031826096556994,-0.00036609533391055,0.00036609443887378,-0.00036609498438401,0.00036609479830706,-0.00053022238388273,0.00053022015589789,-0.00053022202789736,0.00053022050381347,-0.0005302230830811,0.00053021951222008,-0.00053022272888381,0.00053021985734223,-0.00048581145158418,0.00048580721405764,-0.00048581041205003,0.00048580823063806,-0.00048581076124065,0.00048580787916148,-0.00048580972444706,0.00048580890982121,-0.00031826349060413,0.00031825796015468,-1.8912867130774e-09,1.8879389641264e-10,-1.0299699913499e-09,-5.8815967200948e-10,-0.00056495664837324,0.00056495502553837,-0.00054823917563637,0.00054823733409837,-0.00057756643956038,0.00057756257243128,-0.00057756439607391,0.00057756461115129,-0.00054896951274085,0.00054896707269713,-0.0005489693470927,0.00054896720858934,-0.00054896882594058,0.00054896777233698,-0.00054896866221633,0.00054896790500944,-0.00054823899115455,0.00054823762662038,-0.00054823850723493,0.00054823801063715,-0.00057756627457786,0.00057756270380462,-0.00057756423645569,0.0005775647364015,-0.00054823966489687,0.0005482369462214,7.1357376607689e-10,-3.3871716404079e-10,-0.00039768545519598,0.00039768582905551,4.4739390972096e-10,-3.197654186286e-11,-0.00031475245585963,0.00031475344843235,-0.00032605186351938,0.00032605144918045,-0.00032605149677446,0.00032605179411575,-0.00031475303740049,0.00031475288744773,-0.00031475205381897,0.00031475392636853,-0.00032605137280311,0.00032605192940399,-0.00032605105019531,0.00032605229652035,-0.00047600767975184,0.00047600854403023,-0.0004760078373748,0.00047600837901947,-0.00047600802496904,0.00047600819171975,-0.00047600819669846,0.00047600803271841,-0.00044909053500539,0.0004490897072254,-0.00044908948663978,0.00044909073156351,-0.00044908936079812,0.00044909090461671,-0.00044909035916075,0.00044908985485688,-0.00031475351822389,0.00031475241482045,0.73328393062404,129794,2964,0.0019222927684687,0.0023512093351072,0.0016558241911941,14.658473126179,-0.00012273221499057,-0.00012273221499057,-0.00012273221499057,2766873.6963029,0.0059471370505104
21791759,0.37694200794096,0.0064804135842066,0.0021439737560377,0.0023826252088366,0.0019538146193323,-0.00046743274973384,0.00046743016226814,-1.8305498693698e-09,-7.4823572717685e-10,-2.479162499905e-10,-2.3436436316487e-09,-0.00032062404270872,0.00032062044724358,-0.00036954082507237,0.00036953582403637,-0.00036954046923737,0.00036953618104949,-0.00032062300720846,0.00032062142026705,-0.00032062194876212,0.00032062251070195,-0.00036953872478106,0.0003695378452306,-0.00036953836521744,0.0003695382148073,-0.00053738992223789,0.00053738766240557,-0.0005373895562453,0.00053738802036245,-0.00053739064679724,0.00053738699357419,-0.0005373902826739,0.00053738734868893,-0.00049223228131829,0.00049222794135186,-0.00049223121216869,0.00049222898651569,-0.00049223156540315,0.00049222863141918,-0.0004922304987464,0.00049222969126292,-0.00032062508439633,0.00032061940025304,-1.9451764100783e-09,2.1335249208811e-10,-1.0411752050107e-09,-6.0546566379712e-10,-0.00057322538811899,0.00057322373667641,-0.00055603973684652,0.00055603783506882,-0.00058621738438041,0.00058621341300963,-0.00058621526573475,0.00058621553115278,-0.00055681951095548,0.00055681701873468,-0.00055681934732236,0.00055681715254993,-0.00055681879908893,0.00055681774515917,-0.00055681863769692,0.00055681787551162,-0.00055603952175573,0.00055603816060225,-0.00055603904322911,0.00055603853797205,-0.00058621722096779,0.00058621354254716,-0.00058621510833141,0.0005862156538366,-0.00055604022088851,0.00055603745374896,7.3004740414116e-10,-3.5245485393732e-10,-0.00040204248983675,0.00040204286649761,4.4614588894824e-10,-2.7560420967635e-11,-0.00031730126012719,0.0003173022912243,-0.00032897339496943,0.00032897297905709,-0.00032897301787057,0.00032897333418046,-0.00031730187659126,0.00031730169487337,-0.00031730086517023,0.00031730276414212,-0.00032897290909666,0.00032897345346951,-0.00032897257720014,0.00032897383119175,-0.00048196531130311,0.00048196618640006,-0.00048196546691794,0.00048196602317714,-0.00048196566643991,0.0004819658239179,-0.00048196583647439,0.0004819656668978,-0.0004546907733238,0.00045468992030948,-0.00045468969524824,0.00045469097423495,-0.00045468957187949,0.00045469114601439,-0.00045469059915346,0.00045469006601507,-0.00031730235238831,0.00031730122763278,0.72318902493124,129794,2964,0.0019458722853701,0.0023855811049153,0.0016739562205721,13.994749451072,-0.00012804200439143,-0.00012804200439143,-0.00012804200439143,2781461.8076825,0.0060236838071498
21991759,0.38273001623877,0.0065728737955654,0.0021740623755696,0.0024192289465277,0.001979582473468,-0.00047454464280114,0.00047454199773867,-1.8729125272197e-09,-7.6213929569708e-10,-2.1879378632354e-10,-2.435281094643e-09,-0.00032434631232758,0.00032434255049592,-0.00037434781878472,0.00037434262866063,-0.00037434745930671,0.00037434299241673,-0.00032434517852555,0.0003243436133909,-0.00032434408360401,0.00032434474141089,-0.00037434559543073,0.00037434475975969,-0.00037434522540013,0.00037434514273694,-0.00054604428203048,0.00054604199484062,-0.00054604390542533,0.00054604236322745,-0.00054604504483374,0.00054604128740814,-0.00054604467197672,0.00054604165071308,-0.00050008235326496,0.00050007789469285,-0.00050008125650779,0.00050007896290665,-0.00050008160315873,0.00050007862335835,-0.00050008050346653,0.00050007971303014,-0.00032434737028711,0.00032434148668,-2.0207036503317e-09,2.5953449048311e-10,-1.0263530190646e-09,-6.4594354556201e-10,-0.00058299442044919,0.00058299274286111,-0.00056529491712284,0.00056529289919174,-0.00059635378700709,0.00059634967806219,-0.00059635155166534,0.00059635192590031,-0.00056617187996969,0.0005661693409402,-0.0005661717335259,0.00056616945724729,-0.000566171128499,0.00056617010903841,-0.0005661709861976,0.00056617022011344,-0.00056529460664641,0.00056529331587972,-0.00056529418496485,0.0005652936392387,-0.00059635363693057,0.00059634978848379,-0.00059635141424923,0.00059635202704442,-0.00056529534489627,0.00056529256717576,7.5282619050569e-10,-3.6148156889797e-10,-0.00040779561910611,0.00040779600887212,4.275682815154e-10,3.607855265954e-12,-0.00032115844469877,0.00032115957908458,-0.00033323333394389,0.00033323296346693,-0.0003332329415569,0.00033323333142755,-0.00032115913506129,0.00032115889665186,-0.0003211581078644,0.00032115998916641,-0.00033323289230715,0.00033323339313605,-0.00033323255591005,0.00033323377715224,-0.00048937005240168,0.00048937093345141,-0.0004893701899125,0.00048937078726608,-0.00048937041666013,0.00048937056102936,-0.00048937057112012,0.00048937041937562,-0.00046169419236227,0.00046169333617829,-0.00046169308271622,0.00046169442755189,-0.00046169297641619,0.00046169457757644,-0.00046169403022253,0.00046169346592325,-0.00032115957619433,0.00032115847180506,0.71247115280533,129794,2964,0.0019754537722293,0.0024261877910427,0.0016978955364608,14.108739278928,-0.00012713008576857,-0.00012713008576857,-0.00012713008576857,2809541.4465886,0.0061183914097667
22191759,0.38867223329997,0.0066661500826838,0.0022044178230552,0.002456219137654,0.0020055131219745,-0.00048218106153582,0.00048217836781361,-1.9136392876775e-09,-7.7030543108019e-10,-2.0088794540822e-10,-2.502653523491e-09,-0.00032845614465096,0.00032845229725454,-0.00037956522649118,0.00037955988914405,-0.00037956485023047,0.00037956026770175,-0.00032845496154267,0.00032845341379107,-0.00032845384753953,0.00032845456147536,-0.00037956291900385,0.00037956211177712,-0.00037956254151344,0.00037956250136462,-0.00055529685255954,0.00055529453638505,-0.0005552964667062,0.00055529491440373,-0.00055529764574564,0.00055529379944913,-0.00055529726083668,0.00055529417511335,-0.00050842406020942,0.00050841948759793,-0.0005084229298296,0.00050842059386219,-0.00050842327486051,0.00050842024832051,-0.00050842214974584,0.0005084213672548,-0.00032845724849962,0.00032845118760615,-2.0807411195812e-09,2.8795750025963e-10,-1.0207040446608e-09,-6.8419024552244e-10,-0.00059335732838413,0.00059335561818943,-0.000575076121195,0.00057507399376964,-0.00060707260296324,0.00060706839700406,-0.00060707028547461,0.00060707072727455,-0.00057614180104165,0.00057613921512683,-0.00057614166995984,0.00057613931510902,-0.0005761410225204,0.00057614001223356,-0.00057614089283725,0.00057614010964686,-0.00057507574173707,0.00057507448764051,-0.00057507535767776,0.00057507476808452,-0.00060707247225558,0.00060706849052411,-0.00060707015836985,0.00060707081769172,-0.00057507650690919,0.00057507371197131,7.7319592682165e-10,-3.6853094233856e-10,-0.00041403245863461,0.0004140328623046,4.1009996978993e-10,3.6776188923978e-11,-0.00032537504349628,0.0003253762569875,-0.00033789544849933,0.00033789513997696,-0.00033789505199207,0.00033789551330008,-0.00032537581460185,0.00032537549985946,-0.00032537474627057,0.00032537663369554,-0.00033789506144343,0.00033789551464951,-0.00033789471075187,0.00033789591375253,-0.00049732498298394,0.00049732587114099,-0.00049732510513237,0.00049732574057611,-0.00049732535770074,0.00049732548815639,-0.0004973254942646,0.00049732536491058,-0.00046915714421209,0.00046915629457463,-0.00046915600997233,0.00046915740631352,-0.0004691559198804,0.00046915754713806,-0.00046915700287522,0.00046915640432533,-0.00032537618943214,0.00032537513751954,0.70115780506498,129794,2964,0.0020072158842186,0.0024692611960121,0.0017238466998248,14.451400588705,-0.00012438879529036,-0.00012438879529036,-0.00012438879529036,2843886.376395,0.0062198093609286
22391759,0.39477274874414,0.0067656381642916,0.0022367174485508,0.0024957561796199,0.0020331645361209,-0.00049022389430345,0.00049022114920281,-1.953865824005e-09,-7.8138704442686e-10,-2.0771929462696e-10,-2.5493222749985e-09,-0.00033310526643784,0.00033310135214324,-0.00038531604428192,0.00038531060597826,-0.00038531565902086,0.00038531099315337,-0.00033310407165258,0.00033310248027906,-0.00033310292621548,0.00033310365981194,-0.00038531369912889,0.00038531286703855,-0.00038531331086504,0.00038531326762571,-0.00056491726449597,0.00056491490085662,-0.00056491686867501,0.00056491528905693,-0.00056491807086987,0.00056491415126156,-0.00056491767660971,0.00056491453646718,-0.00051730407213802,0.00051729940802572,-0.00051730291389635,0.00051730054119707,-0.00051730327389766,0.00051730018009303,-0.00051730211922887,0.00051730132843985,-0.00033310639610489,0.00033310021700449,-2.1185300582727e-09,2.9205170333527e-10,-1.0238432291488e-09,-7.1404216374744e-10,-0.00060421933044868,0.0006042175871417,-0.00058538100073696,0.00058537880129469,-0.0006183453739435,0.00061834110220262,-0.00061834301652521,0.00061834347633617,-0.00058656128031073,0.00058655865616907,-0.00058656115760064,0.00058655874736414,-0.00058656048854608,0.00058655946821167,-0.00058656036810582,0.00058655955603099,-0.00058538058362811,0.0005853793373631,-0.00058538022542554,0.00058537958923312,-0.00061834525090401,0.00061834118814983,-0.0006183428993936,0.00061834355640956,-0.00058538136285094,0.00058537854617768,7.9404373969079e-10,-3.785969581081e-10,-0.00042061697453901,0.00042061738928236,4.037855532333e-10,5.4994118626663e-11,-0.00033013135466346,0.00033013263701713,-0.0003430808560064,0.00034308057230321,-0.00034308044815551,0.0003430809569964,-0.00033013218115051,0.00033013182637974,-0.00033013108669972,0.00033013298868182,-0.00034308049161821,0.00034308092338887,-0.00034308013230196,0.00034308133279934,-0.0005055936834489,0.00050559458415461,-0.00050559379695256,0.00050559446183956,-0.00050559406797445,0.00050559419098051,-0.00050559419695691,0.00050559407585787,-0.00047708250890723,0.000477081646009,-0.00047708134328263,0.00047708278861771,-0.00047708126372527,0.00047708292214337,-0.00047708237469393,0.00047708174850215,-0.00033013253474403,0.00033013148509067,0.72867975324186,129794,2964,0.0020406672864707,0.0025144068528097,0.0017512437317597,14.800225541511,-0.00012159819566791,-0.00012159819566791,-0.00012159819566791,2875833.8198476,0.0063264772000053
22591759,0.4010330404669,0.0068686939999183,0.0022701237684124,0.0025368311199805,0.0020617391115255,-0.0004984745722266,0.0004984717817249,-1.9914663279971e-09,-7.8898550591673e-10,-2.3058319748865e-10,-2.5740159477414e-09,-0.00033772950178698,0.00033772556738581,-0.00039114566640097,0.00039114016900712,-0.0003911452711496,0.00039114056611103,-0.00033772833303774,0.00033772666850047,-0.00033772715835026,0.00033772787763671,-0.00039114331920642,0.00039114243134453,-0.00039114292108877,0.00039114284218,-0.00057483297479361,0.00057483055721416,-0.0005748325689979,0.00057483095549125,-0.00057483378229643,0.00057482980730562,-0.00057483337803828,0.00057483020251801,-0.00052650909206712,0.00052650435324848,-0.00052650790411168,0.00052650551549201,-0.00052650829274908,0.00052650512571534,-0.00052650710866123,0.00052650630342075,-0.00033773066065901,0.0003377244029034,-2.1391586629653e-09,2.7547270537754e-10,-1.0403970004681e-09,-7.3349480037153e-10,-0.00061550312305932,0.00061550134356175,-0.00059614168338492,0.00059613944409193,-0.00063012814226127,0.00063012383149305,-0.00063012578378511,0.00063012621119708,-0.00059730357152476,0.00059730091133547,-0.00059730344991396,0.00059730100138918,-0.00059730277939824,0.0005973017252704,-0.00059730266003456,0.0005973018119843,-0.00059614126372738,0.00059613998542112,-0.00059614090764815,0.00059614023379063,-0.00063012801993222,0.00063012391631292,-0.00063012566734469,0.00063012629016756,-0.00059614204342981,0.00059613919239885,8.1248314585386e-10,-3.9024538643308e-10,-0.0004273451842046,0.00042734560585764,4.0615525348672e-10,5.9974419235344e-11,-0.00033494476923929,0.00033494609097209,-0.00034834153479709,0.00034834125095238,-0.00034834111681821,0.00034834164566905,-0.00033494562760777,0.0003349452478078,-0.00033494450559813,0.00033494644103278,-0.00034834117257334,0.00034834159926788,-0.00034834080411359,0.00034834201945547,-0.00051411630674075,0.00051411722319626,-0.00051411641910892,0.00051411710160286,-0.00051411670106995,0.00051411681984489,-0.00051411682939168,0.00051411670576466,-0.00048528221848966,0.00048528133329586,-0.00048528102326499,0.00048528250536255,-0.00048528094562947,0.00048528263912004,-0.00048528208468969,0.00048528143474301,-0.00033494597898241,0.00033494490954282,0.7362069878742,129794,2964,0.0020749826213248,0.0025613035598896,0.001779238580167,15.149302179798,-0.00011880558256161,-0.00011880558256161,-0.00011880558256161,2905044.2128303,0.0064363904072304
22791759,0.4073516041149,0.0069735775165789,0.0023040693860764,0.0025787597219008,0.0020907484086017,-0.00050642692412241,0.00050642409635247,-2.0249812587714e-09,-7.9282625023169e-10,-2.6917847697348e-10,-2.5734815121563e-09,-0.00034201228199429,0.00034200837522746,-0.00039664912627048,0.00039664362128866,-0.00039664872143283,0.00039664402696388,-0.0003420111816045,0.00034200940963939,-0.00034200997453387,0.00034201065158343,-0.00039664682089619,0.00039664584528564,-0.00039664641117334,0.00039664626733771,-0.00058447464895788,0.00058447217158292,-0.00058447423291434,0.00058447258026518,-0.00058447544396171,0.00058447143537968,-0.00058447503029702,0.00058447184014846,-0.00053546633041838,0.00053546153894631,-0.00053546511482151,0.00053546272887719,-0.000535465543829,0.00053546229614131,-0.00053546433010928,0.00053546350418403,-0.00034201346704136,0.00034200718447565,-2.1408603634207e-09,2.3614607626344e-10,-1.0738947749577e-09,-7.4063945703824e-10,-0.0006265747347159,0.00062657291441095,-0.00060670596717831,0.00060670372686332,-0.00064172794287584,0.00064172362051114,-0.00064172562124655,0.00064172596422457,-0.00060780257220802,0.00060779987427506,-0.00060780244180638,0.00060779997338739,-0.00060780179256713,0.00060780067685316,-0.00060780166528788,0.00060780077167952,-0.00060670558797161,0.00060670423243844,-0.00060670520653142,0.00060670450328476,-0.0006417278108595,0.00064172371632662,-0.00064172549726785,0.00064172605039413,-0.00060670635701232,0.00060670344951954,8.2759723671515e-10,-4.0546701077585e-10,-0.00043375629986608,0.00043375672174656,4.2096200220126e-10,4.6056670887727e-11,-0.00033944121611586,0.00033944254320216,-0.00035328797425413,0.00035328765246184,-0.00035328754513706,0.0003532880585963,-0.00033944207832697,0.00033944170051435,-0.00033944092990906,0.00033944292132256,-0.00035328758273106,0.00035328802965427,-0.00035328720521464,0.00035328846005834,-0.00052235029732136,0.00052235123295608,-0.00052235041867277,0.00052235110220503,-0.00052235070126981,0.00052235081986221,-0.00052235083984589,0.00052235069612988,-0.0004932147517019,0.00049321382525667,-0.00049321352434515,0.00049321502696335,-0.00049321344043082,0.0004932151710036,-0.00049321460719418,0.00049321393809529,-0.00033944246010147,0.00033944133015611,0.74292714072276,129794,2964,0.0021080568309478,0.0026073162128456,0.0018059142620795,15.287447336641,-0.00011770042130687,-0.00011770042130687,-0.00011770042130687,2930174.8543598,0.0065428488486581
22991759,0.413714466698,0.0070736037646265,0.0023364950495099,0.0026188252259971,0.0021182834891195,-0.0005140567711626,0.00051405391726186,-2.0530877812541e-09,-7.9064810236084e-10,-2.9312011589637e-10,-2.5772100741042e-09,-0.0003456341829991,0.00034563029989645,-0.00040153012769046,0.00040152460386337,-0.00040152971259568,0.00040152502078093,-0.00034563312944842,0.00034563128380371,-0.00034563189579845,0.00034563255236222,-0.00040152783898669,0.00040152680619332,-0.00040152742078022,0.0004015272375306,-0.00059392873986382,0.00059392622089121,-0.0005939283139962,0.00059392663921476,-0.00059392952970371,0.0005939254913894,-0.00059392910550582,0.00059392590654664,-0.00054396533856758,0.00054396049702958,-0.0005439640898408,0.00054396171611249,-0.00054396455803543,0.00054396124876321,-0.00054396331437322,0.00054396248403532,-0.00034563539987792,0.00034562907689803,-2.1585946524151e-09,2.0038675875773e-10,-1.1189589436146e-09,-7.4629130501098e-10,-0.00063735973443532,0.00063735786313111,-0.00061687805403575,0.00061687580698953,-0.00065300178814741,0.00065299741920747,-0.00065299948843716,0.00065299974492421,-0.00061806874184099,0.00061806598702243,-0.00061806859918495,0.00061806609882358,-0.00061806796852232,0.00061806678345928,-0.00061806782817334,0.00061806689185635,-0.00061687771909861,0.00061687626673497,-0.00061687729809307,0.00061687657849854,-0.0006530016436597,0.00065299752586756,-0.00065299934978762,0.00065299984536269,-0.00061687847984114,0.00061687549125018,8.4064323143e-10,-4.2225447948903e-10,-0.00043985549596525,0.00043985591386397,4.373786147273e-10,2.5190721636747e-11,-0.00034326498762701,0.00034326630012287,-0.00035764336605382,0.00035764299377729,-0.00035764292767232,0.00035764340860662,-0.00034326584066783,0.00034326546373109,-0.00034326466236247,0.00034326671753518,-0.00035764293840201,0.00035764340706204,-0.00035764255098384,0.0003576438482012,-0.00053038895048147,0.00053038990472692,-0.00053038908414895,0.00053038976093868,-0.00053038936456727,0.00053038948124079,-0.00053038951518197,0.00053038934546609,-0.00050071192107258,0.00050071095072031,-0.00050071066491092,0.00050071218017262,-0.00050071056786237,0.00050071233818964,-0.00050071176441445,0.00050071107399589,-0.00034326625770299,0.00034326506049914,0.70494323148877,129794,2964,0.002139789481449,0.0026521360142607,0.0018312923745324,15.399253131053,-0.00011680597495157,-0.00011680597495157,-0.00011680597495157,2958196.8083093,0.0066454630555373
23191759,0.42011968234937,0.0071752816479757,0.0023694207755297,0.0026596124727273,0.0021462483997188,-0.00052182437294311,0.00052182148036827,-2.087370653627e-09,-7.9490587937691e-10,-3.0447685072062e-10,-2.606217318144e-09,-0.0003496370876623,0.00034963317673078,-0.00040669887820148,0.00040669328712059,-0.00040669845321892,0.00040669371410708,-0.0003496360449177,0.00034963414814372,-0.00034963478181462,0.00034963544599321,-0.00040669657117255,0.00040669550502753,-0.00040669614307806,0.00040669594645338,-0.00060344607042148,0.00060344350982104,-0.00060344563450239,0.00060344393808235,-0.0006034468675458,0.00060344277480081,-0.00060344643332428,0.00060344320000068,-0.00055255176888926,0.00055254685375882,-0.0005525504894774,0.0005525481011135,-0.00055255098235639,0.00055254761094011,-0.000552549708707,0.00055254887485104,-0.00034963833388452,0.00034963192421343,-2.2017523242425e-09,1.7768508405497e-10,-1.1704553105261e-09,-7.5785177025341e-10,-0.00064819920305241,0.00064819726825162,-0.00062705150799032,0.00062704923079557,-0.00066429676942218,0.00066429230348395,-0.00066429445290903,0.00066429464988745,-0.00062845261096194,0.00062844977321676,-0.00062845245555747,0.00062844989825327,-0.00062845183124326,0.00062845057711161,-0.00062845167818042,0.00062845069873268,-0.00062705120631081,0.00062704965837403,-0.00062705074589957,0.00062705000933443,-0.00066429661157037,0.00066429242322583,-0.00066429430088347,0.00066429476346245,-0.00062705197300204,0.00062704887602657,8.5333829591332e-10,-4.3960781591534e-10,-0.00044609532552688,0.00044609573868447,4.5480931732229e-10,2.9070660851983e-12,-0.00034743135587433,0.00034743265391209,-0.00036229723036594,0.00036229680422936,-0.00036229678165942,0.00036229722877949,-0.00034743219939666,0.00034743182754595,-0.00034743099307737,0.00034743311220503,-0.00036229676350241,0.00036229725668862,-0.0003622963667026,0.00036229770839983,-0.00053847445122543,0.00053847542381488,-0.00053847459791398,0.00053847526669199,-0.00053847487510273,0.00053847499005552,-0.0005384750392225,0.00053847484149353,-0.00050836612981611,0.00050836511210324,-0.00050836484341912,0.00050836636997217,-0.00050836473403767,0.00050836654250776,-0.00050836595922515,0.00050836524786688,-0.00034743265609967,0.00034743138570694,0.71242657762134,129794,2964,0.0021720936908949,0.002697179802525,0.0018572546475844,15.510302864084,-0.00011591757708733,-0.00011591757708733,-0.00011591757708733,2987562.3534832,0.0067494761842785
23391759,0.4265717912122,0.0072779906760472,0.002402649773643,0.0027008900403197,0.0021744508620845,-0.00052966837284189,0.00052966543188723,-2.1263890925522e-09,-8.0406775463497e-10,-3.0278149611548e-10,-2.6585957784592e-09,-0.00035361008654538,0.00035360610002966,-0.00041187474151943,0.00041186903741024,-0.00041187430685674,0.00041186947407468,-0.00035360901818022,0.00035360709629036,-0.00035360772493833,0.00035360842403119,-0.00041187238156325,0.00041187130764872,-0.00041187194333884,0.00041187175937788,-0.00061307558719118,0.0006130729872988,-0.00061307514119472,0.00061307342556144,-0.00061307640314675,0.00061307223459557,-0.00061307595904448,0.00061307266968071,-0.0005612302192329,0.00056122520880819,-0.00056122891139858,0.00056122648569126,-0.00056122941380097,0.00056122598403039,-0.00056122811115385,0.000561227277979,-0.00035361136126159,0.00035360481914751,-2.2538907435379e-09,1.8215205745597e-10,-1.2114822067965e-09,-7.6299349041176e-10,-0.00065921245787329,0.00065921047674716,-0.00063740441735022,0.00063740211092095,-0.00067583305426614,0.00067582847501417,-0.00067583068558359,0.0006758308785799,-0.00063895842691101,0.00063895551261887,-0.00063895826002043,0.00063895564966254,-0.00063895762928757,0.00063895633607297,-0.00063895746489923,0.00063895646954317,-0.00063740413295072,0.0006374025225498,-0.00063740363742163,0.00063740290854083,-0.00067583288421911,0.00067582860696508,-0.0006758305218573,0.00067583100386783,-0.00063740491790217,0.00063740172068633,8.6631395261701e-10,-4.5684702587225e-10,-0.00045238925568389,0.00045238966456541,4.7064428820624e-10,-1.7413656156191e-11,-0.00035160416524603,0.00035160545368269,-0.00036698472353449,0.00036698424710655,-0.00036698426436615,0.00036698468192367,-0.00035160500269045,0.00035160463343259,-0.0003516037693151,0.00035160594839438,-0.00036698422053542,0.00036698473540426,-0.00036698381454343,0.00036698519740939,-0.0005466718601559,0.0005466728503183,-0.00054667201850538,0.00054667268109788,-0.00054667229371605,0.00054667240627963,-0.0005466724702857,0.00054667224603414,-0.00051615841345001,0.00051615734850707,-0.00051615709616723,0.00051615863499697,-0.00051615697688298,0.00051615882188714,-0.00051615822947034,0.00051615749575026,-0.00035160549643628,0.00035160415561992,0.71512157286445,129794,2964,0.0022047150076357,0.0027429439487866,0.0018834418083448,15.633795360473,-0.00011492963711622,-0.00011492963711622,-0.00011492963711622,3014820.7872749,0.0068547715273027
23591759,0.43326162272375,0.0073844693222704,0.0024370669140123,0.0027437703773966,0.0022036320308615,-0.00053850883501218,0.00053850583301145,-2.1720524114516e-09,-8.1849550152427e-10,-2.8778847946538e-10,-2.7390153497112e-09,-0.00035839288660558,0.00035838877483487,-0.00041791568053081,0.00041790980405312,-0.00041791523510729,0.00041791025349061,-0.00035839174840705,0.00035838983437938,-0.00035839043155161,0.0003583911859354,-0.00041791321953163,0.00041791216590327,-0.00041791277463368,0.00041791262606488,-0.00062379354884912,0.00062379091122913,-0.00062379309309145,0.00062379135903287,-0.0006237943974657,0.00062379012641818,-0.00062379394201961,0.00062379057249796,-0.00057094461188722,0.00057093947809564,-0.00057094326897773,0.0005709407864549,-0.00057094377439822,0.00057094028868298,-0.00057094244148471,0.00057094161019399,-0.00035839419666689,0.00035838745803753,-2.3249549903092e-09,2.0951154421136e-10,-1.2381721175612e-09,-7.7681308387881e-10,-0.00067141489365119,0.00067141287177785,-0.00064892669897484,0.00064892433044101,-0.00068860442463793,0.00068859970222921,-0.00068860196815762,0.00068860220503754,-0.00065060273028432,0.00065059974124143,-0.00065060256028875,0.00065059988167598,-0.00065060190246806,0.00065060059699595,-0.00065060173336876,0.00065060073567514,-0.00064892639380604,0.00064892475909617,-0.00064892588359159,0.00064892516315511,-0.00068860425109149,0.00068859983333106,-0.00068860179720668,0.0006886023368143,-0.00064892720554901,0.00064892392790512,8.8201681077128e-10,-4.7011946543774e-10,-0.00045958923440474,0.00045958964512463,4.757223716331e-10,-2.1395778499573e-11,-0.00035658741633038,0.00035658871999189,-0.00037251123966496,0.00037251074628476,-0.00037251077191098,0.00037251118806321,-0.00035658826861434,0.00035658787606965,-0.00035658700492203,0.00035658922694443,-0.00037251072843644,0.00037251124197741,-0.0003725103129707,0.0003725117149526,-0.00055588757356421,0.00055588857891202,-0.00055588773512041,0.00055588840542135,-0.0005558880170702,0.00055588812404886,-0.00055588819601383,0.00055588796165061,-0.00052497223898056,0.00052497114727855,-0.00052497089648528,0.00052497246104823,-0.00052497077134462,0.00052497265376164,-0.00052497205215927,0.00052497129307096,-0.00035658876830758,0.00035658739761662,0.71571043298459,129794,2964,0.0022414786570959,0.0027936471559545,0.0019133972746487,16.146302938835,-0.00011082957648932,-0.00011082957648932,-0.00011082957648932,3047754.2412003,0.006973017905755
23791759,0.44019772391467,0.0075004619778183,0.002474423316676,0.0027906352166728,0.0022354034444696,-0.0005479570645683,0.00054795399095049,-2.2224096552341e-09,-8.3957812980268e-10,-2.9052818998969e-10,-2.8106376494785e-09,-0.00036385196222227,0.00036384773528331,-0.00042468699311672,0.0004246809667881,-0.00042468653812688,0.00042468142462883,-0.00036385078506197,0.00036384883635921,-0.00036384943546591,0.00036385022083479,-0.00042468446806966,0.00042468339714083,-0.00042468401147954,0.00042468386851255,-0.00063510742548181,0.00063510472965001,-0.00063510695961428,0.00063510518778586,-0.00063510829586956,0.00063510392235426,-0.00063510783120596,0.00063510437794157,-0.00058145823448122,0.00058145297902325,-0.00058145686567334,0.0005814543152463,-0.0005814573733692,0.00058145381008618,-0.00058145601175607,0.0005814551621794,-0.00036385329825745,0.0003638463926558,-2.3758284045143e-09,2.2993199798989e-10,-1.259920794143e-09,-7.8631651991106e-10,-0.00068443437557567,0.00068443232270598,-0.0006613498375884,0.0006613474268389,-0.00070226733588222,0.00070226250985461,-0.00070226481127611,0.00070226508596155,-0.00066296152369098,0.00066295847588997,-0.00066296134951414,0.00066295862066668,-0.00066296067371796,0.00066295935675618,-0.00066296050143805,0.00066295949875159,-0.00066134952392468,0.00066134787085926,-0.00066134900174804,0.00066134828340578,-0.00070226715760905,0.00070226264794554,-0.00070226463783951,0.00070226522018484,-0.00066135036077063,0.00066134701301329,8.9859457020711e-10,-4.842553025535e-10,-0.00046729680793274,0.00046729722150653,4.8477782624517e-10,-2.6745355563785e-11,-0.00036228894059664,0.00036229026726762,-0.00037872235977095,0.00037872184531047,-0.0003787218811859,0.0003787222990633,-0.00036228980942875,0.00036228940754175,-0.00036228852054207,0.00036229078731643,-0.00037872183241426,0.00037872235482432,-0.00037872140836538,0.00037872283886946,-0.00056562519936803,0.00056562622197226,-0.00056562536516504,0.00056562604397292,-0.00056562565246132,0.00056562575701602,-0.00056562583698088,0.00056562558983941,-0.00053453589727637,0.00053453477031076,-0.00053453452185356,0.0005345361131156,-0.00053453439666214,0.00053453631382887,-0.00053453570342757,0.00053453492196203,-0.00036229032682959,0.00036228891180014,0.7520141536426,129794,2964,0.0022807682963121,0.0028477421008699,0.0019454636940805,16.668798055178,-0.00010664961555857,-0.00010664961555857,-0.00010664961555857,3077957.6757234,0.0070993628691505
23991759,0.44738378308405,0.0076235416405123,0.0025139434480142,0.0028405796277505,0.0022690185647476,-0.00055781302083233,0.00055780988123226,-2.2702365881982e-09,-8.5749108205958e-10,-3.1673024009387e-10,-2.8536013298646e-09,-0.00036939447262173,0.00036939018867419,-0.00043169760933946,0.00043169148827715,-0.00043169714423619,0.00043169195573932,-0.00036939330700657,0.00036939127955673,-0.00036939192774214,0.00036939269383748,-0.00043169507009824,0.00043169393654056,-0.00043169460329279,0.0004316944181408,-0.00064693911401845,0.00064693634887587,-0.0006469386381823,0.00064693681716387,-0.00064693999027199,0.00064693553631919,-0.00064693951572781,0.00064693600186759,-0.00059256800068787,0.00059256264309733,-0.00059256660577297,0.00059256401092001,-0.00059256713100022,0.00059256348125156,-0.00059256574126939,0.00059256486472146,-0.0003693958373601,0.0003693888170815,-2.3997112566448e-09,2.2549976157641e-10,-1.2830073397896e-09,-7.9140977286163e-10,-0.00069821321381064,0.00069821113244555,-0.00067461344337961,0.00067461101637257,-0.0007168194590405,0.00071681458210225,-0.00071681691943946,0.00071681717958786,-0.00067591684270004,0.00067591375405783,-0.00067591666303344,0.00067591390468405,-0.00067591598813918,0.00067591464233035,-0.0006759158103533,0.0006759147901185,-0.00067461314295854,0.00067461145089308,-0.00067461260245806,0.00067461187972236,-0.00071681927465535,0.00071681472660102,-0.00071681674016158,0.000716817319598,-0.0006746139860339,0.00067461058551345,9.1513983490769e-10,-4.9786169779923e-10,-0.00047530316108644,0.0004753035778696,4.9587887190537e-10,-3.4189857833974e-11,-0.00036817491435841,0.00036817625619873,-0.00038516468641482,0.00038516414760732,-0.00038516419755079,0.00038516461138723,-0.00036817579595204,0.00036817538636609,-0.00036817447906498,0.00036817679655908,-0.00038516414097631,0.00038516467560627,-0.0003851637075492,0.00038516517051239,-0.00057579903674607,0.00057580007837809,-0.00057579920848008,0.00057579989424537,-0.00057579949959075,0.00057579960323065,-0.000575799690698,0.00057579943024383,-0.00054463867583968,0.00054463751368411,-0.00054463726876604,0.0005446388839458,-0.0005446371408822,0.0005446390955401,-0.00054463847347491,0.00054463767068799,-0.00036817633094074,0.00036817487126581,0.77068673121335,129794,2964,0.0023217527854447,0.0029049889950247,0.0019787730690186,17.191697391679,-0.00010246642086657,-0.00010246642086657,-0.00010246642086657,3105377.9022643,0.0072318579210915
24191759,0.45479573831718,0.007743879158766,0.0025526322419455,0.002889557196346,0.0023016897204746,-0.00056745617189887,0.00056745298994845,-2.3062113197096e-09,-8.6376186734433e-10,-3.4690056869045e-10,-2.8676860304102e-09,-0.00037414135481996,0.00037413707607787,-0.00043801126236546,0.00043800510211476,-0.00043801078564762,0.00043800558077246,-0.00037414023334955,0.00037413812288239,-0.00037413882908702,0.00037413956197275,-0.00043800873828783,0.00043800753574312,-0.00043800826286923,0.00043800802586521,-0.00065879165612068,0.00065878883504454,-0.00065879117091733,0.00065878931281169,-0.00065879252863755,0.0006587880276171,-0.00065879204372573,0.00065878850361031,-0.00060338721376048,0.00060338178800367,-0.0006033857883331,0.00060338318638078,-0.00060338634608241,0.00060338262277376,-0.00060338492886536,0.00060338403389347,-0.00037414275304611,0.00037413567128128,-2.4172755928605e-09,1.9439465939957e-10,-1.3198061054489e-09,-8.0197052871022e-10,-0.00071197178573244,0.00071196965693702,-0.00068773152371171,0.00068772907824997,-0.00073133118735108,0.00073132627075791,-0.00073132866588478,0.00073132885413374,-0.00068887361963998,0.00068887047995656,-0.00068887343220401,0.00068887063876166,-0.00068887277049874,0.00068887136394251,-0.00068887258396834,0.00068887152092319,-0.00068773125474945,0.00068772948370633,-0.00068773068680252,0.00068772993923148,-0.00073133099584953,0.00073132642280783,-0.00073132847645163,0.0007313290043361,-0.00068773209134726,0.00068772862336967,9.3026002028685e-10,-5.131053922913e-10,-0.00048305446575734,0.00048305488254682,5.0774218636793e-10,-4.5898228786388e-11,-0.00037323103209707,0.00037323237631533,-0.00039092842755428,0.00039092785726981,-0.00039092793013464,0.00039092832986864,-0.00037323192053419,0.00037323150012292,-0.00037323057126299,0.00037323294592246,-0.00039092786012858,0.00039092840673903,-0.000390927415644,0.00039092891401637,-0.00058594006169172,0.00058594112156293,-0.00058594024142073,0.00058594092886548,-0.0005859405349504,0.00058594063561196,-0.00058594073366827,0.00058594045560046,-0.000554376449149,0.00055437525114197,-0.00055437501324881,0.00055437664913633,-0.00055437487757766,0.00055437687137814,-0.00055437624035202,0.00055437541454296,-0.00037323247451543,0.00037323096623828,0.7317932738594,129794,2964,0.0023618522269078,0.0029621489200471,0.0020110219480306,17.664680773957,-9.868255380834e-05,-9.868255380834e-05,-9.868255380834e-05,3135991.1290202,0.0073623259854798
24391759,0.46228189064283,0.0078660738837666,0.0025918714947664,0.0029394033161169,0.0023347990728833,-0.00057675330188168,0.00057675008154554,-2.3413243483836e-09,-8.6746693065719e-10,-3.8719260576697e-10,-2.8656679115918e-09,-0.00037881290236387,0.00037880869354821,-0.00044414086754186,0.00044413469229659,-0.00044414036946776,0.00044413519069152,-0.00037881186195796,0.00037880966849503,-0.00037881045019153,0.00037881111269243,-0.00044413838227205,0.00044413709632179,-0.00044413790324952,0.00044413758865332,-0.00067022611577863,0.00067022323566825,-0.00067022562351929,0.00067022372146971,-0.00067022697899641,0.00067022243977302,-0.00067022648115847,0.00067022292933617,-0.00061377934911793,0.00061377385740962,-0.00061377788743473,0.00061377529693912,-0.00061377848220564,0.00061377468612965,-0.00061377704603768,0.00061377612054376,-0.00037881436468698,0.00037880722846639,-2.4237379945268e-09,1.4809653037674e-10,-1.3703550441124e-09,-8.0435445795451e-10,-0.0007252660053285,0.00072526382338457,-0.00070031703477251,0.00070031458851992,-0.00074528157644769,0.00074527664487052,-0.00074527910288171,0.00074527917705876,-0.00070147014733928,0.00070146695287353,-0.00070146994739414,0.00070146712480039,-0.00070146931346327,0.00070146782162624,-0.00070146910939733,0.00070146799756303,-0.00070031682931216,0.00070031493765319,-0.00070031620465917,0.00070031544606948,-0.00074528137808648,0.00074527680603176,-0.00074527888947033,0.00074527935218797,-0.00070031764640842,0.00070031409756685,9.4344666652658e-10,-5.2846941447509e-10,-0.00049047305915718,0.00049047347425845,5.2393757722107e-10,-6.269716974032e-11,-0.00037818985909527,0.00037819116540906,-0.00039649633502954,0.00039649573299251,-0.00039649583743999,0.0003964962058929,-0.00037819074905725,0.00037819030507615,-0.00037818934332509,0.00037819180306989,-0.00039649574508691,0.00039649630520147,-0.00039649528121492,0.00039649683229212,-0.00059564176125284,0.00059564284256789,-0.00059564195468803,0.00059564263581409,-0.00059564224674435,0.00059564234377777,-0.0005956424544562,0.00059564215658697,-0.00056374800817131,0.0005637467763362,-0.00056374655033682,0.00056374819098778,-0.00056374639924081,0.00056374843739316,-0.00056374779688858,0.00056374694247665,-0.00037819130521759,0.00037818976423901,0.73638899787204,129794,2964,0.0024005115764812,0.0030173759293583,0.0020418863053503,17.8587559296,-9.71299525632e-05,-9.71299525632e-05,-9.71299525632e-05,3165399.4917026,0.0074880172197801
24591759,0.46983579633503,0.0079926835083105,0.0026324256529297,0.0029911876925395,0.0023690701628413,-0.00058628616187646,0.00058628289489484,-2.3790093971606e-09,-8.7597557501807e-10,-4.2926720481391e-10,-2.8734512844327e-09,-0.00038373919145773,0.0003837349650301,-0.00045056971749374,0.00045056352399979,-0.00045056921889212,0.00045056402444575,-0.00038373820365614,0.00038373587789082,-0.0003837367430058,0.00038373737200725,-0.00045056726939634,0.00045056588367983,-0.00045056677480994,0.00045056639255908,-0.00068187215261759,0.00068186920359244,-0.00068187164769684,0.00068186970126388,-0.0006818730026336,0.00068186842176753,-0.00068187249739606,0.00068186891852354,-0.00062451715011334,0.00062451160408572,-0.00062451566530995,0.00062451306209951,-0.00062451630468365,0.00062451241438017,-0.00062451482873106,0.0006245138843282,-0.00038374065395675,0.00038373349582672,-2.433217245001e-09,1.0636251497943e-10,-1.4102819578193e-09,-8.1255422022073e-10,-0.00073892377887591,0.0007389215486723,-0.00071332855477062,0.00071332610959404,-0.00075966186063046,0.00075965689161194,-0.0007596594157586,0.00075965940321942,-0.00071434983776734,0.00071434659479406,-0.00071434962548964,0.00071434677958983,-0.00071434901351435,0.00071434745560756,-0.00071434880163814,0.00071434763925923,-0.00071332839047669,0.00071332641428134,-0.00071332774126573,0.00071332694928936,-0.00075966164313335,0.00075965706973837,-0.00075965919975555,0.0007596595799487,-0.00071332920124569,0.00071332557889504,9.5717487580649e-10,-5.4579393325234e-10,-0.0004980874506814,0.00049808786181838,5.43601290964e-10,-8.7139135790329e-11,-0.00038346411357052,0.00038346542965229,-0.00040236046115175,0.0004023597918256,-0.00040235994510537,0.00040236028243112,-0.00038346498565105,0.00038346457436071,-0.00038346357652832,0.00038346608352342,-0.00040235981922517,0.0004023604154256,-0.00040235935417096,0.00040236094529064,-0.0006055496725802,0.00060555077256749,-0.00060554987786943,0.00060555055313477,-0.00060555016593923,0.00060555026589782,-0.00060555039044722,0.00060555006138718,-0.0005734613908843,0.00057346010375891,-0.00057345989679793,0.00057346155695892,-0.000573459737057,0.00057346181044238,-0.00057346115699912,0.0005734602901761,-0.00038346561216522,0.00038346396731731,0.75660586788476,129794,2964,0.0024401499289658,0.0030741099323323,0.0020735646554652,18.045654824453,-9.5634761404372e-05,-9.5634761404372e-05,-9.5634761404372e-05,3191437.3247182,0.007617048805052
24791759,0.47745467789249,0.0081083965861297,0.0026696706243828,0.0030385478026272,0.0024001781591197,-0.00059519557631968,0.00059519228474415,-2.406320983134e-09,-8.7325932929163e-10,-4.4340699150019e-10,-2.8847302069723e-09,-0.00038733501735642,0.00038733079846512,-0.00045574787372584,0.00045574164843329,-0.00045574736533578,0.00045574215912557,-0.00038733406115491,0.00038733167831119,-0.00038733257096594,0.0003873332014341,-0.00045574542852866,0.00045574400339932,-0.00045574492404846,0.00045574452239966,-0.00069318181655111,0.00069317883346091,-0.00069318130162599,0.00069317934112306,-0.00069318266803393,0.00069317805291435,-0.00069318215272383,0.00069317855968464,-0.00063435638868847,0.00063435078825413,-0.00063435487374184,0.00063435227503384,-0.00063435554227633,0.00063435159843487,-0.000634354036405,0.00063435309725471,-0.00038733650926641,0.00038732929929122,-2.4689244721992e-09,7.012119688601e-11,-1.4616833653688e-09,-8.3043966851087e-10,-0.00075201222443037,0.00075200992478527,-0.00072555190955532,0.0007255494286536,-0.00077339570727122,0.0007733906595466,-0.00077339326624136,0.0007733931694727,-0.00072676758522007,0.0007267642617841,-0.00072676736203794,0.00072676445768786,-0.00072676676062561,0.00072676512283339,-0.00072676653741162,0.00072676531800815,-0.00072555177852634,0.00072554970077802,-0.00072555109672935,0.00072555026797219,-0.00077339547857,0.00077339084853462,-0.00077339303860036,0.00077339335748903,-0.00072555258942511,0.00072554886461138,9.694618720391e-10,-5.6358783579319e-10,-0.00050510770401923,0.00050510810952567,5.5774889551255e-10,-1.0698051156904e-10,-0.00038734524663989,0.00038734655384579,-0.00040702383808751,0.00040702311975279,-0.00040702331195366,0.00040702362036736,-0.00038734611470886,0.00038734570253955,-0.00038734467791041,0.00038734724171415,-0.00040702316267907,0.00040702377698231,-0.00040702268805569,0.00040702431689609,-0.00061512059751451,0.00061512171296036,-0.00061512081349586,0.00061512148197318,-0.00061512110061136,0.0006151211961564,-0.00061512133670528,0.00061512098062954,-0.00058229578100351,0.0005822944463365,-0.00058229425528311,0.00058229592774296,-0.00058229408678811,0.00058229619488007,-0.00058229553354391,0.00058229464349971,-0.00038734677589603,0.00038734506248338,0.68706804099703,129794,2964,0.002477196456249,0.0031284770346636,0.0021027725436487,18.232263154456,-9.4141894764353e-05,-9.4141894764353e-05,-9.4141894764353e-05,3221682.8301471,0.0077386149642016
24991759,0.48520309072385,0.0082279999453138,0.0027081090342198,0.003087553109586,0.002432337801508,-0.0006046725059708,0.00060466916536481,-2.4458614611701e-09,-8.8257662259589e-10,-4.3423709375192e-10,-2.9449778851236e-09,-0.00039197531438976,0.00039197100660513,-0.00046181924094563,0.00046181288706016,-0.00046181872244007,0.00046181340822934,-0.00039197431716032,0.00039197192536309,-0.0003919727985607,0.00039197347708753,-0.00046181672804312,0.00046181530950903,-0.00046181621397744,0.00046181583849008,-0.00070492456968376,0.00070492155197897,-0.00070492404478048,0.00070492206973805,-0.00070492544557751,0.00070492074858476,-0.00070492492013847,0.00070492126549353,-0.00064468253484264,0.00064467683181817,-0.00064468098892794,0.00064467834778555,-0.0006446816637244,0.00064467766567445,-0.00064468012804891,0.00064467919306668,-0.00039197683663082,0.00039196947648603,-2.5376651632771e-09,7.3663968295562e-11,-1.5027712039852e-09,-8.5241049311046e-10,-0.00076550528906432,0.00076550292624901,-0.00073810654962075,0.00073810400026391,-0.00078741141224355,0.0007874062268522,-0.00078740890522744,0.00078740880720293,-0.00073972441305468,0.00073972099638545,-0.00073972418382932,0.00073972119843985,-0.00073972356505547,0.00073972188202544,-0.00073972333547568,0.0007397220836679,-0.00073810641413562,0.0007381042784851,-0.00073810571284613,0.00073810486422045,-0.00078741117723036,0.0007874064214585,-0.00078740867049799,0.0007874090016632,-0.00073810724841853,0.00073810341803294,9.834703913936e-10,-5.7948587767774e-10,-0.00051268445588187,0.00051268485941029,5.6628425226234e-10,-1.1730546305074e-10,-0.00039218122569952,0.0003921825409768,-0.00041252215631734,0.00041252140802617,-0.00041252162030058,0.00041252191802785,-0.00039218210487469,0.00039218167935802,-0.00039218063930334,0.00039218324995924,-0.00041252146253877,0.00041252208358221,-0.00041252097808712,0.00041252263405552,-0.00062510451597501,0.00062510564570072,-0.00062510473768916,0.0006251054077632,-0.00062510502880014,0.00062510511844605,-0.00062510527135907,0.00062510489715704,-0.0005916787191135,0.00059167734672466,-0.00059167716271644,0.00059167885552442,-0.00059167698972646,0.00059167913176797,-0.00059167846443198,0.00059167754917125,-0.00039218278409213,0.00039218102229048,0.69911855048951,129794,2964,0.0025165996056861,0.003184520843993,0.0021342931520777,18.541793394082,-9.1665652847341e-05,-9.1665652847341e-05,-9.1665652847341e-05,3256578.5259009,0.0078665904311688
25191759,0.4932639191019,0.0083559030131239,0.0027491084233693,0.0031400734515504,0.0024667211382043,-0.00061527804290162,0.00061527463103113,-2.4956351229424e-09,-9.0299619367436e-10,-4.167693493354e-10,-3.0388991621283e-09,-0.00039754719424721,0.0003975427189889,-0.00046894685047295,0.0004689403020694,-0.00046894632577522,0.00046894083156,-0.0003975461069866,0.00039754371912005,-0.00039754455560444,0.00039754530395666,-0.00046894422398423,0.0004689428278388,-0.00046894370051548,0.00046894336813675,-0.00071789334745042,0.00071789028650672,-0.00071789281204542,0.00071789081439135,-0.00071789425949382,0.00071788944694933,-0.00071789372453318,0.00071788997286667,-0.00065628439925409,0.00065627856287219,-0.00065628282309974,0.00065628010386252,-0.00065628349461176,0.00065627943386582,-0.00065628192561394,0.00065628099012037,-0.00039754873766893,0.00039754116715453,-2.6223017487757e-09,1.0433990567317e-10,-1.5278662718298e-09,-8.7797586993433e-10,-0.00078045998644449,0.00078045757318417,-0.00075217301055848,0.00075217037353807,-0.00080302317584636,0.0008030178218704,-0.00080302056169178,0.00080302052219419,-0.00075399653560448,0.00075399303257543,-0.00075399630641935,0.00075399323492051,-0.00075399565115479,0.00075399395751757,-0.00075399542228518,0.00075399415859974,-0.00075217283538576,0.00075217068716063,-0.00075217213650009,0.00075217127498295,-0.00080302293740397,0.00080301801494291,-0.00080302032817077,0.00080302071485014,-0.00075217370489369,0.0007521697877351,1.0010175860925e-09,-5.9286064733771e-10,-0.00052126437923647,0.00052126478636108,5.6836292648638e-10,-1.1691665289255e-10,-0.00039800953566238,0.00039801088920731,-0.00041905890186476,0.00041905814017554,-0.0004190583526948,0.00041905866186422,-0.00039801043697995,0.00039800999222401,-0.00039800895215365,0.00039801158983196,-0.00041905820203306,0.00041905881909721,-0.00041905771224152,0.000419059377476,-0.00063622842138647,0.00063622956513276,-0.00063622864220227,0.00063622932618242,-0.00063622894344686,0.0006362290274851,-0.00063622918706271,0.00063622880518018,-0.00060234071990199,0.00060233932221562,-0.00060233913590639,0.00060234086814246,-0.00060233895989109,0.00060234113734266,-0.000602340464979,0.00060233952658675,-0.00039801112816287,0.00039800933077672,0.7192699825286,129794,2964,0.0025606931454932,0.0032466319856735,0.0021699853955288,19.180559585092,-8.6555523319262e-05,-8.6555523319262e-05,-8.6555523319262e-05,3291889.5358072,0.0080096313663251
25391759,0.50164515271976,0.0084960696811831,0.0027938312729011,0.0031978581484363,0.0025043802598458,-0.00062661510712954,0.00062661161244057,-2.5522057961295e-09,-9.2911745324663e-10,-4.2055794490523e-10,-3.1209710083163e-09,-0.00040378847887665,0.00040378387718791,-0.00047687035580477,0.00047686363450176,-0.00047686981842662,0.00047686417485287,-0.00040378734734089,0.00040378492846034,-0.00040378576845235,0.00040378654062906,-0.00047686765613413,0.00047686624215679,-0.00047686712237995,0.00047686679199191,-0.00073162336376721,0.00073162023688439,-0.00073162281880859,0.00073162077493741,-0.00073162430128261,0.00073161937119444,-0.00073162375606914,0.00073161990778152,-0.00066899251822958,0.00066898654228675,-0.00066899091331253,0.00066898811581102,-0.00066899158426209,0.00066898743801475,-0.00066898998946328,0.0006689890244748,-0.0004037900571891,0.00040378229132394,-2.6794779589053e-09,1.283735256657e-10,-1.5482883570263e-09,-8.9223890159912e-10,-0.00079653068747144,0.00079652823927851,-0.0007674639534116,0.00076746126003427,-0.00081990125954095,0.00081989579443853,-0.00081989857006665,0.00081989857578834,-0.0007692049086989,0.00076920134140765,-0.00076920467815126,0.00076920154532997,-0.0007692039997092,0.00076920229441112,-0.00076920376904581,0.00076920249766116,-0.00076746376122238,0.00076746159941961,-0.00076746305404732,0.00076746219029181,-0.00081990102136303,0.00081989599086293,-0.00081989833371349,0.00081989877165713,-0.00076746465833195,0.00076746067164496,1.0183052193128e-09,-6.0509036340475e-10,-0.00053043305563517,0.00053043346852438,5.7467044546971e-10,-1.1615432922421e-10,-0.00040463768361698,0.00040463906305052,-0.00042637555860968,0.00042637479160122,-0.00042637500140123,0.00042637532218359,-0.00040463861250611,0.00040463814607418,-0.00040463709489494,0.00040463977845748,-0.00042637485532711,0.00042637547409565,-0.00042637435396884,0.00042637604558417,-0.00064800529320397,0.0006480064543323,-0.00064800551612687,0.00064800621334246,-0.00064800582514328,0.00064800590622992,-0.00064800607082078,0.00064800568305476,-0.00061383338828623,0.00061383196444405,-0.00061383177568839,0.00061383353758132,-0.00061383159971248,0.00061383381172235,-0.00061383313321046,0.00061383217139294,-0.00040463930258261,0.00040463748237135,0.75830138070354,129794,2964,0.0026078264753633,0.0033133731893731,0.0022081261079154,19.827821296268,-8.1377429629855e-05,-8.1377429629855e-05,-8.1377429629855e-05,3322482.2371018,0.0081628926138156
25591759,0.51034933620894,0.008646191807456,0.00284153403362,0.0032600638053685,0.0025445939684675,-0.00063850736904623,0.0006385038008998,-2.6036776700227e-09,-9.5057683817716e-10,-4.5829777347937e-10,-3.1601354417079e-09,-0.00041019523200386,0.0004101905811453,-0.00048516004935481,0.00048515323969057,-0.00048515950200298,0.00048515378998583,-0.00041019412580948,0.00041019160633702,-0.00041019251763009,0.00041019324835518,-0.0004851573480839,0.00048515584930029,-0.00048515680447432,0.00048515640942823,-0.00074603224451719,0.00074602903562278,-0.00074603168964017,0.00074602958386003,-0.00074603318216105,0.00074602816986635,-0.0007460326270072,0.00074602871648772,-0.00068260109192296,0.00068259501424785,-0.00068259945767439,0.00068259661735312,-0.00068260015745804,0.00068259590997857,-0.00068259853367713,0.0006825975261769,-0.00041019683907143,0.00041018896568549,-2.6982957738281e-09,1.1354021468908e-10,-1.5731615757878e-09,-9.0057855310883e-10,-0.00081363965808253,0.00081363717646156,-0.00078388488507408,0.00078388217358121,-0.00083797270382751,0.00083796719576924,-0.00083797001357565,0.00083796998473161,-0.00078524848772217,0.00078524488115121,-0.00078524825226447,0.00078524509029975,-0.00078524757939384,0.00078524583627139,-0.00078524734384265,0.00078524604468896,-0.00078388470971082,0.00078388249940856,-0.00078388398521324,0.00078388310563062,-0.00083797245978937,0.00083796739753964,-0.000837969771458,0.00083797018558984,-0.00078388560725605,0.00078388156984982,1.0357631480935e-09,-6.1772344650214e-10,-0.00054001762044788,0.00054001803837124,5.8586249487463e-10,-1.2172981637071e-10,-0.00041158013511039,0.00041158153320881,-0.00043406657022782,0.00043406578231319,-0.00043406600284269,0.00043406632290519,-0.00041158107671734,0.00041158060260039,-0.00041157953156002,0.00041158226582422,-0.0004340658497687,0.00043406648083262,-0.00043406533942797,0.00043406706323409,-0.00066035816042651,0.00066035934190013,-0.00066035838872916,0.0006603590952277,-0.00066035870216151,0.00066035878352596,-0.00066035895366671,0.00066035855507065,-0.0006260499741766,0.00062604851934182,-0.00062604833252415,0.00062605012237209,-0.00062604815216902,0.00062605040364708,-0.00062604971301189,0.00062604873170873,-0.00041158178329378,0.00041157992261316,0.78252854738914,129794,2964,0.0026572671516395,0.0033844211410731,0.0022479968436685,20.475418395497,-7.6196652836027e-05,-7.6196652836027e-05,-7.6196652836027e-05,3350390.3153612,0.0083245912041483
25791759,0.5191922146596,0.0087939796389604,0.0028884941290097,0.0033215166492158,0.0025839688607349,-0.00064968256671017,0.00064967894955589,-2.6418212554976e-09,-9.6279363884463e-10,-5.0418318831439e-10,-3.1609692383537e-09,-0.00041534859645745,0.00041534401819184,-0.00049228880311809,0.00049228197419838,-0.00049228822989535,0.00049228254403855,-0.00041534758055541,0.00041534497331097,-0.00041534597196584,0.00041534661381073,-0.00049228615278145,0.00049228456177275,-0.0004922856056616,0.00049228512113465,-0.00075993720733615,0.00075993393065527,-0.00075993664841123,0.00075993448453185,-0.00075993813586819,0.0007599330761052,-0.00075993756955442,0.00075993363563051,-0.00069547703143208,0.00069547087746918,-0.00069547536728203,0.00069547252075108,-0.00069547609137419,0.00069547176754137,-0.00069547445944781,0.00069547340047217,-0.00041535027137134,0.00041534234027245,-2.6970271371135e-09,7.145901616085e-11,-1.6185939247284e-09,-8.9973415152006e-10,-0.00083025793857789,0.00083025541139788,-0.00079972738812216,0.00079972468261612,-0.00085557317622806,0.00085556767757391,-0.0008555705369421,0.00085557040506255,-0.00080078641413157,0.00080078275871381,-0.0008007861673301,0.00080078297933488,-0.00080078552248391,0.00080078369808913,-0.00080078526906776,0.00080078392514707,-0.00079972727902099,0.00079972496011685,-0.00079972649698131,0.00079972561223496,-0.00085557292982727,0.00085556788889985,-0.00085557026954547,0.00085557063207192,-0.00079972816245501,0.00079972405244633,1.0527221851757e-09,-6.3447427759928e-10,-0.00054886215475498,0.0005488625744773,6.0172823634061e-10,-1.3236022934545e-10,-0.00041723495846911,0.00041723632777744,-0.00044065040628541,0.00044064960385285,-0.00044064984044812,0.00044065014223988,-0.00041723592330408,0.00041723541340367,-0.00041723430600216,0.00041723713681856,-0.00044064967761238,0.00044065031803231,-0.00044064913831689,0.00044065092463714,-0.00067217272651242,0.00067217393276072,-0.00067217296785367,0.00067217367457296,-0.00067217328309552,0.00067217335900844,-0.0006721735410199,0.00067217312687222,-0.0006375087225356,0.00063750723403196,-0.00063750705324424,0.00063750885315809,-0.00063750686188001,0.00063750916201452,-0.00063750846402941,0.00063750744764728,-0.00041723661317326,0.0004172347334509,0.7592159955113,129794,2964,0.0027037276032087,0.0034534271236464,0.0022847912805727,20.820551424588,-7.3435588603295e-05,-7.3435588603295e-05,-7.3435588603295e-05,3375229.4471882,0.0084781516350305
25991759,0.52788445808326,0.0089359950480276,0.0029336418485762,0.0033806636858126,0.0026216895136388,-0.00065964969427655,0.00065964604157286,-2.6738950776938e-09,-9.6580673223788e-10,-5.5334776612028e-10,-3.1490756772085e-09,-0.00041946888934679,0.00041946438977181,-0.00049825460977963,0.00049824778385462,-0.00049825401842044,0.00049824837364703,-0.0004194679553414,0.00041946525762362,-0.00041946635178028,0.00041946689383565,-0.00049825200663088,0.00049825031823149,-0.00049825146065213,0.00049825087728285,-0.00077259706987721,0.00077259373123222,-0.00077259650502878,0.0007725942923133,-0.00077259798228925,0.00077259289521535,-0.00077259740317283,0.00077259346770264,-0.00070695314584932,0.00070694694078957,-0.00070695144400229,0.00070694862207816,-0.00070695221679773,0.00070694781965457,-0.00070695056782547,0.00070694947318814,-0.00041947061996093,0.00041946265267239,-2.6990056454949e-09,9.0011408751852e-12,-1.6817612827866e-09,-8.9819830161294e-10,-0.0008454325864473,0.00084542999774849,-0.0008140095408869,0.00081400684667958,-0.00087159423367729,0.00087158871835509,-0.00087159166563715,0.000871591379915,-0.00081504251072556,0.0008150387963933,-0.0008150422466382,0.00081503903569881,-0.00081504164107494,0.00081503971277477,-0.00081504136518359,0.00081503996472171,-0.00081400951721044,0.00081400704104551,-0.00081400865898473,0.00081400776651304,-0.00087159397582121,0.00087158894187679,-0.00087159136751877,0.00087159163670188,-0.00081401036599417,0.00081400616216153,1.0664210402292e-09,-6.5183744172536e-10,-0.00055659547549327,0.00055659589143803,6.2364543708296e-10,-1.5762845631621e-10,-0.00042181319203558,0.00042181451326665,-0.00044609693950139,0.00044609608513319,-0.00044609637279824,0.00044609662583728,-0.000421814140165,0.00042181361159822,-0.00042181246399573,0.00042181539999039,-0.00044609617193356,0.00044609683444021,-0.0004460956136857,0.00044609746282819,-0.00068279023377887,0.00068279146510156,-0.00068279049333957,0.00068279118659116,-0.00068279080346203,0.00068279087709526,-0.00068279107506206,0.00068279063349977,-0.00064766032687883,0.00064765879877434,-0.00064765863442704,0.00064766043462699,-0.00064765841935376,0.00064766077385982,-0.00064766006182473,0.0006476590157268,-0.00042181484834251,0.00042181291697575,0.74286074154762,129794,2964,0.0027451658083516,0.0035164338308611,0.0023169648024126,20.694885037049,-7.4440919703606e-05,-7.4440919703606e-05,-7.4440919703606e-05,3395648.4027973,0.0086159586860685
26191759,0.53641948215469,0.0090784008057645,0.0029788137747742,0.0034400727783253,0.002659514252665,-0.00066959024253276,0.00066958654425633,-2.7128324646539e-09,-9.7173345306298e-10,-5.964705433961e-10,-3.1555289504919e-09,-0.00042390751303278,0.00042390298653116,-0.00050445648938561,0.00050444965040987,-0.00050445590223692,0.00050445023898195,-0.0004239066371219,0.00042390378488161,-0.0004239049633717,0.00042390548959766,-0.00050445392665913,0.00050445213165492,-0.0005044533593956,0.00050445271294238,-0.00078509937904202,0.00078509596842301,-0.00078509879802833,0.00078509654396417,-0.00078510027462864,0.00078509514931449,-0.00078509968884101,0.00078509572785863,-0.00071842183404152,0.00071841558214446,-0.00071842010921132,0.00071841727774576,-0.00071842093727966,0.00071841643511307,-0.00071841923617829,0.00071841813311264,-0.00042390923222484,0.00042390125756924,-2.7122175894085e-09,-3.7143176013785e-11,-1.7277197458128e-09,-9.0711782740053e-10,-0.00086046664747718,0.0008604640038131,-0.00082817209924441,0.00082816940999099,-0.00088745902026992,0.00088745344838788,-0.00088745647447264,0.0008874560975281,-0.00082918163031447,0.00082917785910744,-0.00082918135036431,0.00082917811482108,-0.00082918076964612,0.00082917876890825,-0.00082918048537567,0.00082917902844367,-0.00082817212015391,0.00082816955112679,-0.00082817123772344,0.00082817030710568,-0.0008874587340272,0.00088745369528348,-0.00088745617821763,0.00088745635100461,-0.00082817296622508,0.00082816867348459,1.0763878971585e-09,-6.6919517398797e-10,-0.00056434289290716,0.00056434330062867,6.4805023313154e-10,-1.9233919680513e-10,-0.00042675583663147,0.00042675715951171,-0.00045178959742968,0.00045178865076158,-0.00045178900810648,0.00045178921289867,-0.00042675674344586,0.00042675628055845,-0.00042675508599397,0.00042675805535342,-0.0004517887569918,0.00045178947188083,-0.00045178820557398,0.00045179009500488,-0.00069328850534535,0.00069328975372477,-0.00069328878025718,0.00069328945953902,-0.00069328908036572,0.00069328916098266,-0.00069328937487098,0.00069328889253643,-0.00065783361990926,0.00065783202660919,-0.0006578318914501,0.00065783370558597,-0.00065783166532971,0.00065783404826971,-0.00065783332119902,0.00065783227346076,-0.00042675755550097,0.00042675548627336,0.75895315827983,129794,2964,0.0027864916610312,0.0035788519190471,0.0023491959814317,20.557011612684,-7.5543907098527e-05,-7.5543907098527e-05,-7.5543907098527e-05,3414259.1820093,0.0087531342144304
26391759,0.54479805134891,0.0092228101991035,0.0030244711654055,0.0035004747990084,0.0026978642346896,-0.0006795495775945,0.00067954582712365,-2.7537015106914e-09,-9.8273455078111e-10,-6.3992486838159e-10,-3.1669350621901e-09,-0.0004284398124108,0.0004284352943745,-0.00051079114766378,0.00051078427447255,-0.00051079055016499,0.00051078487416137,-0.00042843899538697,0.00042843603391217,-0.00042843729494742,0.00042843776419904,-0.00051078861444271,0.00051078672464564,-0.00051078803853395,0.00051078731523657,-0.00079756720514754,0.00079756372278837,-0.00079756661463262,0.00079756430800223,-0.00079756809045987,0.00079756291449236,-0.00079756749428048,0.00079756350325207,-0.00073006776134916,0.00073006143719547,-0.00073006600720404,0.00073006316344977,-0.00073006687256708,0.00073006228202468,-0.00073006514327485,0.00073006400877516,-0.00042844156335538,0.00042843353232613,-2.7184687448518e-09,-7.2980620594159e-11,-1.7693159594006e-09,-9.0650366473263e-10,-0.00087562488662397,0.00087562220162934,-0.00084257178027089,0.00084256910188127,-0.00090354572288661,0.00090354012374943,-0.00090354320955301,0.00090354274599428,-0.00084333271612876,0.00084332890088169,-0.00084333242329588,0.0008433291701178,-0.00084333186744404,0.00084332980058569,-0.00084333156855152,0.00084333007532255,-0.00084257185354048,0.00084256919237507,-0.000842570929614,0.00084256998940548,-0.00090354542327745,0.00090354038352361,-0.00090354289754769,0.0009035430149101,-0.00084257268911752,0.00084256832353927,1.0899799849019e-09,-6.8581616340462e-10,-0.00057211397684783,0.00057211438152755,6.6765985261433e-10,-2.1500065679089e-10,-0.00043186527615633,0.00043186658305013,-0.00045765640223472,0.00045765540212175,-0.00045765580380703,0.00045765597348772,-0.00043186617052971,0.00043186571488511,-0.00043186448330714,0.00043186752250407,-0.00045765552102405,0.00045765626371158,-0.00045765495972525,0.00045765689835087,-0.00070377024797194,0.00070377151735542,-0.00070377053681143,0.00070377120896611,-0.00070377083301198,0.00070377091414096,-0.00070377114156109,0.00070377063226455,-0.00066816988487863,0.00066816824426043,-0.00066816812746978,0.0006681699545222,-0.00066816788721336,0.00066817031023428,-0.0006681695712891,0.00066816850536667,-0.00043186702311754,0.00043186488213265,0.78422388642227,129794,2964,0.0028278947649767,0.0036417812121466,0.0023815254346103,20.418642931275,-7.6650856549797e-05,-7.6650856549797e-05,-7.6650856549797e-05,3428559.7501722,0.0088910204158167
26591759,0.55318607419234,0.0093669768058025,0.0030700064132639,0.0035608966071236,0.002736073785415,-0.00068998236953809,0.00068997856743952,-2.7943461392024e-09,-9.9338963562852e-10,-6.7682506513532e-10,-3.1843538117504e-09,-0.00043312495318926,0.00043312042796278,-0.00051738532312117,0.00051737840521297,-0.0005173847163861,0.00051737901460475,-0.0004331241830379,0.00043312112017342,-0.00043312245194099,0.00043312288099917,-0.00051738280897132,0.00051738083585058,-0.00051738222306893,0.00051738143715165,-0.00081061618388857,0.00081061263404074,-0.00081061558331162,0.00081061322945588,-0.00081061706271065,0.00081061183284975,-0.00081061645663727,0.00081061243143165,-0.00074226422642462,0.0007422578291367,-0.00074226244320649,0.00074225958433544,-0.00074226334405196,0.0007422586674224,-0.00074226158511646,0.00074226042413857,-0.00043312673178701,0.00043311863765273,-2.7295898961965e-09,-1.0128223026687e-10,-1.7989119408316e-09,-9.153040183318e-10,-0.00089148109855345,0.00089147837480994,-0.00085767924765057,0.000857676557898,-0.00092040516070412,0.00092039953122098,-0.00092040266593427,0.00092040214030441,-0.00085808638078146,0.00085808252605722,-0.00085808608137571,0.00085808280220904,-0.00085808553889801,0.00085808342079943,-0.00085808523344679,0.00085808370238111,-0.00085767934792264,0.00085767662298666,-0.00085767840370887,0.00085767743958262,-0.00092040485316657,0.00092039979812557,-0.0009204023471191,0.00092040241530777,-0.00085768017784395,0.00085767575857422,1.1056688017774e-09,-7.0020666228476e-10,-0.00058031837067409,0.00058031877668295,6.7932612003955e-10,-2.2521757681966e-10,-0.00043713798245521,0.00043713930070337,-0.00046380466060483,0.0004638036300447,-0.00046380405173885,0.00046380421170231,-0.00043713888455126,0.00043713842414601,-0.00043713717082762,0.00043714026032682,-0.00046380375749139,0.00046380451362704,-0.00046380318731475,0.00046380515836309,-0.00071481200403925,0.00071481329176539,-0.00071481229994308,0.00071481297616298,-0.00071481259886049,0.00071481267840207,-0.00071481291500022,0.00071481238952239,-0.00067903229421597,0.00067903061710474,-0.00067903050685296,0.00067903235768724,-0.00067903026060886,0.0006790327209123,-0.00067903197173001,0.00067903088538401,-0.00043713976041316,0.00043713756831446,0.78230622732607,129794,2964,0.0028712649972944,0.003707604133999,0.0024156567793711,20.571083812547,-7.5431329499623e-05,-7.5431329499623e-05,-7.5431329499623e-05,3445136.4854215,0.009035650013198
26791759,0.56173964957942,0.0095106124931171,0.0031154034338252,0.0036211678416244,0.0027740412176676,-0.00070097178074565,0.00070096793127112,-2.8318361903776e-09,-1.0024299873343e-09,-7.0479435204575e-10,-3.2076366331086e-09,-0.00043812012779662,0.00043811559078906,-0.00052433841699444,0.00052433143781653,-0.00052433779864373,0.00052433206126644,-0.00043811938206597,0.00043811624961639,-0.0004381176347665,0.00043811802677004,-0.0005243358950663,0.00052433386197826,-0.00052433530598304,0.0005243344691264,-0.00082435083895507,0.00082434723274477,-0.00082435023033267,0.00082434783621588,-0.00082435171757859,0.00082434643287045,-0.00082435110042216,0.0008243470420658,-0.00075492415380336,0.00075491768209726,-0.00075492233629421,0.00075491946777955,-0.00075492327237184,0.00075491852388222,-0.00075492148802403,0.00075492030395023,-0.00043812194333109,0.00043811376210388,-2.7535601442748e-09,-1.2773887060085e-10,-1.8282425594007e-09,-9.323773303315e-10,-0.00090799448653744,0.00090799171620239,-0.00087334202117655,0.00087333929395341,-0.00093786541787537,0.00093785973641904,-0.00093786293239841,0.0009378623444305,-0.00087353824565751,0.00087353434551974,-0.00087353794380897,0.00087353462420797,-0.0008735374071466,0.00087353523798328,-0.0008735370963377,0.0008735355252603,-0.00087334213320578,0.0008733393432678,-0.00087334117365728,0.00087334017986791,-0.00093786510757552,0.00093786000041402,-0.00093786260503734,0.00093786262725535,-0.00087334295398946,0.00087333848456437,1.1240820640039e-09,-7.1355601441239e-10,-0.00058901692907507,0.00058901733963653,6.8370843565731e-10,-2.2584216008259e-10,-0.00044266871765214,0.00044267005640093,-0.00047023022716201,0.00047022918666138,-0.00047022961116234,0.00047022977528501,-0.00044266963810154,0.00044266914673299,-0.00044266788754669,0.0004426710248267,-0.00047022932085039,0.00047023007148704,-0.00047022873981799,0.00047023073006112,-0.00072647532712703,0.00072647663309598,-0.00072647562546469,0.00072647631365083,-0.00072647593371126,0.00072647600734325,-0.00072647624995164,0.00072647571808902,-0.00069039863542224,0.00069039693514373,-0.00069039682253292,0.00069039870483786,-0.00069039656774356,0.00069039907126085,-0.00069039831368537,0.00069039719856375,-0.00044267051266871,0.00044266829908061,0.76472632606117,129794,2964,0.0029169470368823,0.0037761502665015,0.00245184269102,21.003257241947,-7.1973942064423e-05,-7.1973942064423e-05,-7.1973942064423e-05,3467106.5534981,0.0091874572717532
26991759,0.57045805921079,0.0096532382864695,0.0031605300698681,0.0036810761552225,0.0028116320613789,-0.00071201765619099,0.00071201376673332,-2.867514660719e-09,-1.0069743620362e-09,-7.2223319252173e-10,-3.2309113988598e-09,-0.00044308933453501,0.00044308477658703,-0.00053126757845652,0.00053126054616549,-0.00053126695150204,0.00053126117682086,-0.00044308861711172,0.00044308541166844,-0.00044308683032664,0.00044308722798103,-0.00053126505634685,0.00053126297492099,-0.00053126445303639,0.00053126359549072,-0.00083822530536102,0.00083822165052779,-0.00083822468553618,0.00083822226566552,-0.00083822618584287,0.00083822085034494,-0.0008382255595299,0.00083822146892085,-0.00076743790401044,0.00076743135731046,-0.0007674360641528,0.00076743317326997,-0.00076743701665316,0.00076743220122416,-0.00076743520033683,0.00076743401703683,-0.00044309117294506,0.00044308292548526,-2.7840421956573e-09,-1.5095070675622e-10,-1.8592954041289e-09,-9.5466494338623e-10,-0.0009245247528314,0.00092452192877909,-0.00088888056761898,0.00088887779597737,-0.00095523349609878,0.00095522774967935,-0.00095523100053385,0.00095523036848768,-0.00088913754623254,0.00088913358484915,-0.00088913724049303,0.00088913386743608,-0.00088913670397223,0.00088913448195422,-0.00088913639140979,0.00088913477080499,-0.0008888806886834,0.00088887784327074,-0.00088887972135035,0.00088887868221191,-0.00095523318096797,0.00095522802156419,-0.00095523067352353,0.00095523065051409,-0.0008888815168255,0.00088887697758259,1.1391758897067e-09,-7.2725672274751e-10,-0.00059774144741967,0.00059774185988317,6.9238820665435e-10,-2.3145654947333e-10,-0.00044814820754027,0.00044814957118403,-0.00047653103529108,0.00047652997303942,-0.00047653040747872,0.0004765305740299,-0.00044814914678895,0.00044814865112112,-0.00044814737432196,0.0004481505507545,-0.00047653011351165,0.00047653087452017,-0.00047652952399878,0.0004765315412171,-0.00073822984642634,0.00073823116735677,-0.00073823014880886,0.00073823084454023,-0.00073823046183961,0.00073823053310353,-0.00073823078404691,0.00073823023850959,-0.00070174711639253,0.00070174537985338,-0.00070174526933026,0.00070174717703152,-0.00070174501672273,0.00070174754952807,-0.0007017467856731,0.00070174565039142,-0.0004481500411562,0.00044814778020057,0.74557636200241,129794,2964,0.0029628619795372,0.0038447609359243,0.0024881364359294,21.442723562283,-6.8458211501733e-05,-6.8458211501733e-05,-6.8458211501733e-05,3491000.3809718,0.009339698120636
27191759,0.57933593803433,0.0097943402495814,0.0032052451983115,0.0037403798043081,0.0028487152469618,-0.00072305601226356,0.00072305208390088,-2.9020560508562e-09,-1.0113112312831e-09,-7.2397812449467e-10,-3.2695932412591e-09,-0.00044797342011133,0.00044796881381398,-0.00053808769976124,0.00053808058129839,-0.0005380870633987,0.00053808122154242,-0.00044797269476974,0.00044796945463164,-0.00044797087663965,0.00044797130197092,-0.00053808513954519,0.00053808304411622,-0.00053808452577455,0.00053808367545799,-0.00085218236577977,0.00085217867450488,-0.00085218173582174,0.00085217930006996,-0.00085218325859257,0.00085217786322472,-0.00085218262235485,0.00085217849159647,-0.00077970895323689,0.00077970232537114,-0.00077970708464645,0.00077970417059057,-0.00077970805278576,0.0007797031816943,-0.00077970620653273,0.00077970502803053,-0.00044797528597775,0.00044796693457894,-2.8364148089452e-09,-1.6371088796717e-10,-1.8969715410164e-09,-9.7937614406931e-10,-0.0009410126558504,0.00094100976892136,-0.00090424838033802,0.00090424554727956,-0.00097247810226654,0.00097247224596166,-0.00097247556727024,0.00097247490627573,-0.00090481875922205,0.00090481471773435,-0.00090481844903785,0.00090481500477945,-0.0009048179036012,0.00090481562871862,-0.0009048175867853,0.00090481592181481,-0.00090424850207444,0.00090424559596593,-0.00090424752221605,0.0009042464461796,-0.00097247778190546,0.00097247252280371,-0.00097247523620005,0.00097247519171452,-0.0009042493437586,0.00090424471581648,1.1545145899729e-09,-7.4174532063079e-10,-0.00060645108103749,0.00060645149444523,7.0028540575695e-10,-2.3812728834447e-10,-0.00045351352327614,0.0004535149052201,-0.0004826639969144,0.00048266291127224,-0.00048266335859627,0.00048266352271574,-0.00045351447785093,0.00045351397061763,-0.00045351267963122,0.00045351589840334,-0.00048266306034654,0.00048266382769653,-0.00048266246198293,0.0004826645042672,-0.00075003605490823,0.00075003739109338,-0.00075003636192551,0.00075003706399068,-0.00075003668027226,0.00075003674735087,-0.00075003700743768,0.00075003644780111,-0.00071302900508229,0.0007130272336224,-0.00071302712665332,0.00071302906003932,-0.00071302687081985,0.00071302943686116,-0.00071302866774328,0.00071302750927596,-0.00045351538904062,0.00045351308367156,0.72509827782506,129794,2964,0.0030087439396199,0.0039131903591355,0.0025243681190065,21.882486151223,-6.4940110790216e-05,-6.4940110790216e-05,-6.4940110790216e-05,3516686.1153109,0.0094916847293463
27391759,0.58830277874103,0.0099398560586463,0.0032512665941224,0.0038016276328778,0.0028869618316461,-0.00073417253304624,0.00073416855357177,-2.942619243002e-09,-1.0219877470641e-09,-7.1989056530797e-10,-3.3263363953682e-09,-0.00045315768776568,0.00045315299155772,-0.00054520106762382,0.0005451938298647,-0.00054520042311348,0.00054519447712646,-0.00045315693226167,0.00045315366366689,-0.00045315507708905,0.00045315554854409,-0.00054519845023266,0.00054519635026568,-0.0005451978232289,0.00054519699441167,-0.00086617339731652,0.0008661696643689,-0.00086617275677137,0.00086617030115479,-0.00086617430901485,0.00086616883486244,-0.00086617366382792,0.00086616947238676,-0.00079207610918566,0.00079206938170225,-0.00079207421503883,0.00079207125456333,-0.00079207518863426,0.00079207025617128,-0.00079207331187507,0.00079207213562536,-0.000453159574568,0.00045315109129434,-2.8961569848627e-09,-1.5978213275817e-10,-1.9335180114365e-09,-9.9723946917316e-10,-0.00095759810912633,0.0009575951673063,-0.00091973924040866,0.00091973635342959,-0.00098981565422026,0.00098980967056206,-0.00098981305397102,0.00098981239809923,-0.00092061229709058,0.0009206081723168,-0.0009206119800379,0.00092060846643773,-0.0009206114197718,0.00092060910629539,-0.00092061109792835,0.00092060940466795,-0.00091973936231944,0.00091973640816249,-0.00091973836559658,0.0009197372714567,-0.00098981532506451,0.00098980995677736,-0.00098981271909283,0.000989812686519,-0.00091974022825567,0.00091973550260734,1.1694602715084e-09,-7.5689114120107e-10,-0.0006152177928607,0.00061521820640317,7.1228384233244e-10,-2.4908207427243e-10,-0.00045922203108275,0.00045922342933815,-0.00048903400870138,0.00048903288998314,-0.00048903335815005,0.00048903351391122,-0.00045922299624618,0.00045922249036597,-0.00045922117580334,0.00045922444110263,-0.00048903304800981,0.00048903383188058,-0.00048903244118803,0.00048903451631878,-0.00076184052206303,0.00076184187459524,-0.00076184083600371,0.00076184154145743,-0.00076184115671176,0.00076184122195287,-0.00076184149250566,0.00076184091428468,-0.00072448636149634,0.0007244845484711,-0.00072448444882312,0.00072448640526919,-0.00072448419060925,0.00072448678875553,-0.00072448601262393,0.00072448483400584,-0.00045922393637007,0.00045922157207035,0.74093825074092,129794,2964,0.0030549486535768,0.0039820183263153,0.0025608367430471,22.214285132098,-6.2285718943214e-05,-6.2285718943214e-05,-6.2285718943214e-05,3539223.7555504,0.0096446607592525
27591759,0.59731377646428,0.010087931345278,0.0032980213806483,0.0038640568682108,0.0029258530964188,-0.00074527843308601,0.00074527439714091,-2.9857869217591e-09,-1.0352510936427e-09,-7.1251646834628e-10,-3.3926098941995e-09,-0.00045827293264211,0.00045826815354453,-0.00055234470870929,0.00055233732400208,-0.00055234404871634,0.00055233798673617,-0.00045827213645298,0.00045826886804762,-0.00045827026475257,0.00045827076741041,-0.00055234201116171,0.00055233992136615,-0.00055234137932746,0.00055234057070625,-0.00088019412914624,0.00088019035698028,-0.00088019348057901,0.00088019100204143,-0.00088019506747111,0.00088018950202764,-0.00088019441062888,0.00088019015116629,-0.00080449765181429,0.00080449080867114,-0.00080449572271284,0.00080449271589547,-0.00080449670111598,0.00080449171234228,-0.0008044948006258,0.00080449361545782,-0.00045827486702172,0.00045826620818653,-2.9582765927396e-09,-1.4694918855132e-10,-1.971343302591e-09,-1.0069089127902e-09,-0.00097431996698176,0.00097431697734528,-0.00093542997994527,0.00093542704471608,-0.0010073550269388,0.001007348915154,-0.0010073523581815,0.0010073517137804,-0.00093645595767747,0.00093645175307489,-0.0009364556335573,0.00093645205475702,-0.00093645505833176,0.00093645271094493,-0.00093645472586996,0.00093645302050621,-0.00093543010597758,0.00093542709687486,-0.00093542907658315,0.00093542799288411,-0.0010073546928666,0.0010073492057952,-0.0010073520086543,0.0010073520171631,-0.00093543099179644,0.00093542617121087,1.1847503666473e-09,-7.7173895384588e-10,-0.00062393547024782,0.00062393588450366,7.2314790703279e-10,-2.5926113415794e-10,-0.00046494984458148,0.00046495123357589,-0.00049536412386683,0.00049536298096243,-0.00049536346829199,0.00049536360897527,-0.00046495081866117,0.00046495028964614,-0.00046494895570012,0.00046495228467881,-0.00049536314731968,0.00049536393773803,-0.00049536252667314,0.00049536463849104,-0.00077364124809795,0.00077364261963963,-0.00077364157092174,0.00077364227864128,-0.00077364189491278,0.00077364195560573,-0.00077364223560478,0.00077364164267676,-0.00073605232106285,0.00073605047909673,-0.00073605038876274,0.00073605236808145,-0.00073605011435701,0.00073605275255398,-0.00073605197486724,0.00073605076918996,-0.0004649517645913,0.00046494936756484,0.75071315030545,129794,2964,0.0031011082526196,0.0040514063425837,0.0025971023516937,22.481996679737,-6.0144026562104e-05,-6.0144026562104e-05,-6.0144026562104e-05,3556071.056574,0.0097979754305243
27791759,0.60636131736375,0.010238668640108,0.0033455405320626,0.003927713798829,0.0029654143092166,-0.00075650383165588,0.0007564997365215,-3.0303271239394e-09,-1.0495395721689e-09,-7.0983162088123e-10,-3.4581406936609e-09,-0.00046352596082618,0.00046352107107795,-0.00055967387247223,0.00055966634985313,-0.00055967320552349,0.00055966702037682,-0.00046352512327144,0.00046352182333193,-0.00046352321523467,0.00046352375862178,-0.00055967110684087,0.00055966901104267,-0.00055967046377444,0.00055966967279477,-0.0008943551227723,0.0008943513045299,-0.00089435446323592,0.00089435196053559,-0.00089435608352498,0.00089435042831031,-0.00089435541733217,0.00089435108661994,-0.00081719819928525,0.00081719125005045,-0.00081719624070089,0.000817193182123,-0.00081719723271577,0.00081719216992083,-0.0008171952974987,0.0008171941033644,-0.00046352791468748,0.00046351910540026,-3.0130678837268e-09,-1.3031308782241e-10,-2.0014787537641e-09,-1.0135882749131e-09,-0.00099128265789029,0.00099127963127245,-0.00095141193591621,0.00095140896593824,-0.0010251873219411,0.001025181089441,-0.0010251845827396,0.0010251839662246,-0.00095249042573104,0.00095248615297623,-0.00095249009354945,0.00095248646330328,-0.00095248950329772,0.00095248713622827,-0.00095248916448117,0.00095248745258212,-0.00095141206233804,0.00095140901763383,-0.0009514110112368,0.00095140993612624,-0.0010251869765755,0.0010251813904037,-0.0010251842279203,0.0010251842738948,-0.00095141297104713,0.00095140806662814,1.1996267278152e-09,-7.867096321784e-10,-0.00063273655970106,0.00063273697382218,7.3656721915647e-10,-2.731880690604e-10,-0.0004709015718578,0.00047090297281447,-0.00050181462672118,0.00050181344327763,-0.0005018139581606,0.00050181408371146,-0.00047090254523203,0.00047090202113731,-0.0004709006654474,0.00047090404269098,-0.00050181361967984,0.00050181442911476,-0.00050181299333447,0.00050181513840046,-0.00078554495999855,0.0007855463490706,-0.00078554529105995,0.00078554600025352,-0.00078554561610767,0.00078554567611444,-0.00078554596624792,0.00078554535331222,-0.00074782450985049,0.00074782262805122,-0.00074782254682072,0.00074782454987753,-0.00074782226410683,0.00074782493920079,-0.00074782415334202,0.00074782293040915,-0.00047090352987798,0.00047090106685565,0.76134594341175,129794,2964,0.0031477631109307,0.0041217872165958,0.0026337154512008,22.748018740673,-5.8015850074618e-05,-5.8015850074618e-05,-5.8015850074618e-05,3569887.4421224,0.009953167590201
27991759,0.61543849686874,0.01039217125011,0.0033938515534563,0.0039926500576237,0.0030056696390296,-0.0007678606472172,0.00076785649643782,-3.0730146517177e-09,-1.0621722718074e-09,-7.186685726243e-10,-3.5077253702507e-09,-0.00046897391735972,0.00046896895906025,-0.00056717697676893,0.00056716934560217,-0.00056717630028478,0.0005671700262267,-0.00046897306840141,0.00046896972073302,-0.00046897112931579,0.00046897168606634,-0.00056717416966625,0.00056717204689446,-0.0005671735169417,0.0005671727193049,-0.00090866622542719,0.00090866235634115,-0.00090866555579857,0.00090866302266418,-0.00090866720076565,0.00090866146736591,-0.00090866652473485,0.00090866213552744,-0.00083009528821595,0.00083008823909728,-0.00083009330073996,0.00083009020088917,-0.00083009430532773,0.00083008917400664,-0.00083009234074725,0.0008300911374961,-0.00046897589960584,0.00046896696500955,-3.0511841663005e-09,-1.2660992813338e-10,-2.0314646053125e-09,-1.0172912226766e-09,-0.0010085033506938,0.0010085002902171,-0.00096769152828324,0.00096768853711096,-0.0010433450156793,0.0010433386964242,-0.0010433422349134,0.0010433416196612,-0.00096873036846816,0.00096872603942391,-0.00096873002800542,0.00096872635850595,-0.00096872943297406,0.00096872703771055,-0.00096872908600597,0.00096872736269094,-0.00096769166750455,0.00096768857772985,-0.00096769059058476,0.0009676895214687,-0.0010433446600919,0.001043339006547,-0.0010433418712973,0.0010433419348748,-0.00096769258995578,0.00096768761161104,1.2146375165804e-09,-8.0171217139054e-10,-0.00064162437339285,0.00064162478772329,7.5034955744362e-10,-2.8660788509745e-10,-0.00047701478235119,0.00047701618781184,-0.00050839675827573,0.00050839553822277,-0.00050839607922943,0.00050839618878386,-0.00047701575853019,0.00047701523354819,-0.0004770138528283,0.00047701728485958,-0.00050839572361261,0.00050839655062621,-0.00050839508866188,0.00050839727043251,-0.00079754741720431,0.00079754882631976,-0.00079754775720777,0.00079754846798295,-0.00079754808321996,0.00079754814342147,-0.00079754844259571,0.00079754781103418,-0.00075990467630055,0.0007599027539236,-0.00075990268063946,0.00075990470445179,-0.00075990239370959,0.00075990510520696,-0.00075990430659449,0.00075990306353661,-0.00047701677181897,0.00047701425182725,0.77288939471286,129794,2964,0.0031949627432821,0.0041932314486042,0.0026706901244244,23.013971940214,-5.5888224478285e-05,-5.5888224478285e-05,-5.5888224478285e-05,3580497.0675619,0.010110373593029
28191759,0.62450535323729,0.0105479876442,0.0034428137049494,0.00405867151773,0.0030465024215208,-0.0007791955576861,0.00077919135698127,-3.1124449533549e-09,-1.0724829358825e-09,-7.4146605551509e-10,-3.5370047621089e-09,-0.00047444216353149,0.00047443718423997,-0.00057469356999985,0.00057468586765559,-0.00057469288124082,0.00057468656073316,-0.00047444133765518,0.00047443792300764,-0.00047443937594902,0.00047443990987208,-0.00057469075273151,0.00057468857877863,-0.00057469009315053,0.00057468925868011,-0.00092297609708325,0.00092297217240026,-0.00092297541864559,0.00092297284773337,-0.0009229770762999,0.00092297128114942,-0.00092297638978708,0.00092297195983558,-0.00084302297162263,0.00084301583670176,-0.00084302095318917,0.00084301783012772,-0.0008430219804813,0.00084301677851754,-0.00084301999036273,0.00084301876807038,-0.00047444418089007,0.00047443515500229,-3.0713139423497e-09,-1.3957052410232e-10,-2.063520301658e-09,-1.017760519442e-09,-0.0010258292272921,0.0010258261341586,-0.00098411504704799,0.00098411204886979,-0.0010617105440892,0.0010617041740977,-0.0010617077570014,0.0010617071069168,-0.00098502033835375,0.00098501596470337,-0.00098501998877011,0.00098501629325275,-0.00098501940196737,0.0009850169655692,-0.00098501904412464,0.00098501730173922,-0.00098411521583971,0.00098411206285946,-0.00098411410442242,0.00098411303919112,-0.0010617101793179,0.0010617044924509,-0.0010617073798963,0.0010617074340843,-0.00098411613851106,0.00098411109574938,1.2302251257389e-09,-8.1704566955093e-10,-0.00065047129050486,0.00065047170532324,7.6493789699677e-10,-3.0018676674252e-10,-0.00048318003877136,0.00048318144099869,-0.00051497568380739,0.000514974429548,-0.00051497499702488,0.00051497508795422,-0.00048318101808436,0.0004831804845375,-0.00048317907735107,0.0004831825746622,-0.00051497462359376,0.00051497546661796,-0.00051497397644214,0.00051497620004846,-0.00080950570699141,0.00080950713708576,-0.00080950605708735,0.0008095067682433,-0.0008095063840777,0.00080950644287,-0.00080950675212094,0.00080950610204849,-0.00077219802268845,0.00077219606151903,-0.00077219599516172,0.00077219803780787,-0.00077219570167594,0.00077219845337075,-0.00077219764187512,0.00077219637537139,-0.00048318205288641,0.00048317948289676,0.78542227606927,129794,2964,0.0032420703439383,0.0042651042180383,0.0027074963284124,23.224045643756,-5.4207634849953e-05,-5.4207634849953e-05,-5.4207634849953e-05,3587210.4735794,0.010267774219569
28391759,0.63354429231606,0.010706047366432,0.0034924073086664,0.0041257297994409,0.0030879102583245,-0.00079056829878484,0.0007905640540941,-3.1496105207076e-09,-1.0790590358695e-09,-7.7859057884226e-10,-3.5462165573125e-09,-0.00047997064327768,0.00047996567040119,-0.00058226636876507,0.00058225863837642,-0.00058226567189305,0.00058225934043028,-0.00047996987422249,0.00047996635076311,-0.00047996787658241,0.00047996837236432,-0.00058226357857801,0.00058226132087283,-0.00058226290783948,0.00058226201295736,-0.00093734308373635,0.00093733909583404,-0.00093734239447472,0.00093733978209047,-0.00093734405385865,0.00093733821524679,-0.00093734335784761,0.00093733890342089,-0.00085604717968915,0.00085603998032143,-0.00085604513295238,0.00085604200192718,-0.00085604619729079,0.0008560409128368,-0.00085604417519496,0.00085604293424776,-0.00047997268449268,0.00047996361721808,-3.0739597665804e-09,-1.6941208532892e-10,-2.0940522589791e-09,-1.0185988325784e-09,-0.0010433313662971,0.0010433282415828,-0.0010007521268491,0.0010007491366252,-0.0010803663675413,0.0010803599771442,-0.0010803636034024,0.0010803628907056,-0.0010014160138214,0.0010014116073787,-0.0010014156542954,0.0010014119462677,-0.0010014150861518,0.0010014126007889,-0.0010014147196425,0.0010014129459906,-0.001000752334217,0.0010007491132204,-0.0010007511944264,0.0010007501173711,-0.0010803659895626,0.0010803603070344,-0.0010803632180969,0.0010803632244611,-0.0010007532489054,0.0010007481530939,1.2448330423778e-09,-8.3192074936275e-10,-0.00065933536101037,0.00065933577569014,7.8124257930801e-10,-3.164485638556e-10,-0.00048940870456198,0.00048941010937173,-0.00052159729163938,0.0005215959937501,-0.00052159659321139,0.00052159666372423,-0.0004894096798752,0.00048940915509712,-0.00048940771895101,0.00048941127073927,-0.00052159619722488,0.00052159706443135,-0.0005215955430229,0.00052159780642517,-0.00082150115737449,0.0008215026073098,-0.00082150151760055,0.00082150222813723,-0.00082150184363761,0.00082150190378819,-0.00082150222319013,0.00082150155155847,-0.00078478729401348,0.00078478528982429,-0.00078478523269214,0.00078478729562353,-0.00078478493403418,0.00078478772146652,-0.0007847868970581,0.00078478561351038,-0.0004894107540014,0.0004894081169597,0.79903791384447,129794,2964,0.0032893342893341,0.004337700211381,0.0027443753032771,23.414955469416,-5.2680356244676e-05,-5.2680356244676e-05,-5.2680356244676e-05,3590864.5120659,0.01042616205007
28591759,0.64254888945003,0.010865296377899,0.0035423363236327,0.0041933387520528,0.0031296213022139,-0.00080195764037228,0.00080195335456287,-3.1851578535845e-09,-1.0844487492763e-09,-8.3134775748491e-10,-3.5365362414366e-09,-0.00048550450880791,0.00048549958359366,-0.00058983384904151,0.00058982612639131,-0.00058983314254338,0.00058982683856458,-0.00048550383001797,0.00048550017258003,-0.0004855018012846,0.00048550222439675,-0.00058983111879195,0.00058982874822743,-0.0005898304384344,0.00058982945096789,-0.0009517665729159,0.00095176251385688,-0.0009517658734956,0.00095176321043157,-0.00095176752320496,0.00095176165485638,-0.00095176681728772,0.0009517623528595,-0.0008691271877726,0.00086911993804696,-0.00086912511237197,0.00086912198960318,-0.00086912622520596,0.00086912084977925,-0.00086912417432302,0.00086912290216176,-0.00048550657822105,0.00048549750232907,-3.0579184728662e-09,-2.1482759813861e-10,-2.1240314531353e-09,-1.0175894429899e-09,-0.0010609746302196,0.0010609714767185,-0.0010175644844188,0.0010175615172417,-0.0010992709054593,0.001099264533007,-0.0010992681994736,0.0010992673910293,-0.0010178943322602,0.0010178899070734,-0.0010178939628393,0.0010178902564333,-0.0010178934252869,0.0010178908809033,-0.0010178930490366,0.0010178912364052,-0.001017564743317,0.0010175614429481,-0.0010175635729775,0.0010175624774632,-0.0010992705155064,0.001099264873827,-0.0010992678038153,0.001099267733915,-0.0010175656378035,0.0010175605024852,1.2597157162499e-09,-8.4693291310439e-10,-0.00066820180277264,0.00066820221744865,7.974947151813e-10,-3.3259504345708e-10,-0.00049560390923634,0.00049560531255691,-0.00052817800499603,0.00052817666522575,-0.00052817729607918,0.00052817734524685,-0.00049560488167732,0.00049560436019107,-0.00049560289633675,0.00049560650721634,-0.00052817687795672,0.00052817776765419,-0.00052817621510202,0.00052817852013503,-0.00083353422048925,0.00083353569097399,-0.00083353459074032,0.00083353530043279,-0.000833534916154,0.00083353497708488,-0.00083353530704276,0.00083353461440826,-0.00079760412366227,0.00079760207839916,-0.00079760203117914,0.0007976041143348,-0.00079760172417425,0.00079760454917811,-0.00079760371432295,0.00079760241218821,-0.00049560599061569,0.00049560329087179,0.80787521831849,129794,2964,0.0033366665557818,0.0044108735837772,0.0027812656574199,23.605350519723,-5.1157195842213e-05,-5.1157195842213e-05,-5.1157195842213e-05,3592137.3326087,0.010585239683161
28791759,0.651512997191,0.011020074593618,0.0035909754233755,0.0042589956274501,0.0031701035427928,-0.00081308785516577,0.00081308353752286,-3.2159864063228e-09,-1.0852431506255e-09,-8.8139049878704e-10,-3.519883811951e-09,-0.00049064345602955,0.00049063859253333,-0.00059696509743461,0.00059695739680469,-0.00059696438112,0.00059695811902039,-0.00049064287004526,0.00049063908506898,-0.00049064081160814,0.00049064116665759,-0.00059696243091218,0.0005969599522729,-0.00059696174087511,0.00059696066533622,-0.00096602653228372,0.00096602241007912,-0.0009660258228425,0.00096602311681911,-0.00096602746159586,0.00096602157395407,-0.000966026745673,0.00096602228184088,-0.00088178955361391,0.00088178226375725,-0.00088178744967173,0.00088178434522139,-0.00088178861183151,0.00088178315371742,-0.00088178653164494,0.00088178523619945,-0.00049064555418355,0.00049063648226341,-3.047487917983e-09,-2.6929430342035e-10,-2.1608372089102e-09,-1.0229240006828e-09,-0.0010783385468747,0.0010783353509216,-0.0010340186190484,0.0010340156629506,-0.0011179117664913,0.0011179054036303,-0.001117909124673,0.001117908199812,-0.0010341427514826,0.0010341382952141,-0.0010341423721445,0.0010341386550924,-0.0010341418661191,0.0010341392481431,-0.0010341414800333,0.0010341396140681,-0.0010340189308999,0.0010340155356279,-0.0010340177301335,0.0010340166012463,-0.0011179113654799,0.0011179057551931,-0.0011179087186541,0.0011179085527061,-0.0010340198031434,0.0010340146167499,1.2741757961919e-09,-8.6248118017433e-10,-0.00067681132950014,0.00067681174318089,8.1289806235307e-10,-3.4909239816677e-10,-0.00050120037084853,0.00050120177076811,-0.00053425094002885,0.00053424955783867,-0.00053425022069796,0.0005342502475543,-0.00050120134089956,0.0005012008200453,-0.00050119933104964,0.00050120300034093,-0.00053424978121779,0.00053425069142259,-0.00053424910954961,0.00053425145480859,-0.00084540452923451,0.00084540602000597,-0.00084540490958108,0.00084540561815126,-0.00084540523472851,0.00084540529590896,-0.00084540563646436,0.00084540492268334,-0.00081015700638832,0.00081015491943053,-0.00081015488368184,0.00081015698511577,-0.00081015456696404,0.00081015742946881,-0.00081015658582524,0.00081015526339591,-0.00050120248371782,0.00050119972103763,0.78846824372928,129794,2964,0.0033829219618903,0.0044828816590853,0.002817089462537,23.795724499598,-4.9634204003217e-05,-4.9634204003217e-05,-4.9634204003217e-05,3592597.4469861,0.010741000690983
28991759,0.6604931996885,0.011168567698129,0.0036378230980928,0.0043218861900488,0.0032088584099873,-0.00082418535529683,0.00082418101133607,-3.2426471482966e-09,-1.0847353919901e-09,-9.0842782481529e-10,-3.5202697388082e-09,-0.00049574067447447,0.0004957358532865,-0.00060402858828167,0.0006040208727127,-0.00060402785703536,0.0006040216098975,-0.00049574013745619,0.00049573629356426,-0.00049573807070404,0.00049573838467306,-0.00060402594168045,0.00060402340536474,-0.00060402524842281,0.00060402412154976,-0.00098029579847818,0.0009802916353776,-0.00098029508214184,0.00098029234914965,-0.00098029672290187,0.00098029080661505,-0.00098029599579561,0.00098029152559447,-0.00089416883666549,0.00089416149753437,-0.0008941667012094,0.00089416361121815,-0.00089416789843176,0.00089416238348922,-0.000894165795768,0.00089416448613687,-0.00049574281725021,0.00049573369758145,-3.0634156697541e-09,-3.0890128875928e-10,-2.2027035475951e-09,-1.034181070923e-09,-0.0010953943666076,0.0010953911168879,-0.0010499903123113,0.0010499873350882,-0.0011360230173751,0.0011360166231103,-0.0011360204097066,0.0011360193865355,-0.0010503097813274,0.0010503052715466,-0.0010503093941923,0.0010503056394399,-0.0010503089058934,0.0010503062147402,-0.001050308507881,0.0010503065928967,-0.0010499906616957,0.0010499871698133,-0.0010499894251288,0.0010499882714306,-0.0011360226130087,0.0011360169783468,-0.0011360199876169,0.0011360197562021,-0.0010499915200434,0.0010499862650725,1.2905852942405e-09,-8.7894896827118e-10,-0.00068538615730936,0.00068538657085685,8.2326939773924e-10,-3.5959996272717e-10,-0.00050650362264021,0.00050650501540675,-0.00054007836354421,0.00054007695595317,-0.0005400776391185,0.00054007765015456,-0.00050650460348052,0.00050650405306641,-0.00050650254907783,0.00050650628694188,-0.00054007719043524,0.00054007810443487,-0.00054007650237246,0.00054007888529579,-0.0008572772237045,0.00085727873465351,-0.00085727761251415,0.00085727832288875,-0.00085727794187942,0.00085727799703352,-0.00085727834891322,0.00085727761917842,-0.00082237230451765,0.00082237018502822,-0.00082237015852977,0.00082237227811984,-0.0008223698256843,0.00082237273467036,-0.00082237188587318,0.00082237053177588,-0.00050650575225689,0.00050650295357472,0.75490318826857,129794,2964,0.0034290392823134,0.0045536061729628,0.0028527684264895,24.096268423026,-4.7229852615788e-05,-4.7229852615788e-05,-4.7229852615788e-05,3597762.2636686,0.010895204211548
29191759,0.66949134535406,0.011313914604827,0.0036837797758891,0.004383386133134,0.0032467486958039,-0.00083526460440172,0.00083526023419327,-3.2716074967838e-09,-1.0818491196344e-09,-9.1273305811689e-10,-3.5435278009375e-09,-0.00050096181967974,0.00050095696915744,-0.00061122523958581,0.00061121747207702,-0.0006112245020137,0.00061121821623383,-0.00050096128911263,0.00050095739744954,-0.00050095918130118,0.00050095953068755,-0.00061122257608274,0.00061122001636253,-0.00061122186857681,0.00061122074676531,-0.00099450075007349,0.00099449655644072,-0.00099450002174336,0.00099449728205552,-0.00099450168158143,0.00099449572363402,-0.00099450094513223,0.00099449645164565,-0.00090638310426751,0.00090637570780938,-0.00090638094262893,0.00090637784738684,-0.00090638216588731,0.00090637659405561,-0.00090638002568869,0.00090637873209446,-0.0005009639814693,0.00050095479302798,-3.105697997058e-09,-3.2914324375829e-10,-2.2424565270916e-09,-1.0539938363313e-09,-0.0011121255014699,0.0011121221920566,-0.0010655199403026,0.0010655169190533,-0.0011535643327719,0.0011535578478802,-0.0011535617035839,0.001153560634795,-0.001066366302875,0.0010663617192452,-0.0010663659079674,0.0010663620951015,-0.0010663654188887,0.0010663626712557,-0.0010663650157704,0.0010663630544832,-0.0010655203023599,0.0010655167410049,-0.0010655190488851,0.0010655178598236,-0.0011535639180868,0.0011535582130066,-0.0011535612791456,0.0011535610067232,-0.0010655211697074,0.0010655158262816,1.3034107981507e-09,-8.9435045361931e-10,-0.00069392907847051,0.00069392948937141,8.3477896601678e-10,-3.7393314582564e-10,-0.00051178175969641,0.00051178316379359,-0.00054586076679744,0.00054585931742711,-0.00054586002893069,0.00054586002491316,-0.00051178274090418,0.00051178219745931,-0.00051178067499191,0.00051178445118117,-0.00054585956369785,0.00054586049505582,-0.00054585887109258,0.00054586128186143,-0.00086905856710628,0.00086906009251434,-0.00086905896286669,0.00086905967279184,-0.00086905929338007,0.00086905934658945,-0.00086905971042144,0.00086905895866689,-0.00083424408713036,0.00083424192589641,-0.00083424191399836,0.00083424405310258,-0.00083424157196191,0.00083424451191267,-0.00083424365946458,0.00083424228700515,-0.00051178392984204,0.00051178106292671,0.73755731336542,129794,2964,0.0034750779396638,0.0046229784298904,0.0028883128834479,24.414600029976,-4.4683199760195e-05,-4.4683199760195e-05,-4.4683199760195e-05,3607620.7167575,0.011047848607451
29391759,0.67849900541505,0.011452355183516,0.0037277706244651,0.004441847153864,0.0032827374051867,-0.00084602202570618,0.00084601763084888,-3.2991075301766e-09,-1.0790811305769e-09,-8.8412279797894e-10,-3.597374198967e-09,-0.00050567832412199,0.00050567339528477,-0.0006179690094065,0.00061796112772707,-0.00061796826256517,0.00061796188131097,-0.00050567774015939,0.00050567387519072,-0.00050567560113288,0.00050567603973718,-0.00061796626570548,0.0006179637504428,-0.00061796554709894,0.00061796449152093,-0.0010084745235273,0.0010084703240972,-0.0010084737847247,0.0010084710599803,-0.0010084754852618,0.0010084694648676,-0.0010084747388398,0.0010084702025033,-0.00091804185053048,0.00091803437150015,-0.00091803966111401,0.00091803653982904,-0.00091804088335617,0.00091803528491843,-0.0009180387114945,0.00091803745305321,-0.00050568051395086,0.00050567119055412,-3.1778020747985e-09,-3.1617939961469e-10,-2.2802035155684e-09,-1.073688573768e-09,-0.0011283158847674,0.0011283125178692,-0.0010803634206383,0.0010803603313908,-0.0011704235766716,0.0011704169474461,-0.0011704208669718,0.0011704198151479,-0.0010820585524795,0.0010820538768107,-0.0010820581512474,0.0010820542589642,-0.0010820576397008,0.0010820548575537,-0.0010820572305562,0.0010820552468267,-0.0010803637715891,0.0010803601653167,-0.0010803625013625,0.0010803613001291,-0.0011704231560034,0.0011704173193615,-0.0011704204371612,0.0011704201926852,-0.0010803646691509,0.0010803592206181,1.3166090442732e-09,-9.1091332884073e-10,-0.00070216019220485,0.00070216059976463,8.4291177996747e-10,-3.8532631633046e-10,-0.00051642374234709,0.00051642515536678,-0.00055110066613023,0.00055109918415224,-0.0005510999178953,0.00055109990243293,-0.00051642473460783,0.00051642418017535,-0.0005164226445494,0.00051642646316132,-0.00055109944352503,0.00055110038181486,-0.00055109874148386,0.00055110117787195,-0.00088057685476471,0.00088057839336569,-0.00088057725637897,0.00088057796689766,-0.00088057759068732,0.00088057763782973,-0.00088057801449155,0.00088057724279379,-0.00084545636432843,0.00084545416276907,-0.00084545416159796,0.00084545632024618,-0.00084545381376888,0.00084545678500674,-0.00084545593010658,0.00084545453230833,-0.00051642594661575,0.0005164230252785,0.70228482492194,129794,2964,0.0035197783556696,0.0046901040505368,0.0029225605258915,24.733432212709,-4.2132542298327e-05,-4.2132542298327e-05,-4.2132542298327e-05,3620401.0826939,0.011195581955347
29591759,0.68750720464677,0.011584934370158,0.0037701025973482,0.0044976969828211,0.0033171347899886,-0.00085652820718842,0.00085652377497534,-3.3328228712843e-09,-1.0827150070939e-09,-8.1145311757603e-10,-3.7089837482248e-09,-0.00051017567001106,0.00051017054909172,-0.00062446766833785,0.0006244595580761,-0.00062446691191423,0.00062446032148753,-0.0005101749311508,0.00051017118143507,-0.00051017276305838,0.00051017337601459,-0.00062446474325249,0.00062446235939932,-0.00062446401430464,0.00062446311068955,-0.0010222379007083,0.0010222337172286,-0.001022237151491,0.0010222344630088,-0.0010222389263088,0.0010222327973436,-0.0010222381698318,0.0010222335447362,-0.00092920982972224,0.00092920221874206,-0.00092920761308722,0.00092920441673595,-0.00092920879708342,0.00092920319701707,-0.00092920659275548,0.00092920539367945,-0.0005101778888109,0.00051016831481446,-3.2979035960148e-09,-2.4965752323514e-10,-2.3112295754311e-09,-1.0948869615826e-09,-0.0011439568248049,0.0011439534057375,-0.0010945156459153,0.0010945124517451,-0.0011865468089646,0.0011865399431119,-0.0011865439203564,0.00118654299257,-0.0010974023994372,0.0010973976065721,-0.0010974019948074,0.0010973979923057,-0.0010974014248044,0.0010973986499105,-0.001097401012347,0.0010973990426902,-0.0010945159434753,0.0010945123382806,-0.0010945146644046,0.0010945134826724,-0.001186546385499,0.0011865403184652,-0.0011865434876358,0.0011865433737375,-0.0010945169037214,0.0010945113308948,1.3300060561415e-09,-9.2748706402449e-10,-0.00071016170773028,0.00071016211207119,8.4632159231843e-10,-3.9226742498472e-10,-0.00052069259482326,0.00052069402425702,-0.00055602768167023,0.00055602617596417,-0.00055602692321693,0.00055602690444705,-0.00052069360577714,0.00052069302957951,-0.00052069148875268,0.00052069534238327,-0.00055602644849175,0.00055602738407247,-0.0005560257365611,0.00055602818962395,-0.000891823887939,0.00089182543773289,-0.00089182429263658,0.00089182500716472,-0.00089182463408499,0.00089182467262369,-0.00089182506125671,0.00089182427334876,-0.00085606850874308,0.00085606626993444,-0.00085606627238216,0.00085606845159825,-0.00085606592530442,0.0008560689284818,-0.00085606806641895,0.00085606664094878,-0.00052069483019671,0.00052069186488526,0.673378375155,129794,2964,0.0035634326546871,0.0047549472100847,0.0029558521299848,25.052161656029,-3.9582706751769e-05,-3.9582706751769e-05,-3.9582706751769e-05,3637420.3259084,0.011339004655695
29791759,0.69646988561333,0.011723828125677,0.0038143084010382,0.0045561567414985,0.0033533629831408,-0.00086727481009387,0.00086727033461197,-3.3694732927273e-09,-1.0893805662891e-09,-7.6801923056911e-10,-3.7974505035526e-09,-0.00051542142339239,0.00051541615485966,-0.00063172803741622,0.0006317197429743,-0.00063172727109284,0.00063172051611878,-0.00051542058156629,0.00051541689269667,-0.00051541838419916,0.00051541911774559,-0.00063172498619436,0.00063172267688403,-0.0006317242465681,0.00063172343835619,-0.001036020435914,0.0010360162426197,-0.0010360196764384,0.0010360169983693,-0.0010360215021356,0.0010360152788167,-0.0010360207356192,0.0010360160359564,-0.00094088063273254,0.0009408729119865,-0.00094087838583697,0.0009408751386084,-0.00094087956253032,0.00094087392728116,-0.00094087733070839,0.00094087615468245,-0.00051542367184618,0.00051541389130834,-3.3369544739785e-09,-1.5638496779107e-10,-2.2903348824922e-09,-1.0668248835639e-09,-0.0011597341057201,0.0011597307367304,-0.0011088535471672,0.0011088503647402,-0.0012027681346308,0.001202761190432,-0.001202765118635,0.0012027643714495,-0.0011128729345282,0.0011128681452946,-0.0011128725275727,0.0011128685337158,-0.0011128719173768,0.0011128692326943,-0.0011128715027748,0.0011128696279716,-0.0011088538078141,0.0011088502887741,-0.0011088525221803,0.0011088514396374,-0.0012027677095663,0.0012027615689881,-0.001202764683777,0.0012027647555278,-0.0011088548129099,0.0011088492366703,1.3445001185362e-09,-9.4302175433272e-10,-0.00071835908240521,0.00071835948568227,8.497661985752e-10,-3.9666300959555e-10,-0.00052573992740583,0.00052574137740829,-0.00056168663113098,0.00056168510721992,-0.00056168586295734,0.00056168584612048,-0.00052574096181727,0.00052574036277762,-0.00052573881369998,0.00052574270322443,-0.0005616853895705,0.00056168632203937,-0.00056168466703111,0.00056168713724817,-0.00090304442658015,0.00090304598835177,-0.0009030448346235,0.0009030455560241,-0.00090304518352846,0.00090304521426088,-0.00090304561299343,0.00090304481163578,-0.00086682493980241,0.00086682266769338,-0.00086682267812499,0.00086682488343744,-0.00086682232480715,0.00086682535758859,-0.00086682449896317,0.00086682304516037,-0.00052574219273298,0.00052573918935012,0.70917941743001,129794,2964,0.0036080823458409,0.0048203497372525,0.0029899552889047,25.304774377532,-3.7561804979744e-05,-3.7561804979744e-05,-3.7561804979744e-05,3650907.7683273,0.011484837464776
29991759,0.70537847918004,0.011869230476019,0.003860412437457,0.0046174027843743,0.0033914152541878,-0.00087827522270163,0.00087827070884655,-3.4036442863564e-09,-1.0934445977534e-09,-7.6814574355716e-10,-3.8379439310944e-09,-0.00052099062018228,0.00052098529740332,-0.00063959207633229,0.00063958369218642,-0.00063959130049053,0.0006395844754785,-0.00052098976366672,0.00052098604746691,-0.00052098753742003,0.00052098830235304,-0.00063958898592929,0.00063958666644834,-0.00063958823650271,0.00063958743795266,-0.0010499806310692,0.0010499764054544,-0.0010499798615815,0.0010499771713573,-0.0010499817142613,0.0010499754285192,-0.0010499809376693,0.0010499761955844,-0.00095321508538783,0.00095320728503279,-0.00095321280896198,0.00095320954056049,-0.00095321400287575,0.0009532083125174,-0.0009532117404616,0.00095321056921252,-0.00052099289684859,0.00052098300427158,-3.3518080302713e-09,-1.2957174972897e-10,-2.2880387298881e-09,-1.058777737861e-09,-0.0011759864548609,0.0011759830969822,-0.0011238093243413,0.00112380614366,-0.0012195947057235,0.0012195877336668,-0.0012195916527716,0.0012195909559152,-0.0011286375129158,0.0011286327197541,-0.0011286371042808,0.001128633110182,-0.0011286364833058,0.0011286338210416,-0.001128636067069,0.0011286342182728,-0.0011238095758856,0.0011238060750216,-0.0011238082849536,0.0011238072324248,-0.001219594278409,0.0012195881137861,-0.0012195912161208,0.0012195913418324,-0.0011238105945368,0.0011238050093477,1.3604318999194e-09,-9.5706721742994e-10,-0.00072675891734059,0.00072675932245408,8.5384560021515e-10,-3.9899294193059e-10,-0.00053141146004279,0.00053141293587459,-0.00056785088247859,0.00056784934348771,-0.000567850104059,0.00056785009266481,-0.00053141251559825,0.00053141189561829,-0.00053141033925461,0.00053141426432642,-0.00056784963353804,0.00056785056418616,-0.00056784890141,0.00056785138869678,-0.00091444625264017,0.00091444782857871,-0.00091444666123112,0.00091444739133229,-0.00091444701808824,0.0009144470426449,-0.00091444745142072,0.0009144466390633,-0.00087801153132671,0.00087800922964664,-0.00087800924172972,0.00087801147629945,-0.00087800888489458,0.00087801195121123,-0.00087801108977907,0.00087800961062025,-0.0005314137541872,0.00053141071584976,0.7465730794636,129794,2964,0.0036537858696456,0.0048877146612591,0.0030249012187891,25.555681625612,-3.5554546995101e-05,-3.5554546995101e-05,-3.5554546995101e-05,3656127.3639655,0.011634594376712
30191759,0.71422541339971,0.012004535988561,0.0039035444790529,0.0046743731838701,0.003426618325638,-0.00088862778136124,0.00088862325539922,-3.4247973017345e-09,-1.0845561182021e-09,-7.6867642249235e-10,-3.8498001935996e-09,-0.00052527234892215,0.00052526703097143,-0.00064629861450032,0.00064629019866873,-0.00064629782907079,0.00064629099148592,-0.00052527150914332,0.00052526776264481,-0.00052526925384457,0.00052527004732411,-0.00064629551533612,0.00064629318235546,-0.00064629475554141,0.00064629396408059,-0.001063534036297,0.0010635297932748,-0.0010635332572623,0.0010635305695697,-0.0010635351259237,0.0010635288125166,-0.0010635343394608,0.0010635295899075,-0.00096468509653585,0.00096467724906909,-0.00096468279248674,0.00096467953407457,-0.00096468400794385,0.00096467828145799,-0.00096468171427831,0.00096468056748366,-0.00052527465449358,0.00052526470802149,-3.3723312713004e-09,-1.380889546684e-10,-2.3052014135027e-09,-1.070274955662e-09,-0.0011916573886637,0.0011916540024915,-0.0011380337464181,0.0011380305356836,-0.0012358912870092,0.0012358842780044,-0.0012358882254442,0.0012358875087064,-0.0011438510864831,0.0011438462589327,-0.0011438506759406,0.0011438466513129,-0.0011438500522541,0.0011438473645302,-0.0011438496342177,0.001143847763603,-0.0011380339964764,0.0011380304669998,-0.0011380327007386,0.0011380316297295,-0.0012358908581373,0.0012358846599198,-0.0012358877872049,0.0012358878964402,-0.0011380350211744,0.0011380293963064,1.3755505007477e-09,-9.7195032255541e-10,-0.00073457138942231,0.00073457179481926,8.5695851545964e-10,-4.0182238854073e-10,-0.00053588881036818,0.00053589031042593,-0.00057292785815125,0.00057292630347251,-0.00057292707023515,0.00057292706352924,-0.00053588988917529,0.00053588924578514,-0.00053588768256525,0.00053589164198979,-0.00057292660351203,0.0005729275304871,-0.00057292586064459,0.00057292836372317,-0.00092550704761971,0.00092550863643015,-0.00092550745616519,0.00092550819370084,-0.00092550782153949,0.00092550783857057,-0.00092550825868659,0.00092550743408412,-0.00088851248876474,0.00088851015636174,-0.00088851017079568,0.00088851243290974,-0.00088850981052313,0.00088851290848155,-0.00088851204743158,0.00088851054073585,-0.00053589113368043,0.00053588806011371,0.70019171662232,129794,2964,0.0036968005780813,0.0049526648678973,0.0030574088612479,25.806519468487,-3.3547844252104e-05,-3.3547844252104e-05,-3.3547844252104e-05,3660995.8361209,0.011776748373303
30391759,0.72301252749156,0.012134085097598,0.0039450016480855,0.0047288287958847,0.0034602546536276,-0.00089876841473313,0.00089876388380878,-3.4424676820341e-09,-1.0722264986282e-09,-7.5620215019045e-10,-3.8668343795699e-09,-0.00052968129602271,0.00052967597281138,-0.00065273641196154,0.00065272795439739,-0.00065273561710196,0.00065272875667242,-0.00052968045567986,0.00052967670295454,-0.00052967817089763,0.00052967901779594,-0.00065273328524454,0.00065273096483029,-0.0006527325149019,0.00065273175688521,-0.0010767683613689,0.0010767641128921,-0.0010767675731382,0.0010767648998374,-0.0010767694619097,0.0010767631227759,-0.0010767686655684,0.0010767639105274,-0.00097574769940453,0.0009757398056437,-0.00097574536688011,0.00097574211972113,-0.00097574659850906,0.00097574084857713,-0.00097574427386996,0.00097574316366503,-0.00052968363006167,0.00052967362069501,-3.4092387769191e-09,-1.437690777438e-10,-2.3276734625669e-09,-1.0889306781303e-09,-0.0012067420869544,0.0012067386601739,-0.0011514928167709,0.0011514895567751,-0.0012514302371651,0.0012514231611957,-0.0012514271488739,0.0012514264171937,-0.001158731571325,0.0011587266913703,-0.001158731159234,0.0011587270853144,-0.0011587305257942,0.0011587278072335,-0.0011587301064034,0.001158728207668,-0.0011514930579387,0.0011514894954068,-0.0011514917589435,0.0011514906619327,-0.0012514298075629,0.0012514235444603,-0.0012514267095162,0.001251426806737,-0.0011514940947556,0.001151488413555,1.3902958341997e-09,-9.8724461438412e-10,-0.00074221007386316,0.00074221047867673,8.5891872985768e-10,-4.0441431343044e-10,-0.00054015445895096,0.00054015598406603,-0.000577844087454,0.00057784251745907,-0.00057784328978631,0.00057784328831638,-0.00054015556276263,0.0005401548941569,-0.00054015332549852,0.00054015731727789,-0.00057784282848646,0.00057784374957904,-0.00057784207491405,0.00057784459141802,-0.00093632631014156,0.00093632791028028,-0.00093632671896185,0.00093632746406435,-0.00093632709344246,0.00093632710175465,-0.00093632753300347,0.00093632669589396,-0.00089851365380083,0.0008985112894448,-0.00089851130563864,0.00089851359500375,-0.00089851094448784,0.00089851407257833,-0.00089851321144433,0.00089851167630842,-0.00054015681191338,0.000540153703598,0.67548311566572,129794,2964,0.0037389321717404,0.0050151794581265,0.0030891915735622,26.074875304135,-3.1400997566917e-05,-3.1400997566917e-05,-3.1400997566917e-05,3672727.1196564,0.011914830186344
30591759,0.73179873644009,0.01226809250455,0.0039877992852285,0.0047851179829658,0.0034951752363558,-0.00090941265048511,0.00090940810057084,-3.4667564894101e-09,-1.065956833721e-09,-7.414741537971e-10,-3.9047403808617e-09,-0.00053491170172264,0.00053490631726974,-0.00065999444212537,0.00065998589881474,-0.00065999363912433,0.0006599867124373,-0.00053491082021108,0.00053490706757496,-0.00053490850898464,0.00053490941132858,-0.00065999125438868,0.00065998895526019,-0.00065999047708943,0.00065998975604965,-0.0010902924429869,0.0010902881832469,-0.0010902916446372,0.0010902889800613,-0.0010902935614221,0.0010902871770685,-0.0010902927542726,0.0010902879747133,-0.0009875185265111,0.00098751057000523,-0.00098751616160435,0.00098751291171816,-0.00098751741179262,0.00098751163124151,-0.00098751505293325,0.00098751397436487,-0.0005349140584688,0.00053490393468183,-3.4591004756196e-09,-1.3797089092406e-10,-2.3484329426511e-09,-1.1090830735758e-09,-0.0012222691740152,0.0012222657085353,-0.0011654342108613,0.0011654308907361,-0.0012673679260782,0.0012673607529068,-0.0012673647894077,0.0012673640655461,-0.001174057850916,0.0011740529191703,-0.0011740574384419,0.0011740533137091,-0.0011740567888071,0.0011740540517522,-0.0011740563687529,0.0011740544530552,-0.0011654344301951,0.0011654308391366,-0.0011654331326852,0.0011654320161161,-0.0012673674924349,0.0012673611324079,-0.0012673643499301,0.0012673644546671,-0.0011654354765046,0.0011654297424976,1.4063111191901e-09,-1.0009868359216e-09,-0.00075029393637342,0.0007502943425736,8.5924905876728e-10,-4.0517009718781e-10,-0.00054521472409809,0.00054521628493939,-0.00058352711211638,0.0005835255253579,-0.00058352630305319,0.00058352630862545,-0.00054521583870975,0.00054521514713974,-0.00054521358051065,0.00054521759744323,-0.000583525845473,0.00058352675695519,-0.00058352508710388,0.00058352760644321,-0.00094747835999123,0.00094747997275004,-0.00094747876780315,0.00094747952335169,-0.00094747915276215,0.00094747915347323,-0.00094747959300251,0.00094747874683805,-0.00090895705596741,0.00090895466548929,-0.00090895468240474,0.00090895700396416,-0.00090895431671424,0.00090895747905737,-0.00090895661341797,0.00090895505235764,-0.00054521709629805,0.00054521395569126,0.69870694703623,129794,2964,0.0037831519302363,0.0050795222886075,0.0031228221063544,26.468366058525,-2.8253071531796e-05,-2.8253071531796e-05,-2.8253071531796e-05,3684695.8154346,0.01205876199665
30791759,0.74057483026295,0.012406534771751,0.004031906991658,0.0048433049674072,0.0035313228126863,-0.00092025356939584,0.00092024898608055,-3.4986593262121e-09,-1.0681872025554e-09,-7.2356975155842e-10,-3.9548822808552e-09,-0.00054033832243037,0.00054033288102253,-0.00066767776298587,0.0006676691128651,-0.00066767694901682,0.00066766993528242,-0.00054033741664997,0.00054033367058737,-0.00054033507380447,0.00054033604487303,-0.00066767451451982,0.00066767223766954,-0.00066767372468879,0.00066767304973806,-0.0011039522752828,0.0011039479934818,-0.0011039514675508,0.0011039488009198,-0.0011039534136475,0.0011039469648613,-0.0011039525969863,0.0011039477726993,-0.00099976008898026,0.00099975204223259,-0.00099975769895207,0.00099975441481037,-0.00099975894509895,0.00099975312698826,-0.00099975655790476,0.00099975549990024,-0.00054034071391714,0.00054033046957138,-3.5078588030862e-09,-1.1657972647747e-10,-2.3639887358257e-09,-1.1213268821884e-09,-0.0012381481467508,0.001238144652382,-0.0011797944059901,0.0011797910349668,-0.0012837123618471,0.0012837050975752,-0.0012837091586844,0.0012837084739205,-0.0011896285037738,0.0011896235159748,-0.0011896280900591,0.0011896239115995,-0.0011896274184888,0.0011896246731161,-0.0011896269976297,0.0011896250751284,-0.0011797946055066,0.0011797910131432,-0.0011797933026458,0.0011797921854709,-0.0012837119303824,0.0012837054811587,-0.0012837087177886,0.0012837088650707,-0.001179795684647,0.0011797898885777,1.4221436601491e-09,-1.0153670584392e-09,-0.0007585173248332,0.00075851773320033,8.6338432302787e-10,-4.0534030293621e-10,-0.0005506603090104,0.00055066189289969,-0.00058954693622362,0.0005895453434409,-0.00058954611899361,0.00058954613619616,-0.00055066146323445,0.00055066074547398,-0.00055065916589799,0.00055066322412488,-0.00058954567119627,0.00058954658113203,-0.00058954489749441,0.00058954744054512,-0.00095876994045907,0.00095877156646214,-0.00095877034859483,0.00095877111379854,-0.00095877074177906,0.0009587707354597,-0.00095877118548215,0.0009587703288876,-0.00091968118004158,0.0009196787577897,-0.00091967877440508,0.0009196811230296,-0.00091967841088494,0.00091968160340444,-0.00091968073602714,0.00091967914711807,-0.00055066271735866,0.00055065954881741,0.72242073419833,129794,2964,0.003828188183143,0.0051453171522039,0.00315703349427,26.865094676106,-2.507924259115e-05,-2.507924259115e-05,-2.507924259115e-05,3690730.0921514,0.012205598246217
30991759,0.74932969371799,0.012549415810484,0.0040773011035664,0.0049034444261501,0.0035686702807671,-0.00093127920192206,0.00093127457468301,-3.5355852112693e-09,-1.0750794942947e-09,-7.1264280701613e-10,-4.0118527864748e-09,-0.00054595954305129,0.0005459540185378,-0.00067577392221644,0.00067576514888317,-0.00067577309826502,0.0006757659810176,-0.0005459585978881,0.0005459548449331,-0.00054595622649381,0.00054595724930821,-0.00067577060238834,0.00067576833817975,-0.00067576980232873,0.0006757691604539,-0.0011177526913101,0.0011177483762404,-0.0011177518737636,0.0011177491939356,-0.0011177538486191,0.0011177473260527,-0.0011177530218672,0.001117748143885,-0.001012450706904,0.0010124425697186,-0.0010124482867699,0.0010124449712597,-0.0010124495455841,0.0010124436727679,-0.0010124471301622,0.001012446076165,-0.00054596196387967,0.00054595157737547,-3.5608649870777e-09,-9.6999491114483e-11,-2.3820845498639e-09,-1.1337659036656e-09,-0.0012543744298838,0.0012543709047482,-0.0011945487886848,0.0011945453698739,-0.0013003608770107,0.0013003535030277,-0.001300357602763,0.0013003569525211,-0.001205458635773,0.0012054535934346,-0.0012054582201406,0.0012054539912352,-0.0012054575287084,0.0012054547743139,-0.0012054571060484,0.0012054551783328,-0.0011945489701606,0.0011945453659343,-0.0011945476609522,0.0011945465440706,-0.0013003604433404,0.0013003538894278,-0.0013003571601713,0.0013003573455137,-0.0011945500733389,0.001194544218123,1.4385110749704e-09,-1.0290168280952e-09,-0.00076686466725935,0.00076686507852515,8.6848928494887e-10,-4.0726677755616e-10,-0.00055642893856656,0.00055643054842378,-0.00059587188037283,0.00059587027400758,-0.00059587105286957,0.00059587107686005,-0.00055643011586993,0.00055642937840314,-0.00055642778978853,0.00055643188573408,-0.00059587060855257,0.00059587151873256,-0.00059586982497688,0.00059587238784759,-0.00097020532735149,0.00097020696881368,-0.00097020573756564,0.00097020651282247,-0.00097020613831698,0.0009702061273391,-0.00097020658548046,0.00097020571894088,-0.00093072238248188,0.00093071993013913,-0.00093071994813512,0.00093072232505222,-0.00093071958065916,0.00093072280791912,-0.00093072193488441,0.00093072032150662,-0.00055643137673894,0.00055642817450206,0.74698825261586,129794,2964,0.0038739915286549,0.0052125437231812,0.0031917616309994,27.261955264299,-2.1904357885605e-05,-2.1904357885605e-05,-2.1904357885605e-05,3691713.468436,0.012355204927128
31191759,0.75811988039344,0.012699486419548,0.0041247930455163,0.0049667507853599,0.0036079425886719,-0.00094289014454113,0.00094288546806384,-3.5741085363493e-09,-1.0841015027668e-09,-7.2201212917212e-10,-4.0588175608214e-09,-0.00055208891313443,0.00055208331451495,-0.00068460368917592,0.00068459480762149,-0.00068460285603289,0.00068459565381247,-0.00055208793792074,0.00055208414866626,-0.00055208555000491,0.00055208657410103,-0.00068460031654369,0.00068459802949819,-0.00068459951333071,0.00068459885947778,-0.0011321158907775,0.0011321115268093,-0.0011321150649462,0.0011321123544223,-0.0011321170560778,0.0011321104667122,-0.001132116218168,0.0011321112948165,-0.0010260577049686,0.0010260494853826,-0.0010260552503945,0.00102605191634,-0.001026056539066,0.0010260506004469,-0.0010260540961051,0.001026053029251,-0.00055209136338932,0.00055208083497881,-3.5932316722389e-09,-8.7110499014197e-11,-2.3967257861908e-09,-1.1374465478338e-09,-0.0012714804416421,0.0012714768995668,-0.0012102367395758,0.0012102332978272,-0.0013179239023033,0.0013179164536977,-0.0013179205921357,0.0013179199529759,-0.0012220213158112,0.0012220162468649,-0.0012220208973449,0.0012220166488828,-0.0012220201982042,0.0012220174384664,-0.0012220197727957,0.0012220178483278,-0.0012102369149022,0.0012102332855004,-0.0012102355952989,0.0012102344888721,-0.0013179234626213,0.0013179168378892,-0.0013179201444154,0.0013179203519805,-0.0012102380166812,0.0012102321318395,1.4571951338801e-09,-1.0411956195121e-09,-0.00077568930369555,0.00077568972045429,8.7384498205015e-10,-4.0884495446526e-10,-0.0005628090935416,0.00056281073108234,-0.00060283779242741,0.00060283616827739,-0.00060283695482617,0.0006028369822359,-0.0005628102748818,0.0005628095164588,-0.00056280792352004,0.0005628120611631,-0.0006028365077531,0.00060283741518125,-0.00060283572033628,0.00060283829565395,-0.00098216990406682,0.00098217156493682,-0.0009821703169456,0.00098217110419347,-0.00098217072523948,0.00098217071155624,-0.00098217117572377,0.000982170302195,-0.00094255694473073,0.00094255446922327,-0.00094255448839437,0.00094255689749429,-0.00094255410780602,0.00094255738012378,-0.00094255649593283,0.00094255485844607,-0.00056281154431685,0.00056280831427144,0.78082574763081,129794,2964,0.0039222251012507,0.0052834079632306,0.0032284752147406,27.788166889048,-1.7694664887617e-05,-1.7694664887617e-05,-1.7694664887617e-05,3688868.5685949,0.012512987730854
31391759,0.76695246091381,0.012844616626128,0.0041708401606832,0.0050280356135281,0.0036457408519171,-0.00095424218819106,0.00095423748206304,-3.6043609551293e-09,-1.0845794467247e-09,-7.339171364235e-10,-4.0750849399523e-09,-0.00055730255614685,0.00055729696728177,-0.00069260912556305,0.00069260020389287,-0.00069260828012095,0.00069260105797347,-0.00055730162088692,0.00055729777561093,-0.00055729919967495,0.00055730023170532,-0.00069260575582358,0.00069260343285488,-0.00069260493939621,0.00069260427261108,-0.0011464794513981,0.001146475049487,-0.0011464786158538,0.0011464758869574,-0.0011464806169878,0.0011464739874251,-0.0011464797692278,0.0011464748256,-0.00103932728767,0.0010393190018183,-0.0010393248091944,0.0010393214630632,-0.0010393261140881,0.0010393201216919,-0.001039323639239,0.0010393225804699,-0.00055730504006679,0.00055729446067326,-3.6059741833757e-09,-9.3236808901915e-11,-2.414342243237e-09,-1.1404386833397e-09,-0.0012885948931499,0.0012885913300675,-0.0012258388975335,0.0012258354442028,-0.001335599555692,0.0013355920831784,-0.0013355962418444,0.0013355955828034,-0.0012385259176484,0.0012385208178752,-0.0012385254944642,0.0012385212244535,-0.0012385247992735,0.0012385220135207,-0.0012385243685304,0.0012385224273089,-0.001225839084556,0.0012258354294961,-0.0012258377457523,0.0012258366400707,-0.0013355991142835,0.001335592475727,-0.0013355957881218,0.0013355959872761,-0.001225840200187,0.0012258342697666,1.4723788110512e-09,-1.0561537589629e-09,-0.00078423402955544,0.00078423444732251,8.8345209534252e-10,-4.1576931080133e-10,-0.00056821546534312,0.00056821711250104,-0.00060904133871071,0.00060903969606172,-0.00060904049274854,0.00060904051830547,-0.00056821667622833,0.00056821590144595,-0.00056821428186114,0.00056821847169706,-0.00060904004548008,0.00060904096213811,-0.00060903923972923,0.00060904185131544,-0.0009941371233765,0.00099413880137489,-0.0009941375418955,0.00099413833406225,-0.00099413795471883,0.00099413793742888,-0.00099413841174826,0.00099413752340145,-0.00095413621889441,0.0009541337057833,-0.00095413372476044,0.00095413615187149,-0.00095413334615139,0.00095413665546586,-0.0009541357571379,0.00095413409690086,-0.00056821795102038,0.0005682146790583,0.75165982108384,129794,2964,0.0039693862899454,0.0053543016961172,0.0032640291087617,28.355605420165,-1.315515663868e-05,-1.315515663868e-05,-1.315515663868e-05,3684510.3099475,0.012668570061528
31591759,0.77581193374057,0.01298400470153,0.0042152447316003,0.0050868432107429,0.0036819167591867,-0.00096538349743428,0.00096537877490379,-3.6279708533631e-09,-1.0776905306176e-09,-7.3957082732477e-10,-4.0862717800256e-09,-0.00056238525028857,0.00056237966689364,-0.00070024145427502,0.00070023250196299,-0.0007002405999776,0.00070023336456022,-0.00056238434023037,0.00056238045007426,-0.00056238188669238,0.00056238293933002,-0.0007002380787023,0.00070023573267294,-0.00070023725047453,0.00070023658417246,-0.0011606677566003,0.0011606633290073,-0.001160666910855,0.001160664177272,-0.0011606689228766,0.0011606622662755,-0.0011606680652008,0.0011606631142095,-0.0010521065743471,0.0010520982433055,-0.0010521040675111,0.0010521007330317,-0.0010521054013702,0.0010520993622146,-0.0010521028955722,0.0010521018525749,-0.00056238776151223,0.00056237713332173,-3.628575387748e-09,-1.0778571077383e-10,-2.4409755642618e-09,-1.1500050372816e-09,-0.0013052281429766,0.0013052245446082,-0.0012407271964636,0.001240723721474,-0.0013525884653126,0.0013525809417803,-0.0013525851437601,0.0013525844489042,-0.0012547922467633,0.0012547871036108,-0.0012547918172323,0.0012547875166813,-0.0012547911259461,0.0012547883022657,-0.0012547906894802,0.0012547887216697,-0.0012407273955154,0.001240723692645,-0.0012407260403029,0.0012407249195558,-0.0013525880167135,0.001352581342589,-0.0013525846855793,0.0013525848583665,-0.0012407285175026,0.0012407225290912,1.4867484131396e-09,-1.0713310498953e-09,-0.00079258100176287,0.00079258141879672,8.9365414616676e-10,-4.2653746747895e-10,-0.00057316481095798,0.00057316647057596,-0.00061489558324224,0.00061489390867834,-0.0006148947263514,0.00061489474266149,-0.0005731660318371,0.00057316525258734,-0.00057316361129044,0.00057316784497839,-0.00061489426854559,0.00061489519691115,-0.00061489345341083,0.00061489609337937,-0.0010059421430693,0.0010059438371116,-0.0010059425672679,0.0010059433614292,-0.0010059429832169,0.0010059429629226,-0.0010059434491512,0.0010059425422411,-0.00096527281716904,0.0009652702644221,-0.00096527029052664,0.00096527273798719,-0.00096526990759728,0.0009652732515379,-0.00096527234411079,0.00096527066273463,-0.00057316733086812,0.00057316400448025,0.71981430689123,129794,2964,0.0040156705399727,0.0054231949526928,0.0032987598389154,28.924160246551,-8.6067180275891e-06,-8.6067180275891e-06,-8.6067180275891e-06,3686759.0171624,0.012820429619827
31791759,0.78456214623298,0.013114347009048,0.0042569982701437,0.0051417283332482,0.0037156204056558,-0.00097566253387717,0.00097565780073296,-3.6488652210839e-09,-1.0686950354238e-09,-7.1718996145662e-10,-4.1161165302595e-09,-0.00056670958222185,0.00056670398269501,-0.00070690084706989,0.00070689182833901,-0.0007068999829462,0.00070689269841315,-0.00056670866873125,0.00056670478887902,-0.00056670618068533,0.00056670731085479,-0.0007068974252608,0.00070689510881887,-0.00070689658270903,0.00070689597280518,-0.0011739626952239,0.0011739582624621,-0.0011739618399382,0.0011739591223918,-0.0011739638776957,0.0011739571835776,-0.0011739630109304,0.0011739580414172,-0.001063718808435,0.0010637104127799,-0.0010637162797215,0.0010637129347992,-0.0010637176100161,0.0010637115529962,-0.0010637150753984,0.0010637140749223,-0.00056671212679523,0.00056670142381067,-3.675930815778e-09,-1.0133289218426e-10,-2.4714248920447e-09,-1.1592323789304e-09,-0.0013205470694632,0.0013205434295628,-0.0012540795175722,0.0012540760050532,-0.0013680650734817,0.0013680574503733,-0.0013680616963458,0.0013680610056027,-0.0012700312463595,0.0012700260324737,-0.0012700308090464,0.0012700264535841,-0.0012700301050503,0.001270027250653,-0.0012700296628687,0.001270027676747,-0.001254079719125,0.0012540759839721,-0.0012540783415705,0.0012540772190204,-0.0013680646205548,0.0013680578634499,-0.001368061233181,0.0013680614225992,-0.0012540808745441,0.0012540747958763,1.4996621954743e-09,-1.0883810877931e-09,-0.0008001768086434,0.00080017722244133,9.0551255069476e-10,-4.3915817313599e-10,-0.00057730750266886,0.00057730916135599,-0.00061989211054684,0.00061989040595223,-0.00061989124491364,0.00061989124945554,-0.00057730875076239,0.00057730796228319,-0.00057730628790743,0.00057731057610532,-0.0006198907782308,0.00061989172161539,-0.00061988994650426,0.00061989262635396,-0.0010169449347393,0.0010169466429532,-0.0010169453658834,0.0010169461583084,-0.0010169457833762,0.0010169457582099,-0.0010169462602019,0.0010169453305857,-0.00097521681588878,0.00097521421722186,-0.0009752142505545,0.00097521671226133,-0.00097521386761646,0.00097521724339468,-0.00097521632824523,0.00097521462249337,-0.00057731006545182,0.00057730668437872,0.68196835123214,129794,2964,0.0040583721759368,0.0054866374233827,0.0033303670463398,29.261879399907,-5.9049648007437e-06,-5.9049648007437e-06,-5.9049648007437e-06,3693042.4881855,0.012959997852691
31991759,0.79303282820886,0.013253239144916,0.0043011780311096,0.0052002045888079,0.0037518565249987,-0.00098581107516291,0.00098580630073371,-3.6845054726811e-09,-1.0737193970212e-09,-7.0165600012613e-10,-4.1774423816498e-09,-0.0005719987864872,0.00057199308374119,-0.00071438983710518,0.00071438068530244,-0.00071438896283733,0.00071438156758409,-0.00057199780926435,0.00057199393333202,-0.00057199529669432,0.00057199648214352,-0.00071438633146724,0.00071438403928935,-0.00071438548187527,0.00071438491093867,-0.0011865855308115,0.001186581072248,-0.0011865846656199,0.0011865819414232,-0.0011865867380757,0.0011865799685911,-0.0011865858601737,0.0011865808368254,-0.0010755845861316,0.001075576100333,-0.0010755820227768,0.0010755786507938,-0.0010755833689845,0.0010755772638758,-0.0010755808026067,0.0010755798132,-0.00057200135747629,0.00057199049018739,-3.7304178615891e-09,-7.5577571978746e-11,-2.4976221472328e-09,-1.1601020143995e-09,-0.0013353564014248,0.0013353527366551,-0.0012670171647495,0.0012670136205537,-0.0013829276972846,0.0013829199576147,-0.0013829242455684,0.0013829235948468,-0.0012848421703243,0.0012848369029062,-0.0012848417250466,0.00128483733231,-0.0012848410065415,0.001284838145859,-0.0012848405549187,0.0012848385812476,-0.0012670173594567,0.0012670135932534,-0.0012670159574437,0.0012670148639243,-0.0013829272338662,0.0013829203752235,-0.0013829237722098,0.00138292402063,-0.0012670185337476,0.0012670123845059,1.5135298262726e-09,-1.1041032145223e-09,-0.00080767478691308,0.00080767519827458,9.1561031811104e-10,-4.5339286498456e-10,-0.00058260522805885,0.00058260689286485,-0.0006257425831424,0.00062574083736679,-0.0006257417070757,0.00062574169154573,-0.00058260646600343,0.00058260567030147,-0.00058260397783683,0.00058260831264013,-0.00062574122249114,0.00062574217442197,-0.00062574038369195,0.00062574308784228,-0.0010273737070235,0.0010273754319355,-0.0010273741460128,0.0010273749369251,-0.0010273745656192,0.0010273745361447,-0.0010273750507675,0.0010273741010433,-0.00098510146094032,0.00098509882640831,-0.00098509887688644,0.00098510135902913,-0.00098509847413189,0.00098510188653759,-0.00098510097138114,0.00098509924186811,-0.00058260780674518,0.0005826043708125,0.74979062734275,129794,2964,0.0041005261650973,0.0055479600613279,0.0033615632974859,29.27960442031,-5.7631646375204e-06,-5.7631646375204e-06,-5.7631646375204e-06,3694233.7397148,0.013096457223776
32191759,0.8012244311966,0.013390195021751,0.0043446554618802,0.0052579369767482,0.0037876025831227,-0.00099556735836056,0.00099556253395141,-3.7241178517854e-09,-1.0837738545997e-09,-6.8284156468833e-10,-4.248992366141e-09,-0.0005763211120984,0.00057631529593774,-0.00072138190160138,0.00072137260057952,-0.00072138101791665,0.00072137349245704,-0.00057632007372119,0.00057631620556482,-0.00057631753141717,0.00057631878448599,-0.0007213783087543,0.00072137604190019,-0.00072137744911701,0.0007213769240193,-0.001198910743634,0.0011989062561362,-0.0011989098689451,0.001198907135594,-0.0011989119822009,0.0011989051236671,-0.0011989110942842,0.0011989060016111,-0.0010873056833453,0.0010872970880232,-0.0010873030923417,0.0010872996675546,-0.0010873044335371,0.0010872982822811,-0.0010873018373206,0.0010873008610925,-0.00057632371137189,0.0005763126745114,-3.8030439497943e-09,-5.4460272136363e-11,-2.5337313175195e-09,-1.1747154711743e-09,-0.0013501498855296,0.0013501461706756,-0.0012800341225615,0.0012800305146279,-0.0013980411896926,0.0013980333051451,-0.0013980376518746,0.0013980370331243,-0.0012993388045255,0.0012993334497062,-0.0012993383522623,0.0012993338865815,-0.0012993376118835,0.0012993347245517,-0.0012993371534209,0.0012993351671375,-0.0012800343037721,0.0012800304988412,-0.0012800328800205,0.0012800317910173,-0.0013980407186987,0.0013980337303937,-0.001398037171422,0.0013980374657298,-0.0012800355124215,0.0012800292578984,1.5285209249078e-09,-1.1195978499366e-09,-0.00081484168772781,0.00081484209859464,9.2666346565085e-10,-4.6486443243403e-10,-0.0005873890932691,0.00058739076631177,-0.00063117322838582,0.00063117144955165,-0.00063117234162043,0.0006311723144458,-0.0005873903397336,0.00058738953667363,-0.00058738782188291,0.00058739220690877,-0.00063117184576046,0.00063117280987163,-0.00063117099640638,0.00063117373176035,-0.0010375883785332,0.0010375901206202,-0.0010375888234799,0.0010375896163685,-0.0010375892460217,0.0010375892134505,-0.0010375897400751,0.0010375887718754,-0.00099487754982124,0.00099487487658378,-0.00099487493667121,0.00099487744026739,-0.00099487452722708,0.00099487797595313,-0.00099487705246311,0.00099487529996866,-0.00058739170286462,0.00058738821361572,0.76436055183409,129794,2964,0.0041410555093212,0.0056092124775473,0.0033913887659225,29.288949942592,-5.6884004592606e-06,-5.6884004592606e-06,-5.6884004592606e-06,3683951.7236003,0.013229831822331
32391759,0.8091419647775,0.013525578097138,0.0043875408737309,0.005315058268952,0.0038229789544546,-0.0010051184780483,0.001005113606524,-3.7625810297617e-09,-1.0920781974666e-09,-6.780537648641e-10,-4.3036287493605e-09,-0.0005805183676258,0.00058051247149076,-0.00072829183501948,0.00072828241641756,-0.00072829094170209,0.00072828331840065,-0.0005805172977561,0.00058051341098448,-0.00058051472631639,0.00058051601959541,-0.00072828818397427,0.00072828591603443,-0.00072828731423181,0.00072828680829554,-0.0012109539922316,0.0012109494665745,-0.0012109531079957,0.0012109503563805,-0.0012109552487537,0.0012109483156984,-0.0012109543504292,0.0012109492036003,-0.0010989045686095,0.0010988958776386,-0.0010989019497321,0.0010988984878161,-0.0010989032979222,0.001098897092731,-0.001098900671834,0.0010988997014797,-0.00058052099614411,0.00058050982003242,-3.8414633121092e-09,-3.0628354271492e-11,-2.5514056103614e-09,-1.1720841555426e-09,-0.0013647432756868,0.0013647395461241,-0.0012928449917405,0.001292841364563,-0.0014129695732273,0.0014129616070201,-0.0014129659771093,0.0014129653984525,-0.0013135871254261,0.0013135817301331,-0.0013135866666743,0.0013135821738411,-0.0013135859147764,0.0013135830260809,-0.0013135854498016,0.0013135834754151,-0.0012928451688695,0.0012928413510104,-0.0012928437243811,0.0012928426634647,-0.0014129690957971,0.0014129620385814,-0.0014129654897576,0.001412965837761,-0.0012928464011126,0.0012928400889371,1.5435497282734e-09,-1.1344503714375e-09,-0.00082183500661765,0.0008218354177174,9.3765388027531e-10,-4.7545170377406e-10,-0.00059199158951522,0.00059199327197699,-0.00063656363398575,0.00063656182428011,-0.00063656273732745,0.00063656269971549,-0.00059199284470895,0.00059199203398381,-0.00059199029579754,0.00059199473052505,-0.00063656223021882,0.00063656320635037,-0.00063656137016495,0.00063656413677335,-0.0010475918970304,0.0010475936566456,-0.0010475923488088,0.0010475931443498,-0.0010475927743133,0.0010475927393091,-0.0010475932763514,0.001047592290855,-0.0010045242959064,0.001004521587553,-0.0010045216625382,0.0010045241911986,-0.0010045212379991,0.0010045247201929,-0.0010045237992679,0.0010045220233599,-0.00059199422726447,0.00059199068803346,0.78118420823104,129794,2964,0.0041807338530925,0.0056696306200986,0.0034204932338682,29.297952337773,-5.616381297813e-06,-5.616381297813e-06,-5.616381297813e-06,3671162.7099367,0.013360785162375
32591759,0.81677470751234,0.013648423177266,0.0044266394061638,0.0053668376201755,0.0038549461509267,-0.0010137973927674,0.0010137924935442,-3.7915383547235e-09,-1.0905958856031e-09,-6.7231395444666e-10,-4.3386368842978e-09,-0.00058351129052923,0.00058350535200559,-0.00073394757467092,0.00073393807788172,-0.00073394667240536,0.00073393898916828,-0.00058351020913386,0.00058350630152557,-0.00058350760531624,0.00058350894236144,-0.0007339438834436,0.00073394161545748,-0.00073394300252562,0.00073394251872233,-0.001222258189486,0.001222253638441,-0.001222257295319,0.0012222545390408,-0.0012222594582439,0.0012222524758423,-0.0012222585496819,0.0012222533734589,-0.0011093279551558,0.0011093191998877,-0.001109325305655,0.0011093218383368,-0.0011093266762916,0.0011093204222788,-0.0011093240217809,0.00110932306305,-0.00058351394607203,0.00058350267298525,-3.8780774223379e-09,-2.3750906839702e-11,-2.5750102604357e-09,-1.177549131572e-09,-0.0013783343947441,0.0013783306368054,-0.0013045305884264,0.0013045269343813,-0.0014269506459294,0.0014269426026579,-0.0014269470090147,0.0014269464376092,-0.0013269017834064,0.0013268963401921,-0.0013269013180555,0.0013268967906552,-0.0013269005595921,0.0013268976509951,-0.0013269000887743,0.0013268981062863,-0.0013045307658975,0.0013045269182601,-0.0013045293038476,0.0013045282481466,-0.0014269501618521,0.0014269430412454,-0.0014269465165165,0.0014269468823788,-0.0013045320165334,0.0013045256403927,1.5577044016263e-09,-1.1498655419558e-09,-0.0008280939269589,0.00082809433682992,9.4774263442558e-10,-4.8665912288361e-10,-0.00059531910620301,0.0005953207984928,-0.00064084734655905,0.00064084550417255,-0.00064084643954403,0.0006408463910436,-0.00059532036993015,0.00059531955258916,-0.00059531779289523,0.00059532227356615,-0.00064084592141802,0.00064084690861399,-0.00064084505141277,0.00064084784662342,-0.0010569787027157,0.0010569804780167,-0.0010569791607084,0.0010569799577136,-0.0010569795891974,0.0010569795507021,-0.0010569800996729,0.001056979095324,-0.001013194468363,0.0010131917225858,-0.0010131918119428,0.0010131943643947,-0.0010131913747109,0.0010131948880225,-0.0010131939699952,0.0010131921705386,-0.00059532177408323,0.00059531818174627,0.73524667620771,129794,2964,0.0042167933391591,0.0057258946254133,0.003446547276732,29.270839674249,-5.8332826060051e-06,-5.8332826060051e-06,-5.8332826060051e-06,3658760.0194361,0.01348078987861
32791759,0.82411665069084,0.013758125121811,0.0044617916996795,0.0054129508454656,0.0038833825766658,-0.0010217528571395,0.0010217479423048,-3.8141502423871e-09,-1.0836607546725e-09,-6.4840158671778e-10,-4.3786848080377e-09,-0.00058617662511312,0.00058617063884119,-0.00073881792302043,0.00073880833707524,-0.00073881701023907,0.00073880925927884,-0.00058617550863536,0.00058617162139077,-0.00058617287800418,0.0005861742878549,-0.00073881416744521,0.00073881193675279,-0.00073881327738328,0.00073881284868999,-0.001232747309514,0.0012327427537227,-0.0012327464063118,0.0012327436641025,-0.0012327485991554,0.0012327415711175,-0.0012327476800159,0.0012327424788362,-0.0011185629498152,0.0011185541291073,-0.001118560269771,0.0011185567973319,-0.0011185616495287,0.0011185553719651,-0.0011185589676406,0.0011185580410084,-0.00058617931195286,0.00058616792786531,-3.9329710136117e-09,-1.2711383578531e-11,-2.6046172513742e-09,-1.1902125927423e-09,-0.00139053995104,0.0013905361512673,-0.0013146575374157,0.0013146538318697,-0.0014393405120987,0.0014393323584146,-0.0014393368129295,0.0014393362562427,-0.0013391923685541,0.0013391868572978,-0.0013391918976067,0.0013391873133572,-0.0013391911235906,0.0013391881896545,-0.0013391906465343,0.0013391886511999,-0.0013146577056102,0.0013146538222363,-0.0013146562259272,0.0013146551699475,-0.0014393400239083,0.0014393328013476,-0.0014393363139209,0.0014393367078579,-0.0013146589805724,0.0013146525227883,1.5718164760378e-09,-1.1662138504674e-09,-0.00083381269905684,0.00083381310662817,9.5433083265237e-10,-4.9557559015112e-10,-0.00059813943428568,0.00059814113652123,-0.00064449005580838,0.00064448818670487,-0.00064448914000494,0.00064448908335463,-0.00059814071315462,0.00059813987646068,-0.00059813810162297,0.00059814262770431,-0.00064448861686115,0.00064448960612088,-0.00064448773442763,0.00064449055364685,-0.0010656673683909,0.0010656691575178,-0.0010656678311178,0.0010656686299672,-0.0010656682648446,0.0010656682189539,-0.0010656687812769,0.0010656677593378,-0.0010208039798279,0.0010208011993509,-0.0010208013021107,0.0010208038795186,-0.0010208008508955,0.0010208043945541,-0.0010208034855658,0.0010208016568103,-0.00059814212839596,0.00059813849214912,0.68273835867316,129794,2964,0.0042498449164391,0.0057764178416263,0.0034703519646153,29.212659985744,-6.2987201140453e-06,-6.2987201140453e-06,-6.2987201140453e-06,3656368.8222777,0.013589660149404
32991759,0.83117630846024,0.013868496946239,0.0044970398565566,0.0054592915288925,0.0039121655607902,-0.0010297893061962,0.001029784355645,-3.8470619752503e-09,-1.0865249936426e-09,-6.0832066848585e-10,-4.4561280059365e-09,-0.00058987204134647,0.0005898659287183,-0.00074440938225763,0.00074439963511517,-0.00074440846077425,0.00074440056745572,-0.00058987083427409,0.00058986699695331,-0.00058986817207372,0.00058986969315671,-0.0007444055106093,0.00074440334734113,-0.00074440460950646,0.00074440426933387,-0.0012429118968764,0.0012429073330082,-0.0012429109841969,0.0012429082538497,-0.001242913224814,0.0012429061142525,-0.0012429122952116,0.001242907031684,-0.0011279036383038,0.0011278947207587,-0.0011279009256039,0.0011278974163332,-0.0011279023048897,0.0011278959939287,-0.001127899596376,0.0011278986942321,-0.00058987475486302,0.00058986318822511,-4.0259252142776e-09,1.5458799327013e-11,-2.6408588561482e-09,-1.2157605079926e-09,-0.0014023019286509,0.0014022980669179,-0.0013243742311804,0.0013243704320742,-0.0014511114508771,0.0014511031132804,-0.0014511076351431,0.0014511071298538,-0.0013512213518153,0.0013512157367409,-0.001351220877154,0.0013512161966002,-0.0013512200680777,0.0013512171094522,-0.0013512195875315,0.0013512175745251,-0.0013243743674465,0.0013243704539974,-0.0013243728765497,0.0013243718120407,-0.0014511109604682,0.0014511035583149,-0.0014511071332799,0.0014511075841711,-0.0013243756850237,0.0013243691130021,1.5861848452594e-09,-1.1818264473956e-09,-0.00083969708221004,0.00083969748854685,9.5969957298938e-10,-5.0206961976435e-10,-0.00060197668200396,0.00060197840196978,-0.00064888144003271,0.00064887954765844,-0.00064888051425381,0.0006488804550256,-0.00060197797839367,0.00060197712408895,-0.00060197533743149,0.0006019799026491,-0.00064887998938406,0.00064888097999499,-0.00064887909680586,0.00064888193635947,-0.0010741175876432,0.0010741193897084,-0.0010741180533121,0.0010741188566031,-0.0010741184934356,0.0010741184405643,-0.0010741190149285,0.0010741179773185,-0.0010284206547769,0.0010284178440283,-0.0010284179653786,0.001028420576495,-0.0010284174931592,0.0010284210603316,-0.0010284201765336,0.0010284183177494,-0.00060197940546957,0.0006019757266194,0.7139933373309,129794,2964,0.0042832247622917,0.0058251002402358,0.0034948379692033,29.15366142503,-6.7707085997561e-06,-6.7707085997561e-06,-6.7707085997561e-06,3659506.9245925,0.013697691929238
33191759,0.83796255129693,0.013981274257012,0.0045328782524497,0.0055066722292223,0.0039417237753404,-0.0010377823147814,0.0010377773132905,-3.8874524764953e-09,-1.0969151327604e-09,-5.745078641497e-10,-4.544018412886e-09,-0.00059354446126459,0.00059353820169294,-0.00075025053828927,0.00075024060885162,-0.00075024960734668,0.00075024155125851,-0.0005935431595578,0.00059353936220571,-0.00059354046724376,0.00059354208736773,-0.00075024654805014,0.00075024444023152,-0.00075024563650195,0.00075024537210973,-0.0012528988630885,0.0012528942794589,-0.0012528979406195,0.001252895210482,-0.0012529002321362,0.0012528930212101,-0.001252899292428,0.001252893948624,-0.001137476020599,0.0011374669828033,-0.0011374732792375,0.0011374697082912,-0.001137474645482,0.0011374682966361,-0.0011374719079588,0.0011374710269843,-0.00059354720292408,0.00059353543094423,-4.1017049453177e-09,6.6515323710239e-11,-2.6577952809543e-09,-1.2234146911837e-09,-0.0014141787411708,0.0014141748553054,-0.0013343392549176,0.0013343353957863,-0.0014631539107925,0.001463145425718,-0.0014631499766842,0.0014631495662797,-0.0013631497040558,0.0013631440220578,-0.0013631492264354,0.001363144485223,-0.0013631483816645,0.0013631454365832,-0.0013631478981896,0.001363145904905,-0.0013343393559735,0.0013343354517226,-0.0013343378555026,0.0013343368193245,-0.0014631534182757,0.0014631458731771,-0.0014631494720529,0.0014631500236725,-0.0013343407175156,0.0013343340680007,1.6015796999535e-09,-1.1964442474201e-09,-0.00084557632116434,0.00084557672832963,9.6516556298324e-10,-5.0673069941431e-10,-0.00060612484540597,0.0006061265856984,-0.00065356007955,0.00065355816797053,-0.00065355914419687,0.0006535590860932,-0.00060612616129298,0.00060612528861627,-0.00060612349015749,0.00060612809509597,-0.00065355861908956,0.00065355961077463,-0.00065355771568921,0.00065356057584351,-0.0010824785428315,0.0010824803592112,-0.0010824790109822,0.0010824798211461,-0.0010824794580696,0.001082479399416,-0.0010824799838672,0.0010824789331443,-0.001036258774244,0.0010362559331756,-0.0010362560625713,0.0010362587039823,-0.0010362555807135,0.0010362591782569,-0.0010362583004641,0.0010362564150765,-0.00060612759766251,0.00060612388009236,0.7584813982037,129794,2964,0.0043164245711536,0.0058742547507928,0.0035193040537927,29.094629291885,-7.2429656649213e-06,-7.2429656649213e-06,-7.2429656649213e-06,3654291.2616357,0.013806009702979
33391759,0.84457401989905,0.014093057079413,0.0045683314167342,0.0055536823223359,0.0039710433403431,-0.0010460000468776,0.0010459949943668,-3.9269947278596e-09,-1.1070414098213e-09,-5.5182319856242e-10,-4.6241897725002e-09,-0.00059719292895896,0.00059718652712542,-0.00075626348915829,0.00075625338924789,-0.00075626254872485,0.00075625434483581,-0.00059719153417673,0.00059718775687674,-0.0005971888200842,0.00059719050766531,-0.00075625938831118,0.00075625731960243,-0.00075625847204793,0.00075625825991509,-0.0012631789179451,0.0012631743096198,-0.0012631779859017,0.0012631752495137,-0.0012631803225172,0.0012631730180952,-0.0012631793718245,0.0012631739552946,-0.0011473926899357,0.0011473835506933,-0.0011473899114909,0.0011473863012408,-0.0011473912913172,0.0011473848896066,-0.0011473885260566,0.0011473876468278,-0.0005971956958781,0.00059718372121929,-4.1780437723954e-09,9.5789710445613e-11,-2.6840503424464e-09,-1.2433174301218e-09,-0.0014265372818446,0.0014265333527505,-0.0013448052481345,0.0013448013083095,-0.0014758256382181,0.0014758169985333,-0.0014758216054306,0.0014758212504189,-0.0013753823457202,0.0013753765896531,-0.0013753818662987,0.0013753770551153,-0.0013753809919864,0.0013753780384736,-0.0013753805055385,0.0013753785100895,-0.0013448053116293,0.0013448013799584,-0.0013448038102569,0.0013448027727704,-0.0014758251406929,0.0014758174443884,-0.0014758210960012,0.0014758217095863,-0.0013448066936745,0.0013447999689451,1.618983450336e-09,-1.2097763948674e-09,-0.00085166781970344,0.00085166822985373,9.6672143116669e-10,-5.0855112815486e-10,-0.00061027098112622,0.00061027275642158,-0.00065842621308866,0.00065842428018677,-0.00065842526513783,0.00065842521163238,-0.00061027230003409,0.00061027140486169,-0.00061026961280276,0.0006102742471523,-0.00065842474008487,0.00065842572164505,-0.00065842383487792,0.00065842669783642,-0.0010911739647975,0.0010911757969466,-0.0010911744336687,0.0010911752555143,-0.0010911748905529,0.0010911748262579,-0.0010911754173157,0.0010911743587171,-0.0010445141937553,0.0010445113330862,-0.001044511475542,0.0010445141587836,-0.0010445109700061,0.0010445145997407,-0.0010445137399204,0.0010445118267613,-0.00061027375029506,0.00061026999907931,0.77139461581534,129794,2964,0.0043505599088893,0.0059254003759853,0.003544655179881,29.270993194468,-5.8320544442525e-06,-5.8320544442525e-06,-5.8320544442525e-06,3644669.2418214,0.013918206664997
33591759,0.8510562369717,0.014204707004582,0.0046036780460432,0.00560067522454,0.004000353733999,-0.0010543789758549,0.001054373882005,-3.962799661514e-09,-1.1131399566914e-09,-5.466925573294e-10,-4.670287627507e-09,-0.00060108300910693,0.00060107655849269,-0.00076248542218151,0.00076247522274791,-0.00076248447081328,0.00076247618695039,-0.00060108160608897,0.00060107781426381,-0.00060107886018777,0.00060108059186459,-0.00076248127790307,0.0007624792060131,-0.00076248034880657,0.00076248015610839,-0.0012736046851293,0.0012736000413827,-0.0012736037442231,0.00127360099198,-0.0012736061046431,0.00127359873396,-0.001273605143859,0.0012735996812096,-0.0011575327488061,0.0011575235236466,-0.0011575299413234,0.0011575263054161,-0.0011575313323843,0.0011575248748349,-0.0011575285444503,0.0011575276645703,-0.00060108581157726,0.000601073724152,-4.2100564264308e-09,1.1604922992826e-10,-2.6946021100567e-09,-1.2457991288296e-09,-0.0014391209364097,0.001439116992687,-0.0013554792603371,0.0013554752976251,-0.0014887421167668,0.001488733415826,-0.0014887380345807,0.0014887377156852,-0.0013877963404664,0.0013877905466875,-0.001387795858777,0.0013877910146157,-0.0013877949703354,0.0013877920145706,-0.0013877944818767,0.001387792488498,-0.0013554793181839,0.0013554753915188,-0.0013554778016356,0.0013554767789886,-0.0014887416213227,0.0014887338656415,-0.0014887375237608,0.0014887381791115,-0.001355480731986,0.0013554739563691,1.6353522714893e-09,-1.2235956876681e-09,-0.00085789940744789,0.00085789982098418,9.7421279302672e-10,-5.0971558133299e-10,-0.00061441791079005,0.00061441970320615,-0.00066349611593913,0.00066349417807297,-0.00066349516118869,0.00066349511626161,-0.00061441927008174,0.00061441835335472,-0.00061441653774355,0.00061442122325206,-0.00066349464322562,0.00066349563110484,-0.00066349371922434,0.00066349661659601,-0.0011000365479071,0.0011000383957053,-0.001100037019578,0.0011000378515806,-0.0011000374836046,0.0011000374146611,-0.0011000380136093,0.0011000369450901,-0.0010529914192865,0.001052988529087,-0.0010529886791443,0.001052991394632,-0.0010529881653227,0.0010529918225281,-0.0010529909733262,0.001052989031919,-0.00061442071504083,0.00061441693624492,0.78538310831735,129794,2964,0.004385365106775,0.0059774741934932,0.0035705887902911,29.571287968387,-3.4296962529061e-06,-3.4296962529061e-06,-3.4296962529061e-06,3634855.0749286,0.014032627755279
33791759,0.85740564775983,0.014313880150212,0.0046382399464754,0.0056466390179645,0.0040290011857722,-0.001062562756645,0.0010625576321381,-3.9933976612956e-09,-1.1130436406632e-09,-5.567644179645e-10,-4.6927030607015e-09,-0.0006047635015667,0.00060475703137207,-0.00076844512564146,0.00076843487287981,-0.00076844416555778,0.00076843584613867,-0.00060476211261424,0.00060475827003895,-0.00060475933290929,0.00060476108038612,-0.0007684409697345,0.00076843886614011,-0.00076844002899745,0.00076843982755068,-0.0012838558270516,0.0012838511457587,-0.0012838548760467,0.0012838521072835,-0.0012838572497835,0.0012838498362465,-0.0012838562787698,0.0012838507931612,-0.0011674507958135,0.0011674415111436,-0.0011674479580379,0.0011674443214947,-0.0011674493798684,0.0011674428613476,-0.0011674465627265,0.0011674456834574,-0.00060476632958556,0.00060475416933736,-4.2281669171677e-09,1.116952266625e-10,-2.7122063934307e-09,-1.249958381544e-09,-0.0014515385727519,0.0014515346069563,-0.0013659960328789,0.0013659920576474,-0.0015015280970896,0.0015015193546311,-0.0015015240016218,0.0015015236710033,-0.0014000195155944,0.0014000136912774,-0.0014000190294015,0.0014000141640291,-0.0014000181417729,0.0014000151645472,-0.0014000176495651,0.0014000156425245,-0.001365996099014,0.0013659921439144,-0.0013659945698903,0.0013659935429995,-0.0015015275964752,0.0015015198096957,-0.0015015234878072,0.0015015241375183,-0.0013659975195524,0.0013659907022257,1.6505402449189e-09,-1.2377010036722e-09,-0.00086395759054707,0.00086395800528863,9.8333818452985e-10,-5.1745968999752e-10,-0.00061819137832228,0.00061819318731209,-0.00066832716919232,0.00066832520541971,-0.00066832620405917,0.00066832615493191,-0.00061819274887415,0.00061819182485594,-0.00061818999137161,0.00061819472037452,-0.00066832567884715,0.00066832667628418,-0.00066832474613799,0.00066832767023241,-0.0011087607671657,0.0011087626312015,-0.0011087612439348,0.0011087620814677,-0.0011087617123529,0.0011087616408314,-0.0011087622486081,0.0011087611652722,-0.001061295189447,0.0010612922666048,-0.00106129242915,0.0010612951741402,-0.0010612919015498,0.0010612955887543,-0.0010612947465667,0.0010612927824725,-0.00061819421278972,0.00061819038708958,0.78367691413391,129794,2964,0.0044193615938078,0.006028857723327,0.0035958024840968,29.874884536861,-1.0009237051129e-06,-1.0009237051129e-06,-1.0009237051129e-06,3624134.5860823,0.01414481272482
33991759,0.86361775346425,0.014417056229366,0.0046709981005778,0.0056900399479776,0.0040560181808105,-0.0010704016003896,0.0010703964548958,-4.018844323594e-09,-1.1086509343573e-09,-5.6602810320057e-10,-4.7056194999955e-09,-0.00060812463917986,0.0006081181718808,-0.00077391675797782,0.00077390646994022,-0.00077391578811532,0.00077390745338627,-0.00060812327344708,0.00060811938545886,-0.00060812046422642,0.00060812222382747,-0.00077391259828897,0.00077391046613475,-0.00077391164757008,0.00077391143721665,-0.0012937829407666,0.0012937782292828,-0.0012937819804383,0.0012937792009661,-0.0012937843644157,0.0012937769202353,-0.001293783382892,0.0012937778870035,-0.0011768321771014,0.0011768228437105,-0.0011768293089745,0.0011768256836534,-0.0011768307621488,0.0011768241922943,-0.0011768279179312,0.0011768270444618,-0.00060812749610045,0.0006081152795019,-4.2464460374002e-09,9.8896032290422e-11,-2.7365117910903e-09,-1.2557374729636e-09,-0.0014634578448732,0.0014634538489865,-0.0013760096751706,0.0013760056858742,-0.0015137530767098,0.0015137442942869,-0.0015137489782188,0.0015137486159196,-0.0014118237543045,0.0014118178927327,-0.0014118232622375,0.001411818371618,-0.0014118223794995,0.0014118193678891,-0.0014118218811486,0.0014118198522779,-0.0013760097571098,0.0013760057566629,-0.0013760082093044,0.0013760071737351,-0.001513752570653,0.0015137447548746,-0.0015137484582086,0.001513749088643,-0.0013760111806154,0.0013760043122695,1.665623440373e-09,-1.2527580509838e-09,-0.0008697355055253,0.00086973592031434,9.9268483554847e-10,-5.2667976847107e-10,-0.00062150001718684,0.00062150183689456,-0.00067270174815714,0.00067269975662199,-0.00067270077374265,0.00067270071630648,-0.00062150139828989,0.00062150046293713,-0.00062149861004278,0.00062150338770882,-0.00067270024013183,0.00067270124603153,-0.00067269929675978,0.00067270224985178,-0.0011172081441115,0.0011172100245439,-0.0011172086270796,0.001117209468292,-0.0011172090996382,0.001117209024198,-0.0011172096421516,0.0011172085425615,-0.0010691461990517,0.0010691432419361,-0.0010691434178233,0.0010691461894512,-0.0010691428757059,0.0010691465949541,-0.0010691457587378,0.0010691437694005,-0.00062150287940598,0.00062149900703678,0.75679008287662,129794,2964,0.0044519257202891,0.006078176442165,0.0036198507444944,30.17861677467,1.4289341973618e-06,1.4289341973618e-06,1.4289341973618e-06,3615938.2729148,0.014252282013605
34191759,0.86977951915306,0.014517357425116,0.0047029041708371,0.0057321880071113,0.0040822652471677,-0.001078656961106,0.001078651799688,-4.0400918260856e-09,-1.1033215846947e-09,-5.7175180402191e-10,-4.7166759636693e-09,-0.00061220479820526,0.00061219835354376,-0.00077985113828377,0.00077984081355304,-0.00077985015335732,0.0007798418134198,-0.00061220344974208,0.00061219954474937,-0.00061220063243907,0.00061220238922383,-0.00077984696743347,0.00077984482109229,-0.00077984601502182,0.00077984579437985,-0.0013040520179087,0.0013040472851876,-0.0013040510515846,0.0013040482635193,-0.0013040534454418,0.0013040459738687,-0.0013040524521791,0.001304046951603,-0.001186459011971,0.0011864496307368,-0.0011864561094752,0.0011864525026525,-0.0011864575908574,0.0011864509844777,-0.0011864547275566,0.0011864538559819,-0.0006122077004598,0.00061219541422752,-4.2699534474414e-09,8.5087094171576e-11,-2.76739900118e-09,-1.2612273343881e-09,-0.0014755255502342,0.0014755215185678,-0.0013861535668328,0.001386149555396,-0.0015260317646134,0.0015260229369256,-0.0015260276644441,0.0015260272603787,-0.0014239276107147,0.0014239217052373,-0.0014239271127527,0.0014239221902869,-0.0014239262357639,0.0014239231811518,-0.0014239257266173,0.0014239236766528,-0.0013861536688077,0.0013861496038699,-0.0013861520906092,0.0013861510562206,-0.0015260312562018,0.0015260233980191,-0.0015260271286137,0.0015260277477641,-0.0013861550868967,0.0013861481616425,1.6836426537256e-09,-1.2681781468517e-09,-0.00087593827962314,0.00087593869674944,9.9640531405125e-10,-5.2871589059982e-10,-0.00062535485732897,0.00062535668628737,-0.00067750104422285,0.00067749904314936,-0.00067750006599975,0.00067750000843966,-0.00062535626066833,0.00062535528230859,-0.00062535342330838,0.00062535825798204,-0.00067749953609574,0.00067750053146056,-0.00067749857691231,0.00067750155349836,-0.0011259966851048,0.0011259985836564,-0.0011259971721584,0.0011259980223656,-0.0011259976541581,0.0011259975696228,-0.0011259981965008,0.0011259970883669,-0.0010772623246256,0.0010772593444045,-0.0010772595266088,0.001077262329208,-0.0010772589669655,0.0010772627270164,-0.0010772618992146,0.0010772598735187,-0.00062535772918877,0.0006253538397053,0.74153685336363,129794,2964,0.0044862134674193,0.0061281081598087,0.0036456600714848,30.743901111064,5.9512088885104e-06,5.9512088885104e-06,5.9512088885104e-06,3616467.4313081,0.014363917836042
34391759,0.87590586843863,0.014616279801385,0.0047344019160981,0.0057737346158372,0.00410814326945,-0.0010870280488235,0.0010870228683619,-4.0671955124395e-09,-1.0953287404588e-09,-5.6468208658516e-10,-4.7433794395141e-09,-0.00061662031119539,0.00061661381291537,-0.00078594740050778,0.00078593702361771,-0.00078594641532559,0.00078593802328175,-0.00061661896021207,0.00061661500361145,-0.0006166160773017,0.00061661791441802,-0.00078594320857317,0.000785941052284,-0.00078594223249537,0.00078594204812726,-0.0013143799277309,0.0013143751709571,-0.0013143789464085,0.0013143761652447,-0.0013143813628615,0.0013143738543116,-0.0013143803613348,0.0013143748396999,-0.0011961042605239,0.0011960948276698,-0.0011961013346133,0.0011960977224272,-0.0011961028402242,0.0011960961788655,-0.0011960999328317,0.0011960990976459,-0.00061662321137973,0.00061661087329345,-4.3042210200612e-09,8.3960881683212e-11,-2.7842010955603e-09,-1.2783944166864e-09,-0.0014875631131533,0.0014875590471917,-0.0013963609871793,0.0013963569409712,-0.0015382058177647,0.0015381969140129,-0.0015382016758138,0.0015382012809931,-0.0014360637112065,0.001436057757065,-0.0014360632095838,0.0014360582459317,-0.0014360623216993,0.0014360592481891,-0.0014360618167706,0.0014360597395029,-0.0013963610794896,0.0013963570049077,-0.0013963595100525,0.0013963584428254,-0.0015382053000124,0.0015381973854293,-0.0015382011517348,0.0015382017561741,-0.0013963625216933,0.0013963555377498,1.6938673524452e-09,-1.28285849773e-09,-0.00088226291427783,0.00088226332714138,1.0110527462964e-09,-5.4711087113201e-10,-0.00062941699887407,0.00062941885109595,-0.00068239615363913,0.00068239409805941,-0.00068239515737308,0.00068239508326089,-0.00062941839811095,0.00062941745567248,-0.00062941556355582,0.00062942042450757,-0.00068239460465732,0.00068239563185507,-0.00068239364514423,0.00068239665001742,-0.0011348427486173,0.0011348446585011,-0.0011348432426038,0.001134844089291,-0.0011348437219187,0.0011348436397219,-0.001134844279655,0.0011348431437826,-0.0010854199045463,0.0010854168750433,-0.0010854170811857,0.0010854199076915,-0.0010854165120914,0.0010854202866231,-0.0010854194683214,0.0010854174331947,-0.00062941992859404,0.0006294159458578,0.73560164784091,129794,2964,0.0045209782802274,0.0061779133667747,0.0036719729900565,31.386434164016,1.1091473312132e-05,1.1091473312132e-05,1.1091473312132e-05,3620933.0426715,0.014476431309091
34591759,0.88198368531946,0.014717992330985,0.0047667045030026,0.0058164750898754,0.0041348127381074,-0.0010955641516405,0.0010955589431132,-4.0953395815693e-09,-1.0952260664778e-09,-5.5525428636269e-10,-4.7824276737644e-09,-0.00062149455537218,0.00062148802070731,-0.00079242493433226,0.00079241446741676,-0.00079242393607218,0.00079241548097644,-0.00062149318314909,0.00062148923227237,-0.00062149028227508,0.00062149215652095,-0.00079242069148952,0.0007924185470992,-0.00079241970964924,0.00079241954799425,-0.0013247532154355,0.0013247484410643,-0.0013247522265001,0.001324749443502,-0.0013247546734212,0.0013247471080142,-0.0013247536607867,0.0013247481042648,-0.0012059926545579,0.0012059831472739,-0.0012059896960536,0.0012059860749475,-0.001205991214871,0.0012059845170274,-0.001205988285902,0.0012059874591859,-0.00062149749710916,0.00062148503837755,-4.3408790168316e-09,9.7995827131145e-11,-2.8073100454654e-09,-1.2779979213863e-09,-0.0014997326144507,0.0014997285260281,-0.001406762399869,0.0014067583305233,-0.0015504916013837,0.0015504826226667,-0.001550487415394,0.0015504870358633,-0.0014483091968445,0.0014483031982957,-0.0014483086890768,0.0014483036937395,-0.0014483077934135,0.0014483047045251,-0.0014483072789773,0.0014483052058825,-0.0014067624954582,0.00140675839228,-0.001406760899584,0.0014067598553299,-0.0015504910808567,0.0015504830977804,-0.0015504868799405,0.0015504875237418,-0.0014067639549688,0.0014067569087773,1.709952246379e-09,-1.2985023902315e-09,-0.00088872386594242,0.00088872427932503,1.0173800617549e-09,-5.5280206752813e-10,-0.00063384715364,0.00063384901193928,-0.00068764501258274,0.00068764294010014,-0.00068764401134524,0.00068764393265601,-0.00063384857160787,0.00063384759888105,-0.00063384569317719,0.00063385060705843,-0.00068764345635781,0.00068764448166466,-0.00068764248170699,0.00068764551401965,-0.0011437350220193,0.0011437369485869,-0.0011437355208304,0.0011437363728224,-0.0011437360071245,0.0011437359173128,-0.0011437365676509,0.0011437354190319,-0.0010937859742816,0.0010937829155868,-0.0010937831347205,0.0010937859898483,-0.0010937825472851,0.001093786356097,-0.0010937855490374,0.0010937834813148,-0.00063385009995513,0.00063384608824845,0.76226247249257,129794,2964,0.0045564257054613,0.0062282613984245,0.0036988507929416,32.031072975019,1.624858380015e-05,1.624858380015e-05,1.624858380015e-05,3625045.8707098,0.014590771616834
34791759,0.88807755246238,0.01482394033737,0.0048002533899655,0.005861057354172,0.0041626295932322,-0.0011047112265852,0.0011047059876704,-4.1254508528965e-09,-1.0943162165672e-09,-5.5937046367513e-10,-4.8132677860907e-09,-0.00062692030172429,0.00062691371546734,-0.00079955236500173,0.00079954182717467,-0.00079955135880759,0.00079954285116172,-0.00062691891487911,0.00062691492164302,-0.00062691598091606,0.0006269178830509,-0.00079954809150601,0.00079954592924936,-0.00079954710095135,0.00079954694260414,-0.0013357545882785,0.0013357497817717,-0.0013357535886137,0.0013357507950532,-0.001335756054934,0.0013357484425785,-0.0013357550317379,0.0013357494480981,-0.0012166860781813,0.0012166765161607,-0.0012166830845711,0.0012166794676579,-0.0012166846437385,0.0012166778822198,-0.0012166816831126,0.0012166808564428,-0.00062692326164273,0.00062691070680827,-4.3661899777168e-09,1.0554933213043e-10,-2.821829503792e-09,-1.2830979670421e-09,-0.0015127946005006,0.001512790497752,-0.0014180845411517,0.0014180804514543,-0.0015637808144071,0.0015637717843399,-0.0015637766023042,0.0015637762329876,-0.0014612811097696,0.001461275089345,-0.0014612805974809,0.0014612755898303,-0.0014612796983547,0.0014612766038416,-0.0014612791810486,0.0014612771092995,-0.0014180846313361,0.0014180804994214,-0.0014180830356568,0.0014180819912469,-0.0015637802835196,0.0015637722623527,-0.0015637760632513,0.00156377672121,-0.0014180860849696,0.0014180790100317,1.7252092518063e-09,-1.3122953158377e-09,-0.00089569297725679,0.00089569339102514,1.02431038519e-09,-5.6296574555818e-10,-0.00063873376961784,0.00063873565137126,-0.00069349190600142,0.00069348979327197,-0.00069349089140325,0.00069349080345959,-0.00063873517478396,0.00063873419936241,-0.00063873228730798,0.00063873723338228,-0.00069349032093716,0.00069349134964536,-0.00069348934727043,0.00069349238883826,-0.0011532268488782,0.0011532287920002,-0.0011532273522152,0.0011532282092344,-0.0011532278425947,0.001153227750997,-0.0011532284099055,0.0011532272459066,-0.0011029101826899,0.001102907091061,-0.0011029073131976,0.0011029101932499,-0.0011029067206084,0.0011029105691549,-0.0011029097474513,0.0011029076629666,-0.00063873673795674,0.00063873267023097,0.79180217565761,129794,2964,0.0045944096517466,0.0062822996387156,0.003727841920223,32.909017930882,2.3272143447058e-05,2.3272143447058e-05,2.3272143447058e-05,3626310.5625715,0.01471358915066
34991759,0.89421843870647,0.014925703294587,0.0048326027719827,0.0059038750783119,0.0041892254442928,-0.0011138526048682,0.0011138473469124,-4.1481483870907e-09,-1.0911260674947e-09,-5.6250372969129e-10,-4.8284610539468e-09,-0.00063175050442068,0.00063174394004178,-0.00080623207602542,0.00080622149536477,-0.00080623105536974,0.00080622253269506,-0.00063174914413152,0.00063174513440793,-0.00063174619648665,0.00063174810466245,-0.00080622779140549,0.00080622561725991,-0.00080622679588556,0.00080622663383263,-0.0013469847336023,0.0013469799069573,-0.0013469837276722,0.001346980927289,-0.0013469862089075,0.0013469785617315,-0.0013469851750999,0.001346979577819,-0.0012273013101222,0.0012272916974729,-0.0012272982842731,0.001227294680925,-0.0012272998676512,0.0012272930670778,-0.0012272968924539,0.0012272960636243,-0.00063175351043265,0.00063174089215244,-4.3831632427246e-09,1.0312036596787e-10,-2.8430261558738e-09,-1.2807413806601e-09,-0.0015260729462671,0.001526068822519,-0.0014295650589423,0.001429560963812,-0.0015774017255938,0.0015773926656065,-0.0015773975063346,0.0015773971187695,-0.001474404390365,0.0014743983347589,-0.0014744038730264,0.0014743988406355,-0.0014744029758547,0.0014743998540037,-0.0014744024495968,0.0014744003683895,-0.0014295651710072,0.0014295610037468,-0.001429563541171,0.0014295625120939,-0.0015774011956545,0.0015773931472264,-0.0015773969553066,0.0015773976216198,-0.0014295666349831,0.0014295595096798,1.7434431473358e-09,-1.3281208049681e-09,-0.00090262301266955,0.00090262342944713,1.0300590422287e-09,-5.635752319774e-10,-0.00064303355468853,0.00064303544493104,-0.00069889748142777,0.00069889536729481,-0.00069889646296151,0.00069889637988482,-0.00064303499960899,0.00064303398300077,-0.00064303205481801,0.00064303706407345,-0.00069889590156577,0.00069889692669296,-0.00069889490660647,0.00069889798352641,-0.0011629310077732,0.0011629329686439,-0.0011629315148456,0.0011629323821235,-0.0011629320148555,0.0011629319143661,-0.0011629325822592,0.001162931409581,-0.0011119866263053,0.0011119835051224,-0.0011119837233962,0.0011119866296129,-0.001111983129854,0.0011119870214501,-0.0011119861904139,0.0011119840712026,-0.00064303654399611,0.00064303246067965,0.75494740999347,129794,2964,0.0046323730219303,0.0063372305746684,0.003756674420581,33.939444356641,3.1515554853128e-05,3.1515554853128e-05,3.1515554853128e-05,3626415.188885,0.014837151342575
35191759,0.90038271385706,0.015025221270053,0.0048643204709543,0.0059457205305393,0.0042151802685597,-0.0011230008528652,0.0011229955789722,-4.1727691942948e-09,-1.082565344813e-09,-5.5604114364827e-10,-4.8511037664628e-09,-0.00063681376843274,0.00063680718047631,-0.000812948905625,0.00081293827414179,-0.0008129478780288,0.00081293931763054,-0.00063681241234367,0.00063680837255886,-0.00063680941974962,0.00063681138652159,-0.0008129445979508,0.00081294241968104,-0.00081294358632368,0.00081294345098141,-0.0013581557961134,0.0013581509517649,-0.0013581547780798,0.0013581519848576,-0.0013581572820761,0.0013581495991473,-0.0013581562385132,0.0013581506248234,-0.0012377176871354,0.0012377080197408,-0.0012377146342958,0.0012377110327982,-0.0012377162374089,0.0012377093955321,-0.0012377132268989,0.0012377124300736,-0.0006368167940527,0.0006368041131567,-4.4132668549623e-09,1.0329246635554e-10,-2.8626396577904e-09,-1.289372070231e-09,-0.0015390729562459,0.0015390688035926,-0.0014407671749974,0.0014407630575683,-0.001590557937392,0.001590548813875,-0.0015905536869704,0.0015905532987449,-0.0014874316037948,0.00148742550427,-0.0014874310816909,0.0014874260151837,-0.0014874301784521,0.001487427035198,-0.0014874296504074,0.0014874275513389,-0.0014407672907418,0.0014407631013345,-0.0014407656503664,0.0014407646114989,-0.0015905574015821,0.0015905493036667,-0.0015905531369568,0.001590553801341,-0.0014407687725365,0.0014407615904328,1.7557089493629e-09,-1.3426597226965e-09,-0.00090957158366182,0.00090957199856568,1.0410383758865e-09,-5.7553126614328e-10,-0.0006474120248675,0.00064741392764205,-0.00070428163457303,0.00070427948642425,-0.00070428060478072,0.00070428051148289,-0.00064741347835436,0.00064741246620772,-0.00064741051366072,0.00064741556280985,-0.00070428003106275,0.00070428107339966,-0.0007042790285621,0.00070428213539975,-0.0011725566853964,0.0011725586597061,-0.0011725571979803,0.0011725580655369,-0.0011725576994955,0.0011725575971311,-0.0011725582764996,0.0011725570835825,-0.0011208661626459,0.0011208630002545,-0.0011208632257006,0.0011208661500749,-0.0011208626325152,0.001120866552599,-0.0011208657115267,0.00112086357541,-0.00064741505202255,0.00064741090907809,0.73556804846149,129794,2964,0.0046703597437827,0.0063910075132976,0.0037855791710519,34.97392639102,3.979141112816e-05,3.979141112816e-05,3.979141112816e-05,3634102.4320357,0.014959651930704
35391759,0.90648803252258,0.015120981986135,0.0048949293030777,0.0059859592104237,0.0042400934726334,-0.0011316567712016,0.0011316514799857,-4.1967837451374e-09,-1.0767328569327e-09,-5.3170460658336e-10,-4.890980547431e-09,-0.00064145282167468,0.00064144619248459,-0.00081914943703825,0.00081913872068215,-0.0008191483991263,0.00081913977141209,-0.00064145144280356,0.00064144742278904,-0.00064144841796875,0.00064145046473257,-0.00081914507515207,0.00081914293034384,-0.00081914404931138,0.00081914397082235,-0.0013688025267509,0.0013687976776081,-0.0013688014992053,0.0013687987215739,-0.001368804037683,0.0013687963044706,-0.0013688029845968,0.0013687973403463,-0.0012474736795161,0.001247463940135,-0.0012474706001493,0.0012474669859312,-0.0012474722037375,0.001247465338593,-0.0012474691684022,0.0012474684063619,-0.00064145587721824,0.00064144309949829,-4.4550377721247e-09,1.2611218183e-10,-2.8805940949711e-09,-1.2894579577175e-09,-0.0015513652552252,0.0015513610811236,-0.0014513248051355,0.0014513206708686,-0.0016029121143795,0.0016029029093633,-0.0016029078034828,0.0016029074502649,-0.0014998454597487,0.0014998393066216,-0.0014998449325059,0.001499839823291,-0.0014998440124347,0.0014998408606671,-0.0014998434793089,0.001499841382616,-0.0014513249247738,0.00145132073321,-0.0014513232585529,0.0014513222414785,-0.0016029115770414,0.001602903405679,-0.0016029072492374,0.0016029079594201,-0.0014513264429792,0.0014513191912327,1.7691725201263e-09,-1.3592528190535e-09,-0.00091609825819956,0.0009160986710188,1.0525948449316e-09,-5.8573157316188e-10,-0.00065145346159868,0.00065145536831684,-0.0007091626277393,0.00070916045680504,-0.0007091615904912,0.00070916148800486,-0.00065145494420331,0.000651453920085,-0.00065145193425149,0.00065145704195869,-0.00070916101313566,0.00070916207105503,-0.00070915999060533,0.00070916314159572,-0.0011816766421046,0.0011816786305928,-0.0011816771607396,0.0011816780283042,-0.0011816776651594,0.0011816775569412,-0.0011816782502876,0.0011816770373539,-0.0011291410092975,0.0011291378045653,-0.0011291380386738,0.001129140981678,-0.0011291374437657,0.0011291413938479,-0.0011291405501722,0.0011291383880335,-0.00065145652450649,0.00065145233459597,0.71497033921498,129794,2964,0.004706300428479,0.0064418542003977,0.0038127287597282,35.839211277958,4.6713690223663e-05,4.6713690223663e-05,4.6713690223663e-05,3643811.898197,0.015075333174906
35591759,0.91244224917752,0.015209834786184,0.004923467764545,0.0060232421032539,0.0042631249183852,-0.0011395147752636,0.0011395094416663,-4.2324476550706e-09,-1.0824540008027e-09,-4.504587968812e-10,-5.0187138446194e-09,-0.00064536488854717,0.000645358033061,-0.00082448636786411,0.00082447538873735,-0.00082448531974521,0.00082447645170442,-0.00064536332252241,0.00064535943558085,-0.00064536026987805,0.00064536250407465,-0.0008244817913066,0.0008244797970731,-0.00082448075781734,0.00082448084615164,-0.0013786225285125,0.0013786176984176,-0.0013786214913575,0.0013786187516873,-0.0013786241117697,0.0013786162574998,-0.0013786230477709,0.0013786173033811,-0.0012561934614083,0.0012561835806367,-0.0012561903507376,0.0012561866558843,-0.001256191913981,0.0012561850499103,-0.0012561888490035,0.0012561881443385,-0.00064536797438172,0.00064535490513329,-4.6275683612572e-09,1.6919078656923e-10,-2.952308033711e-09,-1.3402159746979e-09,-0.0015625742062143,0.0015625699112693,-0.0014608991921339,0.0014608948819591,-0.0016140973200021,0.0016140877740811,-0.0016140928066965,0.0016140925253867,-0.0015112765817613,0.0015112702353235,-0.0015112760477162,0.0015112707591115,-0.0015112750653433,0.0015112718595767,-0.0015112745246265,0.0015112723895947,-0.0014608992574667,0.0014608949886268,-0.0014608975745479,0.0014608965291627,-0.0016140967751425,0.0016140882765566,-0.0016140922447924,0.0016140930427539,-0.0014609008372634,0.0014608933794665,1.7826370916679e-09,-1.3758403114053e-09,-0.00092195478783689,0.00092195519704784,1.057074533446e-09,-5.9608016671614e-10,-0.00065482882085609,0.00065483073755353,-0.0007132263555331,0.00071322415114842,-0.00071322530860844,0.00071322519466096,-0.00065483030021872,0.00065482925629979,-0.00065482727267603,0.00065483241596115,-0.00071322472040588,0.00071322577487907,-0.00071322369550896,0.00071322685971634,-0.0011900237314379,0.0011900257329695,-0.0011900242529193,0.0011900251213915,-0.0011900247631143,0.0011900246468088,-0.0011900253534391,0.0011900241224517,-0.0011364826648246,0.0011364794248297,-0.0011364796671153,0.001136482631122,-0.0011364790650358,0.0011364830490862,-0.0011364822009194,0.0011364800107557,-0.0006548319043995,0.00065482766698096,0.68077348748056,129794,2964,0.0047389273532603,0.0064882174609294,0.0038370913523759,36.485295394187,5.1882363153496e-05,5.1882363153496e-05,5.1882363153496e-05,3655149.6200445,0.015180281662332
35791759,0.91823023287373,0.015301216882648,0.0049526945392879,0.0060616001007781,0.0042869222425822,-0.0011475255949405,0.0011475201955754,-4.2798579871881e-09,-1.100120402018e-09,-3.5444717549974e-10,-5.1841633911317e-09,-0.00065019209545289,0.0006501849395368,-0.00083047635570648,0.00083046504317079,-0.00083047529835324,0.00083046611612522,-0.00065019029551647,0.00065018657106809,-0.00065018721325654,0.0006501896694444,-0.00083047152491577,0.00083046970731777,-0.00083047048143065,0.00083047076660898,-0.0013883047925215,0.0013882999767594,-0.0013883037454165,0.0013883010400521,-0.0013883064675711,0.0013882984498606,-0.0013883053935414,0.0013882995054761,-0.0012651074864257,0.0012650974234989,-0.001265104346248,0.001265100527228,-0.0012651058487614,0.0012650989790143,-0.0012651027542017,0.0012651021028632,-0.00065019520777122,0.0006501817834036,-4.7874165195351e-09,2.7604329637009e-10,-2.9842981324281e-09,-1.3599319501622e-09,-0.0015736935585232,0.0015736892122431,-0.0014705606882506,0.0014705562490173,-0.0016250267034862,0.0016250168470804,-0.0016250219366552,0.0016250218584347,-0.0015226281625609,0.0015226216738986,-0.0015226276247474,0.001522622201894,-0.0015226265605355,0.0015226233871964,-0.0015226260160789,0.0015226239213028,-0.0014705606779586,0.0014705564329455,-0.0014705589839094,0.001470557987299,-0.0016250261543523,0.0016250173531017,-0.0016250213709384,0.0016250223792841,-0.0014705623434294,0.001470554733311,1.7964010629196e-09,-1.3922964080063e-09,-0.00092798892935226,0.00092798933579857,1.0625423830081e-09,-6.0502849829698e-10,-0.00065891010510337,0.0006589120346613,-0.00071789127435407,0.00071788904131018,-0.00071789021698164,0.00071789009555773,-0.00065891159751003,0.00065891053631145,-0.00065890854440676,0.00065891372723254,-0.00071788962359288,0.00071789067910512,-0.00071788859100044,0.00071789177466947,-0.0011982632817779,0.0011982652958427,-0.0011982638061295,0.0011982646769504,-0.0011982643219185,0.0011982641979515,-0.001198264917951,0.0011982636691405,-0.001144005268286,0.001144001991803,-0.0011440022421217,0.0011440052298847,-0.0011440016365682,0.0011440056516007,-0.0011440048020246,0.0011440025843584,-0.00065891321876539,0.00065890893281017,0.72027366372272,129794,2964,0.0047721819821259,0.0065342089349643,0.003862185358233,37.125596323526,5.7004770588211e-05,5.7004770588211e-05,5.7004770588211e-05,3667939.6777663,0.015286236858894
35991759,0.92383968786783,0.015395277120264,0.0049826350497211,0.0061011570258854,0.0043114850446574,-0.0011555248870082,0.0011555194086382,-4.3338958811616e-09,-1.124186777395e-09,-2.6562826300361e-10,-5.3569398778109e-09,-0.00065500873167827,0.00065500126251917,-0.00083663938743585,0.00083662772572949,-0.0008366383203908,0.00083662880877957,-0.00065500669895534,0.00065500312444302,-0.00065500358635438,0.00065500625163285,-0.00083663430168716,0.00083663264682793,-0.00083663324786634,0.00083663371587176,-0.0013979272504257,0.0013979224358841,-0.0013979261935296,0.0013979235092785,-0.0013979290162971,0.0013979208227048,-0.0013979279320404,0.0013979218882159,-0.0012742515584406,0.0012742413025737,-0.0012742483876439,0.0012742444353182,-0.0012742498325833,0.0012742429426614,-0.0012742467101486,0.0012742460965496,-0.00065501187242658,0.00065499807651569,-4.9369062637848e-09,3.9421690590552e-10,-3.0045484731654e-09,-1.3703559953343e-09,-0.0015850473975575,0.0015850430213606,-0.0014805288551549,0.0014805243043549,-0.001636354744267,0.0016363445991722,-0.0016363497247727,0.0016363498732166,-0.0015339959408677,0.0015339893328871,-0.001533995400149,0.0015339898642252,-0.0015339942546606,0.0015339911353131,-0.0015339937072064,0.0015339916728298,-0.0014805287662856,0.0014805245695002,-0.0014805270626862,0.0014805261337947,-0.0016363541925427,0.001636345108153,-0.0016363491560869,0.0016363503972735,-0.0014805305198444,0.0014805227788931,1.8112924886732e-09,-1.4073938979354e-09,-0.00093398938329908,0.00093398978955523,1.0674450587053e-09,-6.1030547629895e-10,-0.00066309028891949,0.0006630922374546,-0.00072276718044372,0.00072276492703823,-0.00072276611386635,0.00072276599206366,-0.00066309179742609,0.00066309071675904,-0.00066308871700095,0.00066309393894589,-0.00072276551849066,0.00072276657358917,-0.00072276447713338,0.00072276768018618,-0.00120647916449,0.0012064811921091,-0.0012064796903727,0.0012064805674207,-0.0012064802133785,0.0012064800828143,-0.0012064808132158,0.0012064795507631,-0.0011517811684098,0.0011517778599987,-0.0011517781173938,0.0011517811332928,-0.0011517775069054,0.001151781552245,-0.0011517807041106,0.001151778459332,-0.00066309342945093,0.00066308910426218,0.76499783280432,129794,2964,0.0048053913520752,0.0065811663269037,0.0038871433889804,37.765658604797,6.212526883838e-05,6.212526883838e-05,6.212526883838e-05,3671119.8896396,0.015393001013849
36191759,0.92910968344473,0.015481145175926,0.0050100254738211,0.006137284031334,0.0043338356707712,-0.001161838886156,0.0011618333497133,-4.3772622175263e-09,-1.1382265849591e-09,-2.0315152130165e-10,-5.4812091290294e-09,-0.00065777231486356,0.00065776462985472,-0.00084087371921086,0.00084086180352493,-0.00084087264177226,0.000840862897333,-0.00065777012332903,0.0006577666501641,-0.00065776698370197,0.00065776980261193,-0.00084086845381137,0.0008408669106824,-0.00084086739076799,0.00084086798829303,-0.0014059710089128,0.0014059661920117,-0.0014059699425506,0.0014059672748666,-0.0014059728405237,0.0014059645161503,-0.0014059717462042,0.0014059655918428,-0.0012816712324751,0.0012816608282638,-0.001281668030923,0.0012816639906169,-0.0012816694420262,0.0012816625292807,-0.0012816662934894,0.0012816657117724,-0.00065777548623277,0.00065776141209143,-5.0308212245708e-09,4.9031184190722e-10,-3.0117776725462e-09,-1.3633527884512e-09,-0.0015947668478789,0.0015947624723322,-0.001488895726054,0.0014888911219001,-0.001646257157322,0.0016462468313367,-0.0016462519598872,0.0016462522908311,-0.0015436340882973,0.0015436274144466,-0.0015436335435179,0.0015436279502143,-0.00154363234244,0.0015436292801161,-0.001543631790114,0.0015436298228345,-0.0014888955869302,0.0014888914395266,-0.0014888938680511,0.0014888930182061,-0.001646256602717,0.00164624734357,-0.001646251385844,0.0016462528205232,-0.0014888974043861,0.0014888895836981,1.8264415375824e-09,-1.4229280019086e-09,-0.00093846615527885,0.00093846656121178,1.0729263056871e-09,-6.1604680391038e-10,-0.00066543435765443,0.00066543632197331,-0.0007259367084763,0.00072593443493958,-0.0007259356339312,0.00072593551008104,-0.00066543588316269,0.00066543478052739,-0.00066543276962879,0.00066543803551624,-0.00072593503630843,0.00072593609120816,-0.00072593398360028,0.00072593720906775,-0.0012132277455661,0.001213229787596,-0.001213228273475,0.001213229156142,-0.0012132288037179,0.0012132286662078,-0.0012132294073252,0.0012132281308911,-0.001157963345267,0.0011579600049774,-0.0011579602700339,0.0011579633137501,-0.0011579596527622,0.0011579637295789,-0.0011579628851015,0.0011579606112302,-0.00066543752240738,0.00066543315919728,0.74360849117606,129794,2964,0.0048316152652725,0.0066213582677631,0.0039057781116198,37.870066945801,6.2960535566407e-05,6.2960535566407e-05,6.2960535566407e-05,3662263.5778326,0.015479395123346
36391759,0.9339458879467,0.015558962603874,0.0050348757628058,0.0061700006132657,0.0043540862278026,-0.0011668277265089,0.0011668221481819,-4.4128657655094e-09,-1.1441389628695e-09,-1.6159635425407e-10,-5.5665764526163e-09,-0.00065972135611499,0.00065971353915754,-0.00084398972509423,0.00084397763022558,-0.00084398863557251,0.00084397873457264,-0.00065971907189116,0.00065971566041199,-0.00065971590577072,0.0006597188353177,-0.00084398433595824,0.00084398286339762,-0.00084398326246107,0.00084398394790273,-0.0014124889963507,0.0014124841719769,-0.001412487921456,0.0014124852648965,-0.0014124908732604,0.0014124824544501,-0.0014124897685739,0.0014124835408308,-0.001287574731448,0.0012875642122608,-0.00128757150059,0.0012875674080558,-0.0012875728951426,0.001287565957348,-0.0012875697237709,0.0012875691703414,-0.00065972456187909,0.00065971028781982,-5.1011063869955e-09,5.519771281927e-10,-3.0269798889966e-09,-1.3558851742912e-09,-0.0016026930977136,0.001602688713207,-0.0014955969814843,0.0014955923472087,-0.0016542366426639,0.0016542261778907,-0.0016542313236644,0.0016542317635919,-0.0015516118574069,0.0015516051240324,-0.0015516113062734,0.0015516056669296,-0.0015516100704316,0.0015516070333267,-0.0015516095112518,0.0015516075841954,-0.0014955968236217,0.001495592695909,-0.0014955950763721,0.0014955942886234,-0.0016542360855785,0.0016542266963289,-0.0016542307421558,0.0016542323039394,-0.0014955986925388,0.0014955907913274,1.841281795708e-09,-1.438311611244e-09,-0.00094182792823173,0.00094182833417199,1.0786770081652e-09,-6.1968834313996e-10,-0.00066689762207444,0.00066689959860405,-0.00072812393865282,0.00072812165393445,-0.00072812285872509,0.00072812273629508,-0.00066689917482447,0.00066689804450019,-0.00066689601895698,0.00066690133549887,-0.0007281222638254,0.00072812331870001,-0.00072812119486926,0.00072812444967468,-0.0012185745463711,0.0012185766020019,-0.0012185750762035,0.0012185759643912,-0.0012185756139074,0.0012185754683491,-0.0012185762207978,0.0012185749312239,-0.0011627419153573,0.0011627385437757,-0.0011627388154378,0.0011627418848304,-0.0011627381925638,0.0011627422995597,-0.0011627414580283,0.0011627391533697,-0.00066690080940686,0.00066689641830028,0.73413358532343,129794,2964,0.0048523388529605,0.0066541306645361,0.0039197766488409,37.54336777111,6.0346942168881e-05,6.0346942168881e-05,6.0346942168881e-05,3653184.4704667,0.015547962708087
36591759,0.93838470329745,0.015626198349328,0.0050564559038108,0.0061982108790318,0.0043715315664854,-0.0011711187661436,0.001171113165079,-4.4394004944799e-09,-1.1400027404047e-09,-1.3533396819899e-10,-5.6172595438709e-09,-0.00066107994852723,0.00066107205044835,-0.00084640200699261,0.000846389806057,-0.00084640091023096,0.0008463909190981,-0.00066107761367583,0.00066107421672126,-0.00066107441036435,0.00066107742948397,-0.00084639654769341,0.00084639511294975,-0.00084639546294581,0.00084639621063205,-0.0014182345680279,0.0014182297378092,-0.0014182334816822,0.0014182308412612,-0.001418236472686,0.0014182279950792,-0.0014182353583179,0.0014182290906428,-0.0012925517124636,0.0012925411034957,-0.0012925484583721,0.0012925443273832,-0.0012925498380381,0.0012925428850062,-0.0012925466252355,0.0012925461258467,-0.00066108317506842,0.00066106877576904,-5.1549824160022e-09,5.8087962337734e-10,-3.0408981096281e-09,-1.368217747092e-09,-0.0016095621152216,0.0016095577075211,-0.0015013189059035,0.0015013142198024,-0.0016611176679049,0.0016611071103697,-0.0016611122770027,0.0016611127700324,-0.0015586137792223,0.0015586069971782,-0.001558613226513,0.0015586075416953,-0.0015586119671593,0.0015586089323565,-0.0015586114076714,0.0015586094833564,-0.0015013187203393,0.0015013145884175,-0.0015013169766538,0.0015013161898551,-0.0016611171058741,0.0016611076313572,-0.0016611116962,0.0016611133077399,-0.0015013206113057,0.0015013126564967,1.8541407164393e-09,-1.4547406460836e-09,-0.00094468166099115,0.00094468206293646,1.0837404365875e-09,-6.3093231663142e-10,-0.00066791874599713,0.00066792073911658,-0.00072972272632485,0.00072972040428544,-0.00072972163457606,0.00072972150188226,-0.00066792030014234,0.00066791916150056,-0.00066791712823496,0.00066792247330385,-0.00072972102901745,0.00072972208595462,-0.00072971995620148,0.00072972322331347,-0.0012232641997212,0.0012232662669895,-0.0012232647325621,0.0012232656220282,-0.0012232652751984,0.0012232651231085,-0.0012232658886884,0.0012232645794164,-0.0011667344629052,0.0011667310469908,-0.0011667313031265,0.0011667343822473,-0.0011667307047086,0.0011667348550859,-0.0011667339691287,0.0011667316467181,-0.00066792196514547,0.00066791751353668,0.69114506671804,129794,2964,0.0048701646771856,0.0066825307801033,0.0039316612293192,37.205188680934,5.7641509447475e-05,5.7641509447475e-05,5.7641509447475e-05,3647113.7130731,0.015607003088301
36791759,0.94246205295557,0.015686209006887,0.0050757669025856,0.0062233441909729,0.0043870979133284,-0.001175007785279,0.0011750021766762,-4.45812668429e-09,-1.1288033837138e-09,-1.2044661232102e-10,-5.6397529169197e-09,-0.00066259767359786,0.00066258976027289,-0.00084868686121431,0.00084867460752224,-0.00084868575471554,0.00084867573075329,-0.00066259533077202,0.00066259193480492,-0.00066259209763397,0.00066259517567109,-0.0008486813693037,0.00084867995168527,-0.00084868027446845,0.0008486810590767,-0.0014233537429427,0.0014233489100236,-0.0014233526466545,0.0014233500233998,-0.0014233556643507,0.0014233471548336,-0.0014233545398538,0.0014233482603782,-0.0012968985456196,0.0012968878828166,-0.0012968952629507,0.0012968911366754,-0.0012968966527299,0.0012968896795056,-0.0012968934095907,0.0012968929488583,-0.0006626009291277,0.00066258645579491,-5.1874452454027e-09,5.8843185620409e-10,-3.054179815848e-09,-1.380264005781e-09,-0.001615513992655,0.0016155095607474,-0.0015062739631866,0.0015062692374429,-0.0016668804164079,0.0016668698049724,-0.0016668749922925,0.0016668754978094,-0.0015648515519389,0.0015648447321402,-0.0015648509987169,0.0015648452772413,-0.0015648497271614,0.0015648466799243,-0.0015648491667013,0.0015648472318241,-0.0015062737642618,0.0015062696195453,-0.001506272019635,0.0015062712225378,-0.0016668798544762,0.0016668703260668,-0.0016668744109374,0.0016668760362083,-0.0015062756693427,0.0015062676727039,1.8685427342837e-09,-1.4703285872945e-09,-0.00094730678390221,0.00094730718458472,1.0837927163709e-09,-6.3247088219778e-10,-0.00066907055513434,0.0006690725744273,-0.0007312237632817,0.00073122142833661,-0.00073122266254581,0.00073122253664999,-0.00066907213551619,0.00066907096792636,-0.00066906893311587,0.00066907430815764,-0.00073122206431606,0.00073122311118749,-0.00073122098103269,0.00073122425822049,-0.0012274177544619,0.0012274198315213,-0.0012274182857178,0.0012274191830822,-0.0012274188387599,0.0012274186760568,-0.0012274194530883,0.0012274181320441,-0.0011702061927543,0.0011702027450968,-0.0011702029979251,0.0011702061030298,-0.0011702024058387,0.0011702065871175,-0.0011702056947407,0.0011702033433738,-0.00066907380167667,0.00066906931831151,0.67162364372776,129794,2964,0.0048863152987784,0.0067071391628346,0.0039425879829356,36.866534688271,5.4932277506167e-05,5.4932277506167e-05,5.4932277506167e-05,3649139.3293825,0.015659515674565
36991759,0.94629984653791,0.015746019786739,0.0050949228275083,0.0062484051784961,0.0044026917807343,-0.0011796910317127,0.0011796853911907,-4.4888649628449e-09,-1.1293259122803e-09,-8.0336653211566e-11,-5.7145097568554e-09,-0.00066539271903886,0.00066538468298102,-0.00085213294343273,0.00085212053389626,-0.00085213182791419,0.00085212166836638,-0.00066539028407394,0.00066538693599649,-0.00066538702135714,0.00066539020809576,-0.00085212733543493,0.00085212598517886,-0.00085212623225004,0.00085212710355455,-0.0014290686244705,0.0014290637930817,-0.0014290675175952,0.0014290649162728,-0.0014290705939775,0.0014290620008003,-0.001429069459282,0.0014290631160476,-0.0013020901954175,0.0013020794312111,-0.0013020868822068,0.0013020827121044,-0.0013020882594605,0.0013020812660057,-0.0013020849828796,0.0013020845630901,-0.00066539600096825,0.00066538134842017,-5.3202165216255e-09,5.7763472372739e-10,-3.1157517986345e-09,-1.4560721076345e-09,-0.0016221090046533,0.0016221044379192,-0.0015119739759745,0.0015119690534866,-0.0016732092499045,0.0016731983948403,-0.001673203716597,0.001673204201903,-0.0015716951924432,0.0015716882061738,-0.0015716946431452,0.0015716887471646,-0.0015716933285367,0.001571690193754,-0.0015716927721309,0.0015716907414786,-0.0015119737165281,0.0015119694816522,-0.0015119719934631,0.0015119710838692,-0.0016732086894846,0.001673198910809,-0.001673203138905,0.0016732047340989,-0.0015119756515739,0.001511967497362,1.8850456480501e-09,-1.483556933854e-09,-0.00095072882161373,0.00095072922478558,1.0770722766868e-09,-6.2592919016376e-10,-0.00067136806521441,0.00067137013259457,-0.00073380838149146,0.00073380604325765,-0.00073380726869518,0.00073380716563289,-0.00067136967350565,0.00067136846935161,-0.00067136645517365,0.00067137184032573,-0.00073380668732277,0.00073380770948908,-0.00073380560219175,0.00073380886704483,-0.0012321961669667,0.0012321982530282,-0.0012321966906951,0.0012321976051161,-0.0012321972592489,0.0012321970858371,-0.0012321978699418,0.0012321965459585,-0.0011745258055436,0.0011745223372706,-0.0011745225776059,0.0011745257199692,-0.0011745219953306,0.0011745262077247,-0.0011745253092194,0.0011745229299698,-0.00067137134044041,0.00067136683675044,0.71099418171644,129794,2964,0.0049057550407787,0.006734408804691,0.00395681964037,36.972949914008,5.5783599312063e-05,5.5783599312063e-05,5.5783599312063e-05,3657421.2977441,0.015721427749505
37191759,0.94995115367945,0.015806369268319,0.0051141571751292,0.0062737411106042,0.0044184709825853,-0.0011846549304661,0.0011846492479543,-4.5247738827932e-09,-1.1344811392035e-09,-3.8787624917625e-11,-5.8016705036838e-09,-0.00066833490305193,0.00066832671909091,-0.00085592140382322,0.00085590881198873,-0.00085592027842851,0.0008559099571716,-0.00066833236469983,0.00066832906875519,-0.00066832906918223,0.00066833237324817,-0.00085591566676935,0.00085591438734517,-0.00085591455361153,0.00085591551664947,-0.001435083142668,0.0014350783030841,-0.0014350820250359,0.0014350794363238,-0.0014350851551895,0.0014350764680644,-0.0014350840106066,0.0014350775933403,-0.0013077742261726,0.0013077633499087,-0.001307770882344,0.0013077666592928,-0.0013077722484152,0.0013077652259972,-0.0013077689401779,0.0013077685527214,-0.00066833821411173,0.00066832335410722,-5.3935991666595e-09,6.3987343815863e-10,-3.1140338631457e-09,-1.4685876927671e-09,-0.0016292252676791,0.0016292206927366,-0.0015181745035507,0.001518169507671,-0.0016802630988996,0.0016802521077913,-0.0016802574387007,0.0016802580488095,-0.0015788690540929,0.0015788620247708,-0.0015788685086392,0.0015788625615593,-0.0015788671485511,0.00157886405545,-0.0015788665966405,0.0015788645988386,-0.0015181741828041,0.0015181699900742,-0.0015181724791018,0.0015181715870802,-0.0016802625411036,0.0016802526186917,-0.0016802568664108,0.0016802585762641,-0.0015181761554747,0.0015181679629145,1.9025476025429e-09,-1.4952439255303e-09,-0.00095440916061446,0.00095440956915812,1.0703202278084e-09,-6.1517834018262e-10,-0.00067390768192444,0.00067390980121708,-0.00073679624867106,0.0007367939183846,-0.00073679512578173,0.0007367950539195,-0.00067390932439136,0.00067390808360383,-0.00067390608679615,0.00067391148151492,-0.00073679456566984,0.0007367955644463,-0.00073679347605795,0.000736796730735,-0.0012373108672695,0.0012373129632918,-0.0012373113836401,0.0012373123191836,-0.0012373119683016,0.0012373117853879,-0.0012373125735888,0.0012373112509193,-0.0011793395479909,0.0011793360633471,-0.0011793362927606,0.0011793394765175,-0.001179335715969,0.0011793399577115,-0.0011793390581377,0.0011793366512266,-0.00067391098205704,0.00067390646964301,0.75399384184051,129794,2964,0.0049263620863384,0.00676383241401,0.0039721286789904,37.297027193657,5.8376217549255e-05,5.8376217549255e-05,5.8376217549255e-05,3658045.0338049,0.015787814492901
37391759,0.95342063585063,0.015861269716885,0.0051317101813691,0.006296783584283,0.0044327759512324,-0.0011891576071337,0.0011891518859881,-4.5586728552029e-09,-1.1394019327001e-09,2.7424354557734e-12,-5.8822906621169e-09,-0.00067037536456123,0.00067036705753633,-0.00085895832726828,0.00085894556913944,-0.00085895719151538,0.00085894672240091,-0.00067037274246612,0.00067036950513885,-0.00067036941977054,0.00067037283430033,-0.00085895247781519,0.00085895126756826,-0.00085895135306458,0.00085895240514787,-0.001440796157269,0.0014407913146698,-0.0014407950298924,0.0014407924576682,-0.0014407982164745,0.0014407894369824,-0.0014407970627307,0.0014407905726165,-0.0013130305393688,0.0013130195466248,-0.0013130271705315,0.0013130228888577,-0.001313028511206,0.0013130214708837,-0.0013130251767305,0.0013130248271007,-0.00067037870575843,0.00067036366574397,-5.4554495245265e-09,7.005738614917e-10,-3.1088228748782e-09,-1.4738205008009e-09,-0.0016360666216701,0.0016360620431933,-0.0015240449779915,0.0015240399370537,-0.0016872725143262,0.001687261413238,-0.0016872667396173,0.0016872674697597,-0.0015856468602833,0.0015856397861539,-0.001585646319113,0.0015856403186803,-0.0015856449156274,0.001585641859304,-0.0015856443673508,0.0015856423985859,-0.0015240446157851,0.0015240404834794,-0.0015240429121583,0.0015240420520541,-0.0016872719652429,0.0016872619210849,-0.0016872661713948,0.0016872679952017,-0.0015240466411732,0.0015240384087223,1.919486537059e-09,-1.5091899930464e-09,-0.00095766669168198,0.00095766710417952,1.0711185009437e-09,-6.0837280285826e-10,-0.00067559436011381,0.0006755965163372,-0.00073915342534578,0.00073915110617011,-0.00073915229480183,0.00073915224645714,-0.00067559605668486,0.00067559477894846,-0.00067559277517083,0.00067559821170579,-0.00073915175867167,0.00073915275004033,-0.00073915065090455,0.00073915392946173,-0.001242176175537,0.0012421782831717,-0.00124217668883,0.0012421776397135,-0.0012421772859972,0.0012421770935617,-0.0012421778894547,0.0012421765623524,-0.0011837556837104,0.0011837521702029,-0.0011837523839115,0.0011837555961531,-0.0011837518243552,0.0011837561004005,-0.0011837551828671,0.0011837527469975,-0.00067559769333876,0.0006755931694417,0.72209467457526,129794,2964,0.004945061363072,0.0067921170785132,0.0039856873440551,37.626963408207,6.1015707265656e-05,6.1015707265656e-05,6.1015707265656e-05,3651634.4782554,0.015849337964091
37591759,0.95671208424125,0.015911286310827,0.0051477546594206,0.0063177511967649,0.0044457804546412,-0.0011934269223574,0.0011934211706508,-4.588824462092e-09,-1.1394718518583e-09,4.0015751928599e-11,-5.9518478143701e-09,-0.00067257947138333,0.00067257105603775,-0.00086188020463307,0.00086186730038516,-0.0008618790590904,0.00086186846344054,-0.00067257677268143,0.00067257358053399,-0.00067257341946712,0.00067257693933687,-0.00086187425210511,0.00086187310356621,-0.00086187311684403,0.00086187425108018,-0.0014461629292279,0.0014461580844148,-0.0014461617916579,0.0014461592374675,-0.0014461650277489,0.0014461561707833,-0.0014461638642084,0.0014461573165637,-0.0013178629352882,0.001317851844935,-0.0013178595378418,0.0013178552172949,-0.001317860868352,0.0013178538067752,-0.0013178575041525,0.0013178571925889,-0.000672582841355,0.00067256763511956,-5.5184781308106e-09,7.4714677461824e-10,-3.1159683679119e-09,-1.4827475819211e-09,-0.0016423171418379,0.0016423125474849,-0.0015293837674017,0.0015293786725105,-0.0016935087638469,0.0016934975448058,-0.0016935028865624,0.0016935037072588,-0.0015919953578046,0.0015919882324223,-0.0015919948171744,0.0015919887644246,-0.0015919933785545,0.0015919903420441,-0.001591992830762,0.0015919908808396,-0.0015293833682322,0.0015293792592964,-0.0015293816657379,0.0015293808245624,-0.001693508215648,0.0016934980520658,-0.0016935023191635,0.0016935042321444,-0.0015293854305912,0.001529377146317,1.9352166139866e-09,-1.5232968608559e-09,-0.00096077721212675,0.00096077762641394,1.0709873719294e-09,-6.0619430162045e-10,-0.0006772162222845,0.00067721841225978,-0.0007413936935211,0.00074139136920187,-0.00074139255382257,0.00074139251991188,-0.00067721794926632,0.00067721664240235,-0.00067721464006783,0.00067722010476165,-0.00074139202911658,0.00074139301066294,-0.00074139091179254,0.0007413942005341,-0.0012467250269184,0.0012467271457573,-0.0012467255379454,0.0012467265010191,-0.0012467261462357,0.0012467259449352,-0.0012467267493956,0.0012467254147575,-0.0011877925787629,0.0011877890376755,-0.0011877892458149,0.0011877924882007,-0.0011877886917703,0.0011877929993527,-0.001187792074966,0.0011877896115969,-0.00067721958400586,0.00067721503458835,0.69345404021377,129794,2964,0.0049627878616989,0.0068179586350175,0.0039986297275043,37.957142433575,6.3657139468597e-05,6.3657139468597e-05,6.3657139468597e-05,3652395.3255914,0.015906765301784
37791759,0.95975721057533,0.015955959276839,0.0051621291297505,0.0063364554598225,0.0044573746872657,-0.0011965498722397,0.0011965440970932,-4.6152230351043e-09,-1.1363290063406e-09,7.5437657019596e-11,-6.0118749920516e-09,-0.0006739582331139,0.00067394972731168,-0.00086381628891071,0.00086380325846137,-0.0008638151334058,0.00086380443142551,-0.00067395546752608,0.00067395231862733,-0.00067395208533225,0.00067395570514554,-0.0008638102452462,0.00086380915455948,-0.00086380909984499,0.00086381031133989,-0.0014502288552058,0.0014502240123178,-0.0014502277074885,0.00145022517499,-0.0014502309902557,0.0014502220659857,-0.0014502298171265,0.0014502232218668,-0.0013213470157304,0.0013213358375208,-0.0013213435903162,0.0013213392398677,-0.0013213449124636,0.0013213378346176,-0.0013213415187704,0.0013213412488527,-0.00067396163209557,0.00067394627676261,-5.576279472431e-09,7.8763453414387e-10,-3.1326713842749e-09,-1.4831003877084e-09,-0.0016470248010004,0.0016470201899996,-0.0015333199677004,0.0015333148383662,-0.0016980556938498,0.0016980443646039,-0.0016980497273181,0.0016980506176619,-0.0015969265410256,0.0015969193618551,-0.0015969259953376,0.0015969198992676,-0.0015969245306035,0.0015969215037085,-0.0015969239774862,0.0015969220481879,-0.0015333195520051,0.0015333154429484,-0.0015333178331958,0.0015333170241671,-0.0016980551413034,0.0016980448769749,-0.0016980491546182,0.0016980511486038,-0.0015333216471422,0.0015333132962394,1.9482520617185e-09,-1.5405550095431e-09,-0.00096292602484122,0.00096292643495536,1.0774176625362e-09,-6.1702256748888e-10,-0.00067815849041572,0.00067816068729102,-0.00074272324728979,0.00074272089215002,-0.00074272209850782,0.00074272205312674,-0.0006781602284574,0.00067815890384965,-0.00067815688876779,0.00067816239704426,-0.00074272156608809,0.0007427225500307,-0.00074272043827766,0.00074272375037225,-0.0012500568664908,0.001250058997603,-0.0012500573816927,0.0012500583446073,-0.0012500579948548,0.0012500577851735,-0.0012500586042487,0.0012500572496717,-0.001190607870904,0.0011906042897536,-0.0011906045040076,0.0011906077641152,-0.0011906039490375,0.0011906082900358,-0.0011906073574633,0.001190604866567,-0.00067816187994471,0.00067815728062922,0.66961884080189,129794,2964,0.0049757551572226,0.0068374195856986,0.004007573125513,37.836185721579,6.2689485772628e-05,6.2689485772628e-05,6.2689485772628e-05,3654497.7841606,0.015948810892188
37991759,0.96255723039983,0.015998278549795,0.0051757125920685,0.0063541755683364,0.0044683903893897,-0.0011992908569086,0.0011992850584355,-4.6441449215605e-09,-1.1307497851349e-09,1.0881235600427e-10,-6.0693597863424e-09,-0.00067536470253391,0.00067535610753254,-0.00086565975373912,0.00086564660346412,-0.00086565859142059,0.00086564778344345,-0.00067536188779648,0.00067535875585891,-0.0006753584526069,0.0006753621909211,-0.00086565362467429,0.00086565258214506,-0.00086565246264753,0.00086565375474009,-0.0014537199818284,0.0014537151324129,-0.0014537188209848,0.0014537163077774,-0.0014537221430986,0.0014537131566943,-0.0014537209601559,0.0014537143226055,-0.0013243860628486,0.001324374791655,-0.001324382613076,0.00132437822611,-0.0013243839238289,0.0013243768250707,-0.0013243804885272,0.0013243802756053,-0.00067536812596732,0.00067535263747597,-5.6377146182177e-09,8.2346103041717e-10,-3.1533575970606e-09,-1.4843015240402e-09,-0.0016510756563411,0.0016510710225109,-0.0015367392442614,0.0015367340859541,-0.0017018305061422,0.0017018190517446,-0.0017018244454946,0.0017018253991815,-0.0016012337719326,0.0016012265317515,-0.0016012332189113,0.001601227077041,-0.0016012317302545,0.0016012287063669,-0.0016012311724992,0.0016012292555574,-0.00153673881603,0.0015367347052061,-0.0015367370810073,0.0015367362984747,-0.0017018299440529,0.001701819577186,-0.0017018238722475,0.0017018259336678,-0.0015367409518299,0.0015367325211493,1.9586364787942e-09,-1.5554440184588e-09,-0.0009648057269461,0.00096480613271753,1.0824736369602e-09,-6.2642193322523e-10,-0.00067919900768383,0.0006792012172565,-0.00074397417124048,0.00074397178733293,-0.00074397301085807,0.00074397295998113,-0.00067920075721703,0.00067919943201377,-0.00067919740671777,0.00067920293206626,-0.00074397247277795,0.00074397346311536,-0.00074397134153912,0.00074397466920358,-0.0012528804543755,0.001252882593637,-0.0012528809720093,0.0012528819353504,-0.0012528815890542,0.0012528813730224,-0.0012528822054209,0.0012528808317028,-0.0011930520180146,0.0011930483955983,-0.0011930486068842,0.0011930518805319,-0.0011930480659496,0.0011930524344429,-0.0011930514792813,0.0011930489708823,-0.00067920243622675,0.00067919778066038,0.68978257986736,129794,2964,0.0049871337513725,0.0068541652821182,0.0040153938454369,37.594084292669,6.0752674341352e-05,6.0752674341352e-05,6.0752674341352e-05,3658558.6639625,0.015985339976718
38191759,0.96513313943521,0.01603756127458,0.0051883102287083,0.0063706261691904,0.004478624876681,-0.0012017332779507,0.0012017274557913,-4.6688321721467e-09,-1.1295790518412e-09,1.3933218152691e-10,-6.1248240606233e-09,-0.00067638626988924,0.00067637760061362,-0.00086721290105313,0.00086719962850967,-0.00086721172591987,0.0008672008207935,-0.00067638339095574,0.00067638030696536,-0.00067637994767888,0.00067638375302802,-0.00086720667993896,0.00086720569401221,-0.00086720551356272,0.00086720687104471,-0.0014569037026098,0.0014568988538841,-0.0014569025343922,0.0014569000367638,-0.0014569058999881,0.0014568968491436,-0.0014569047068406,0.00145689802499,-0.0013271744838938,0.0013271631305568,-0.0013271710048701,0.0013271665941417,-0.0013271723123899,0.00132716519833,-0.0013271688540307,0.0013271686697369,-0.00067638972750847,0.00067637409323775,-5.6985067130609e-09,8.5199544562948e-10,-3.1718820356811e-09,-1.4939016233658e-09,-0.0016548598511378,0.0016548551888217,-0.0015399201840853,0.0015399149744971,-0.0017054706921158,0.0017054591193691,-0.0017054645490188,0.0017054655509386,-0.0016051724082632,0.001605165110263,-0.0016051718538166,0.0016051656573194,-0.0016051703394151,0.0016051673126774,-0.0016051697775952,0.0016051678666899,-0.0015399197360802,0.0015399156111028,-0.0015399179905804,0.0015399172190149,-0.001705470129829,0.0017054596427223,-0.0017054639681388,0.0017054660914015,-0.0015399218927266,0.0015399134032514,1.9740835172654e-09,-1.5739498250015e-09,-0.00096645028422273,0.00096645068664046,1.0868365750192e-09,-6.3486207598484e-10,-0.00067999460555778,0.00067999682648841,-0.0007450201456101,0.00074501773562228,-0.0007450189764133,0.00074501891637871,-0.00067999637349528,0.00067999501152068,-0.00067999297839933,0.00067999856156658,-0.00074501843718696,0.00074501942055085,-0.00074501729126467,0.00074502064117086,-0.0012554610866733,0.0012554632398534,-0.0012554616103648,0.0012554625762279,-0.0012554622338128,0.0012554620066666,-0.0012554628537331,0.0012554614626602,-0.0011952982840809,0.0011952946240269,-0.0011952948403538,0.0011952981343006,-0.0011952942927783,0.0011952987017458,-0.0011952977406249,0.0011952951981015,-0.00067999805522118,0.00067999336157308,0.69607506674335,129794,2964,0.0049972756133181,0.0068698076818307,0.0040222398744766,37.348638381903,5.8789107055227e-05,5.8789107055227e-05,5.8789107055227e-05,3657514.1119062,0.016018503850982
38391759,0.96751632368415,0.016075629019671,0.005200469845998,0.0063865859807628,0.0044885731929103,-0.0012042138387583,0.0012042079861622,-4.6988448132811e-09,-1.1297167006361e-09,1.726018572788e-10,-6.1904462824095e-09,-0.00067759563977775,0.00067758687186469,-0.00086893774486588,0.00086892433035493,-0.00086893655975278,0.00086892553282473,-0.00067759269829932,0.0006775896476507,-0.00067758922623108,0.00067759312412275,-0.00086893137894409,0.00086893045128981,-0.00086893020340014,0.00086893163856299,-0.0014600587179737,0.0014600538591619,-0.0014600575393004,0.0014600550517593,-0.0014600611052296,0.0014600519852414,-0.0014600599023159,0.0014600531710274,-0.0013300553633356,0.001330043919516,-0.0013300518553382,0.0013300474118734,-0.0013300532187939,0.0013300460767318,-0.0013300497293628,0.0013300495765973,-0.00067759912637818,0.00067758333565292,-5.7726792882573e-09,8.7930634389955e-10,-3.190821606627e-09,-1.5106189988701e-09,-0.0016586524612773,0.0016586477410991,-0.0015431315533855,0.0015431262934371,-0.0017091551289109,0.001709143317308,-0.0017091488813519,0.0017091498560931,-0.0016090695462278,0.0016090621637905,-0.0016090689910143,0.0016090627119747,-0.0016090674443862,0.0016090644005331,-0.0016090668821077,0.0016090649554132,-0.0015431310748104,0.0015431269561042,-0.0015431293297742,0.0015431285702505,-0.0017091545646018,0.0017091438418683,-0.0017091482993503,0.0017091503971381,-0.0015431332588323,0.0015431247183121,1.9889468720199e-09,-1.5890377428112e-09,-0.00096815779485668,0.00096815819670502,1.0873250080685e-09,-6.3692035901885e-10,-0.00068094133580748,0.00068094358432121,-0.00074626937823692,0.00074626695239848,-0.00074626819713153,0.00074626814308533,-0.000680943125761,0.00068094173719984,-0.00068093970694154,0.00068094531839564,-0.00074626767875337,0.0007462686526097,-0.00074626652685977,0.00074626988478279,-0.0012580498755534,0.0012580520394577,-0.0012580504126602,0.0012580513873129,-0.0012580510331417,0.0012580507968244,-0.0012580516655513,0.0012580502632671,-0.001197650858918,0.0011976471682142,-0.0011976473845791,0.0011976507052403,-0.0011976467601369,0.0011976512018054,-0.0011976502358659,0.0011976476661565,-0.00068094481586484,0.00068094008790654,0.72889799741562,129794,2964,0.005007575513261,0.0068854844143102,0.0040293470051525,37.197821528256,5.7582572226046e-05,5.7582572226046e-05,5.7582572226046e-05,3655187.3931117,0.016052128870926
38591759,0.96973905824836,0.016111726216599,0.0052119818306187,0.006401730789886,0.0044980135960941,-0.0012067276103902,0.0012067217154905,-4.7343186375801e-09,-1.1361601147943e-09,2.1868317452619e-10,-6.2812816485985e-09,-0.00067862962326668,0.00067862070706034,-0.00087060462073438,0.00087059101478952,-0.00087060342605375,0.00087059222675514,-0.00067862656628273,0.00067862357772368,-0.00067862306756095,0.00067862708172905,-0.00087059810676908,0.00087059726312846,-0.00087059692200894,0.0008705984598004,-0.0014633085789741,0.001463303707381,-0.0014633073901518,0.0014633049094722,-0.0014633110103581,0.0014633018009929,-0.0014633097979677,0.0014633029966457,-0.0013330785591332,0.0013330670017903,-0.0013330750232119,0.0013330705230215,-0.0013330763787923,0.0013330692102546,-0.0013330728601629,0.0013330727380729,-0.00067863313742581,0.00067861714289301,-5.8786524526734e-09,9.1249898183394e-10,-3.2140147808561e-09,-1.5433181719539e-09,-0.0016626515698409,0.0016626467899361,-0.0015465255043953,0.001546520141595,-0.0017132328493172,0.0017132208181248,-0.0017132264637893,0.0017132274994595,-0.0016130365410444,0.0016130290597033,-0.0016130359889884,0.0016130296047617,-0.0016130343960353,0.0016130313422722,-0.0016130338367389,0.0016130318939737,-0.0015465249754115,0.0015465208564681,-0.0015465232387841,0.0015465224600325,-0.0017132322887991,0.0017132213399079,-0.0017132258844497,0.0017132280372619,-0.0015465272007043,0.0015465185760045,2.0049431837921e-09,-1.6038143428668e-09,-0.00096989558791423,0.00096989599094963,1.0879738948962e-09,-6.3624571831892e-10,-0.0006817222633732,0.00068172454479392,-0.00074752415440899,0.0007475217196749,-0.00074752296163713,0.00074752291917715,-0.0006817241006885,0.00068172268222383,-0.00068172065419713,0.00068172629878844,-0.00074752245812035,0.0007475234226333,-0.00074752129785604,0.00074752466797088,-0.0012607724049618,0.0012607745805577,-0.0012607729457883,0.0012607739316493,-0.0012607735737048,0.0012607733284364,-0.0012607742079102,0.0012607727966527,-0.0012001421894557,0.0012001384691508,-0.0012001386849137,0.0012001420348876,-0.0012001380499162,0.0012001425250522,-0.0012001415551356,0.0012001389572962,-0.00068172577572481,0.00068172101930136,0.74096371142616,129794,2964,0.0050180167491745,0.0069020140360889,0.0040365838702504,37.193783329688,5.7550266637506e-05,5.7550266637506e-05,5.7550266637506e-05,3647571.4431815,0.016086900322459
38791759,0.97181221338309,0.016145491143795,0.0052227458100357,0.0064158991317563,0.0045068462020028,-0.0012090452171169,0.0012090392788971,-4.771127705853e-09,-1.1421890287916e-09,2.6439477077418e-10,-6.3728848557716e-09,-0.0006794583903899,0.00067944932583359,-0.00087205867545998,0.00087204487787629,-0.00087205747028374,0.00087204609964561,-0.00067945522542014,0.00067945229669589,-0.0006794516943532,0.00067945583152094,-0.00087205202112105,0.0008720512570662,-0.000872050825249,0.00087205246414654,-0.0014663632401269,0.0014663583599455,-0.0014663620407858,0.0014663595722926,-0.0014663657261682,0.0014663564202854,-0.001466364504042,0.0014663576263303,-0.0013359232617325,0.0013359115859135,-0.0013359196971564,0.0013359151382923,-0.0013359210404134,0.0013359138454188,-0.0013359174914796,0.001335917403816,-0.00067946193586353,0.00067944573221752,-5.9644586878224e-09,9.720511756178e-10,-3.2238691243936e-09,-1.5521574674241e-09,-0.0016664590406501,0.0016664542389929,-0.0015497376464603,0.0015497322224931,-0.0017171699310908,0.001717157719494,-0.0017171634024795,0.0017171645482685,-0.0016167788137974,0.001616771263559,-0.0016167782613855,0.0016167718090518,-0.0016167766225276,0.0016167735955184,-0.0016167760631194,0.0016167741476109,-0.001549737074469,0.0015497329849777,-0.0015497353363655,0.0015497345868219,-0.0017171693701714,0.0017171582419404,-0.0017171628234685,0.0017171650870701,-0.0015497393477677,0.0015497306568749,2.0210911280828e-09,-1.6166609253243e-09,-0.00097146910208798,0.00097146950857328,1.0863065662565e-09,-6.3048400525763e-10,-0.00068225753622185,0.00068225985537284,-0.00074861613682553,0.0007486137053057,-0.00074861493419452,0.0007486149128532,-0.00068225942047527,0.00068225797051018,-0.0006822559477749,0.00068226161634633,-0.00074861445109168,0.00074861540338166,-0.00074861328188691,0.00074861665971182,-0.0012633359667271,0.0012633381528501,-0.0012633365061115,0.0012633375076465,-0.0012633371454995,0.0012633368913292,-0.0012633377774968,0.0012633363624166,-0.0012024630254415,0.0012024592811202,-0.0012024594896143,0.0012024628716159,-0.0012024588538454,0.0012024633598987,-0.0012024623836336,0.0012024597592218,-0.00068226107806453,0.00068225630540161,0.74287813700595,129794,2964,0.0050276456818908,0.0069177504450975,0.004043139260521,37.193616147781,5.754892918225e-05,5.754892918225e-05,5.754892918225e-05,3638188.8429644,0.016119349737966
38880000,0.9726986322381,0.016159949445276,0.0052273540750867,0.0064219649162701,0.004510630453919,-0.0012100148001823,0.0012100088435171,-4.7867245683796e-09,-1.1446207886794e-09,2.8104911887763e-10,-6.4091994013283e-09,-0.00067980080619233,0.00067979168231073,-0.00087264107903266,0.00087262720572571,-0.00087263986946111,0.00087262843177497,-0.0006797975985726,0.00067979469144329,-0.0006797940546986,0.0006797982391784,-0.00087263437187952,0.00087263363548247,-0.0008726331716014,0.00087263484695082,-0.0014676736673949,0.0014676687826609,-0.0014676724634346,0.0014676699993021,-0.0014676761755793,0.0014676668295845,-0.0014676749493139,0.0014676680401503,-0.0013371474500745,0.0013371357238523,-0.0013371438735415,0.0013371392896573,-0.0013371452115386,0.0013371380054265,-0.0013371416489832,0.0013371415764228,-0.00067980436452371,0.00067978807604528,-5.994799141413e-09,9.9621841265986e-10,-3.2259836439435e-09,-1.5537507331259e-09,-0.0016681095938714,0.0016681047876789,-0.0015510831391183,0.0015510776944774,-0.0017188565196229,0.0017188442454256,-0.0017188499387261,0.0017188511286484,-0.0016184198769073,0.001618412304765,-0.0016184193244773,0.0016184128503022,-0.0016184176688163,0.0016184146550137,-0.001618417109313,0.0016184152072303,-0.0015510825500988,0.0015510784748825,-0.001551080811207,0.0015510800768865,-0.0017188559585685,0.0017188447680637,-0.0017188493595643,0.0017188516677043,-0.0015510848414656,0.0015510761285279,2.0280787332817e-09,-1.6228795771135e-09,-0.00097209403407041,0.00097209444136623,1.0870243011464e-09,-6.3030418767052e-10,-0.00068233420240948,0.00068233653492954,-0.00074904390105699,0.00074904146567787,-0.00074904269403172,0.00074904267749883,-0.0006823361033143,0.00068233464172719,-0.00068233261972576,0.00068233830239495,-0.00074904221570444,0.00074904316508968,-0.00074904104274607,0.00074904442657497,-0.0012644327637876,0.0012644349555168,-0.0012644333032801,0.0012644343096189,-0.0012644339465324,0.0012644336890215,-0.001264434579364,0.0012644331603921,-0.001203426303043,0.0012034225457542,-0.0012034227512026,0.001203426145271,-0.0012034221154574,0.0012034266369818,-0.0012034256542784,0.0012034230185297,-0.00068233775753788,0.00068233297243848,0.74369371302962,129794,2964,0.0050316755190768,0.0069245706665581,0.0040457445969882,37.193609170059,5.7548873360475e-05,5.7548873360475e-05,5.7548873360475e-05,3632831.7862087,0.016133028895727
